%%MatrixMarket matrix coordinate  real general
21 21 441
1 1 3.00000000000000000e+00
2 1 3.00000000000000000e+00
3 1 2.56066017177982141e+00
4 1 1.68198051533946424e+00
5 1 5.72230709491638789e-01
6 1 1.83697019872102969e-16
7 1 -5.72230709491638456e-01
8 1 -1.68198051533946358e+00
9 1 -2.56066017177982097e+00
10 1 -3.00000000000000000e+00
11 1 -3.00000000000000000e+00
12 1 -3.00000000000000000e+00
13 1 -2.56066017177982141e+00
14 1 -1.68198051533946469e+00
15 1 -5.72230709491639233e-01
16 1 -5.51091059616308956e-16
17 1 5.72230709491637679e-01
18 1 1.68198051533946225e+00
19 1 2.56066017177982008e+00
20 1 2.99999999999999956e+00
21 1 3.00000000000000000e+00
1 2 3.00000000000000000e+00
2 2 2.99999999999999956e+00
3 2 2.56066017177982141e+00
4 2 1.68198051533946424e+00
5 2 5.72230709491638789e-01
6 2 1.83697019872102969e-16
7 2 -5.72230709491638456e-01
8 2 -1.68198051533946380e+00
9 2 -2.56066017177982141e+00
10 2 -3.00000000000000044e+00
11 2 -3.00000000000000000e+00
12 2 -2.99999999999999956e+00
13 2 -2.56066017177982141e+00
14 2 -1.68198051533946491e+00
15 2 -5.72230709491639344e-01
16 2 -5.51091059616308857e-16
17 2 5.72230709491637679e-01
18 2 1.68198051533946225e+00
19 2 2.56066017177982053e+00
20 2 2.99999999999999956e+00
21 2 3.00000000000000000e+00
1 3 2.85355339059327395e+00
2 3 2.85355339059327395e+00
3 3 2.43566017177982097e+00
4 3 1.59987373415291678e+00
5 3 5.44296960423820253e-01
6 3 1.74729751299306471e-16
7 3 -5.44296960423819809e-01
8 3 -1.59987373415291612e+00
9 3 -2.43566017177982141e+00
10 3 -2.85355339059327395e+00
11 3 -2.85355339059327395e+00
12 3 -2.85355339059327395e+00
13 3 -2.43566017177982141e+00
14 3 -1.59987373415291745e+00
15 3 -5.44296960423820586e-01
16 3 -5.24189253897919486e-16
17 3 5.44296960423819143e-01
18 3 1.59987373415291478e+00
19 3 2.43566017177982008e+00
20 3 2.85355339059327306e+00
21 3 2.85355339059327395e+00
1 4 2.56066017177982141e+00
2 4 2.56066017177982097e+00
3 4 2.18566017177982097e+00
4 4 1.43566017177982164e+00
5 4 4.88429462288182958e-01
6 4 1.56795214153713499e-16
7 4 -4.88429462288182625e-01
8 4 -1.43566017177982097e+00
9 4 -2.18566017177982141e+00
10 4 -2.56066017177982141e+00
11 4 -2.56066017177982141e+00
12 4 -2.56066017177982141e+00
13 4 -2.18566017177982141e+00
14 4 -1.43566017177982230e+00
15 4 -4.88429462288183291e-01
16 4 -4.70385642461140547e-16
17 4 4.88429462288182070e-01
18 4 1.43566017177982008e+00
19 4 2.18566017177982053e+00
20 4 2.56066017177982097e+00
21 4 2.56066017177982141e+00
1 5 2.19074356983054619e+00
2 5 2.19074356983054619e+00
3 5 1.86991660194927500e+00
4 5 1.22826266618673308e+00
5 5 4.17870249092793022e-01
6 5 1.34144355027281203e-16
7 5 -4.17870249092792634e-01
8 5 -1.22826266618673263e+00
9 5 -1.86991660194927500e+00
10 5 -2.19074356983054663e+00
11 5 -2.19074356983054619e+00
12 5 -2.19074356983054619e+00
13 5 -1.86991660194927545e+00
14 5 -1.22826266618673374e+00
15 5 -4.17870249092793300e-01
16 5 -4.02433065081843682e-16
17 5 4.17870249092792412e-01
18 5 1.22826266618673219e+00
19 5 1.86991660194927456e+00
20 5 2.19074356983054574e+00
21 5 2.19074356983054619e+00
1 6 2.00000000000000000e+00
2 6 2.00000000000000000e+00
3 6 1.70710678118654768e+00
4 6 1.12132034355964283e+00
5 6 3.81487139661092545e-01
6 6 1.22464679914735321e-16
7 6 -3.81487139661092212e-01
8 6 -1.12132034355964216e+00
9 6 -1.70710678118654746e+00
10 6 -2.00000000000000000e+00
11 6 -2.00000000000000000e+00
12 6 -2.00000000000000000e+00
13 6 -1.70710678118654768e+00
14 6 -1.12132034355964327e+00
15 6 -3.81487139661092767e-01
16 6 -3.67394039744205938e-16
17 6 3.81487139661092045e-01
18 6 1.12132034355964216e+00
19 6 1.70710678118654724e+00
20 6 1.99999999999999978e+00
21 6 2.00000000000000000e+00
1 7 1.80925643016945381e+00
2 7 1.80925643016945359e+00
3 7 1.54429696042382014e+00
4 7 1.01437802093255236e+00
5 7 3.45104030229392067e-01
6 7 1.10785004802189414e-16
7 7 -3.45104030229391789e-01
8 7 -1.01437802093255169e+00
9 7 -1.54429696042381992e+00
10 7 -1.80925643016945403e+00
11 7 -1.80925643016945381e+00
12 7 -1.80925643016945359e+00
13 7 -1.54429696042382014e+00
14 7 -1.01437802093255280e+00
15 7 -3.45104030229392289e-01
16 7 -3.32355014406568242e-16
17 7 3.45104030229391623e-01
18 7 1.01437802093255169e+00
19 7 1.54429696042381992e+00
20 7 1.80925643016945381e+00
21 7 1.80925643016945381e+00
1 8 1.43933982822017859e+00
2 8 1.43933982822017903e+00
3 8 1.22855339059327395e+00
4 8 8.06980515339464022e-01
5 8 2.74544817034002075e-01
6 8 8.81341456757571421e-17
7 8 -2.74544817034001853e-01
8 8 -8.06980515339463578e-01
9 8 -1.22855339059327373e+00
10 8 -1.43933982822017859e+00
11 8 -1.43933982822017859e+00
12 8 -1.43933982822017903e+00
13 8 -1.22855339059327395e+00
14 8 -8.06980515339464466e-01
15 8 -2.74544817034002298e-01
16 8 -2.64402437027271476e-16
17 8 2.74544817034001798e-01
18 8 8.06980515339463578e-01
19 8 1.22855339059327373e+00
20 8 1.43933982822017859e+00
21 8 1.43933982822017859e+00
1 9 1.14644660940672627e+00
2 9 1.14644660940672627e+00
3 9 9.78553390593273731e-01
4 9 6.42766952966368987e-01
5 9 2.18677318898364920e-01
6 9 7.01996085301641584e-17
7 9 -2.18677318898364698e-01
8 9 -6.42766952966368654e-01
9 9 -9.78553390593273731e-01
10 9 -1.14644660940672627e+00
11 9 -1.14644660940672627e+00
12 9 -1.14644660940672627e+00
13 9 -9.78553390593273731e-01
14 9 -6.42766952966369209e-01
15 9 -2.18677318898365058e-01
16 9 -2.10598825590492512e-16
17 9 2.18677318898364642e-01
18 9 6.42766952966368543e-01
19 9 9.78553390593273731e-01
20 9 1.14644660940672627e+00
21 9 1.14644660940672627e+00
1 10 1.00000000000000000e+00
2 10 1.00000000000000000e+00
3 10 8.53553390593273731e-01
4 10 5.60660171779821415e-01
5 10 1.90743569830546272e-01
6 10 6.12323399573676604e-17
7 10 -1.90743569830546106e-01
8 10 -5.60660171779821193e-01
9 10 -8.53553390593273620e-01
10 10 -1.00000000000000000e+00
11 10 -1.00000000000000000e+00
12 10 -1.00000000000000000e+00
13 10 -8.53553390593273842e-01
14 10 -5.60660171779821637e-01
15 10 -1.90743569830546411e-01
16 10 -1.83697019872102993e-16
17 10 1.90743569830546050e-01
18 10 5.60660171779821082e-01
19 10 8.53553390593273620e-01
20 10 1.00000000000000000e+00
21 10 1.00000000000000000e+00
1 11 1.00000000000000000e+00
2 11 1.00000000000000000e+00
3 11 8.53553390593273842e-01
4 11 5.60660171779821415e-01
5 11 1.90743569830546272e-01
6 11 6.12323399573676604e-17
7 11 -1.90743569830546161e-01
8 11 -5.60660171779821193e-01
9 11 -8.53553390593273731e-01
10 11 -1.00000000000000000e+00
11 11 -1.00000000000000000e+00
12 11 -1.00000000000000000e+00
13 11 -8.53553390593273842e-01
14 11 -5.60660171779821637e-01
15 11 -1.90743569830546383e-01
16 11 -1.83697019872102969e-16
17 11 1.90743569830546050e-01
18 11 5.60660171779821082e-01
19 11 8.53553390593273731e-01
20 11 1.00000000000000000e+00
21 11 1.00000000000000000e+00
1 12 1.00000000000000000e+00
2 12 1.00000000000000000e+00
3 12 8.53553390593273842e-01
4 12 5.60660171779821415e-01
5 12 1.90743569830546272e-01
6 12 6.12323399573676480e-17
7 12 -1.90743569830546134e-01
8 12 -5.60660171779821193e-01
9 12 -8.53553390593273842e-01
10 12 -1.00000000000000000e+00
11 12 -1.00000000000000000e+00
12 12 -1.00000000000000000e+00
13 12 -8.53553390593273842e-01
14 12 -5.60660171779821748e-01
15 12 -1.90743569830546411e-01
16 12 -1.83697019872102969e-16
17 12 1.90743569830546050e-01
18 12 5.60660171779821082e-01
19 12 8.53553390593273842e-01
20 12 1.00000000000000000e+00
21 12 1.00000000000000000e+00
1 13 1.14644660940672627e+00
2 13 1.14644660940672627e+00
3 13 9.78553390593273731e-01
4 13 6.42766952966368876e-01
5 13 2.18677318898364864e-01
6 13 7.01996085301641584e-17
7 13 -2.18677318898364753e-01
8 13 -6.42766952966368654e-01
9 13 -9.78553390593273731e-01
10 13 -1.14644660940672627e+00
11 13 -1.14644660940672627e+00
12 13 -1.14644660940672627e+00
13 13 -9.78553390593273731e-01
14 13 -6.42766952966369209e-01
15 13 -2.18677318898365031e-01
16 13 -2.10598825590492463e-16
17 13 2.18677318898364642e-01
18 13 6.42766952966368654e-01
19 13 9.78553390593273731e-01
20 13 1.14644660940672627e+00
21 13 1.14644660940672627e+00
1 14 1.43933982822017903e+00
2 14 1.43933982822017859e+00
3 14 1.22855339059327373e+00
4 14 8.06980515339464022e-01
5 14 2.74544817034002131e-01
6 14 8.81341456757571668e-17
7 14 -2.74544817034001909e-01
8 14 -8.06980515339463578e-01
9 14 -1.22855339059327373e+00
10 14 -1.43933982822017859e+00
11 14 -1.43933982822017903e+00
12 14 -1.43933982822017859e+00
13 14 -1.22855339059327373e+00
14 14 -8.06980515339464355e-01
15 14 -2.74544817034002353e-01
16 14 -2.64402437027271476e-16
17 14 2.74544817034001798e-01
18 14 8.06980515339463578e-01
19 14 1.22855339059327351e+00
20 14 1.43933982822017859e+00
21 14 1.43933982822017903e+00
1 15 1.80925643016945403e+00
2 15 1.80925643016945359e+00
3 15 1.54429696042382014e+00
4 15 1.01437802093255236e+00
5 15 3.45104030229392067e-01
6 15 1.10785004802189414e-16
7 15 -3.45104030229391789e-01
8 15 -1.01437802093255192e+00
9 15 -1.54429696042381992e+00
10 15 -1.80925643016945381e+00
11 15 -1.80925643016945403e+00
12 15 -1.80925643016945359e+00
13 15 -1.54429696042382014e+00
14 15 -1.01437802093255280e+00
15 15 -3.45104030229392289e-01
16 15 -3.32355014406568242e-16
17 15 3.45104030229391623e-01
18 15 1.01437802093255192e+00
19 15 1.54429696042381970e+00
20 15 1.80925643016945359e+00
21 15 1.80925643016945403e+00
1 16 2.00000000000000000e+00
2 16 2.00000000000000000e+00
3 16 1.70710678118654768e+00
4 16 1.12132034355964283e+00
5 16 3.81487139661092545e-01
6 16 1.22464679914735321e-16
7 16 -3.81487139661092212e-01
8 16 -1.12132034355964216e+00
9 16 -1.70710678118654746e+00
10 16 -2.00000000000000000e+00
11 16 -2.00000000000000000e+00
12 16 -2.00000000000000000e+00
13 16 -1.70710678118654768e+00
14 16 -1.12132034355964327e+00
15 16 -3.81487139661092767e-01
16 16 -3.67394039744205938e-16
17 16 3.81487139661092045e-01
18 16 1.12132034355964216e+00
19 16 1.70710678118654724e+00
20 16 1.99999999999999978e+00
21 16 2.00000000000000000e+00
1 17 2.19074356983054619e+00
2 17 2.19074356983054619e+00
3 17 1.86991660194927478e+00
4 17 1.22826266618673330e+00
5 17 4.17870249092793022e-01
6 17 1.34144355027281227e-16
7 17 -4.17870249092792634e-01
8 17 -1.22826266618673263e+00
9 17 -1.86991660194927523e+00
10 17 -2.19074356983054663e+00
11 17 -2.19074356983054619e+00
12 17 -2.19074356983054619e+00
13 17 -1.86991660194927545e+00
14 17 -1.22826266618673374e+00
15 17 -4.17870249092793300e-01
16 17 -4.02433065081843633e-16
17 17 4.17870249092792412e-01
18 17 1.22826266618673219e+00
19 17 1.86991660194927478e+00
20 17 2.19074356983054619e+00
21 17 2.19074356983054619e+00
1 18 2.56066017177982141e+00
2 18 2.56066017177982141e+00
3 18 2.18566017177982097e+00
4 18 1.43566017177982164e+00
5 18 4.88429462288182958e-01
6 18 1.56795214153713450e-16
7 18 -4.88429462288182625e-01
8 18 -1.43566017177982097e+00
9 18 -2.18566017177982186e+00
10 18 -2.56066017177982141e+00
11 18 -2.56066017177982141e+00
12 18 -2.56066017177982141e+00
13 18 -2.18566017177982141e+00
14 18 -1.43566017177982230e+00
15 18 -4.88429462288183236e-01
16 18 -4.70385642461140350e-16
17 18 4.88429462288182181e-01
18 18 1.43566017177982008e+00
19 18 2.18566017177982097e+00
20 18 2.56066017177982097e+00
21 18 2.56066017177982141e+00
1 19 2.85355339059327395e+00
2 19 2.85355339059327395e+00
3 19 2.43566017177982141e+00
4 19 1.59987373415291678e+00
5 19 5.44296960423820253e-01
6 19 1.74729751299306495e-16
7 19 -5.44296960423819809e-01
8 19 -1.59987373415291612e+00
9 19 -2.43566017177982097e+00
10 19 -2.85355339059327395e+00
11 19 -2.85355339059327395e+00
12 19 -2.85355339059327395e+00
13 19 -2.43566017177982141e+00
14 19 -1.59987373415291723e+00
15 19 -5.44296960423820586e-01
16 19 -5.24189253897919486e-16
17 19 5.44296960423819143e-01
18 19 1.59987373415291478e+00
19 19 2.43566017177982008e+00
20 19 2.85355339059327306e+00
21 19 2.85355339059327395e+00
1 20 3.00000000000000000e+00
2 20 2.99999999999999956e+00
3 20 2.56066017177982141e+00
4 20 1.68198051533946424e+00
5 20 5.72230709491638900e-01
6 20 1.83697019872102993e-16
7 20 -5.72230709491638456e-01
8 20 -1.68198051533946358e+00
9 20 -2.56066017177982097e+00
10 20 -3.00000000000000000e+00
11 20 -3.00000000000000000e+00
12 20 -2.99999999999999956e+00
13 20 -2.56066017177982141e+00
14 20 -1.68198051533946469e+00
15 20 -5.72230709491639233e-01
16 20 -5.51091059616308956e-16
17 20 5.72230709491637679e-01
18 20 1.68198051533946225e+00
19 20 2.56066017177982053e+00
20 20 3.00000000000000000e+00
21 20 3.00000000000000000e+00
1 21 3.00000000000000000e+00
2 21 3.00000000000000000e+00
3 21 2.56066017177982141e+00
4 21 1.68198051533946424e+00
5 21 5.72230709491638789e-01
6 21 1.83697019872102969e-16
7 21 -5.72230709491638456e-01
8 21 -1.68198051533946358e+00
9 21 -2.56066017177982097e+00
10 21 -3.00000000000000000e+00
11 21 -3.00000000000000000e+00
12 21 -3.00000000000000000e+00
13 21 -2.56066017177982141e+00
14 21 -1.68198051533946469e+00
15 21 -5.72230709491639233e-01
16 21 -5.51091059616308956e-16
17 21 5.72230709491637679e-01
18 21 1.68198051533946225e+00
19 21 2.56066017177982008e+00
20 21 2.99999999999999956e+00
21 21 3.00000000000000000e+00
