%%MatrixMarket matrix coordinate  real general
21 21 441
1 1 0.00000000000000000e+00
2 1 0.00000000000000000e+00
3 1 0.00000000000000000e+00
4 1 0.00000000000000000e+00
5 1 0.00000000000000000e+00
6 1 0.00000000000000000e+00
7 1 0.00000000000000000e+00
8 1 0.00000000000000000e+00
9 1 0.00000000000000000e+00
10 1 0.00000000000000000e+00
11 1 0.00000000000000000e+00
12 1 0.00000000000000000e+00
13 1 0.00000000000000000e+00
14 1 0.00000000000000000e+00
15 1 0.00000000000000000e+00
16 1 0.00000000000000000e+00
17 1 0.00000000000000000e+00
18 1 0.00000000000000000e+00
19 1 0.00000000000000000e+00
20 1 0.00000000000000000e+00
21 1 0.00000000000000000e+00
1 2 1.90743569830546245e-01
2 2 1.90743569830546217e-01
3 2 1.90743569830546161e-01
4 2 1.90743569830546217e-01
5 2 1.90743569830546245e-01
6 2 1.90743569830546245e-01
7 2 1.90743569830546217e-01
8 2 1.90743569830546161e-01
9 2 1.90743569830546217e-01
10 2 1.90743569830546245e-01
11 2 1.90743569830546245e-01
12 2 1.90743569830546217e-01
13 2 1.90743569830546161e-01
14 2 1.90743569830546217e-01
15 2 1.90743569830546245e-01
16 2 1.90743569830546245e-01
17 2 1.90743569830546217e-01
18 2 1.90743569830546161e-01
19 2 1.90743569830546217e-01
20 2 1.90743569830546245e-01
21 2 1.90743569830546245e-01
1 3 5.60660171779821304e-01
2 3 5.60660171779821304e-01
3 3 5.60660171779821193e-01
4 3 5.60660171779821526e-01
5 3 5.60660171779821415e-01
6 3 5.60660171779821304e-01
7 3 5.60660171779821304e-01
8 3 5.60660171779821193e-01
9 3 5.60660171779821526e-01
10 3 5.60660171779821415e-01
11 3 5.60660171779821304e-01
12 3 5.60660171779821304e-01
13 3 5.60660171779821193e-01
14 3 5.60660171779821526e-01
15 3 5.60660171779821415e-01
16 3 5.60660171779821304e-01
17 3 5.60660171779821304e-01
18 3 5.60660171779821193e-01
19 3 5.60660171779821526e-01
20 3 5.60660171779821415e-01
21 3 5.60660171779821304e-01
1 4 8.53553390593273731e-01
2 4 8.53553390593273842e-01
3 4 8.53553390593273620e-01
4 4 8.53553390593273842e-01
5 4 8.53553390593273842e-01
6 4 8.53553390593273731e-01
7 4 8.53553390593273842e-01
8 4 8.53553390593273620e-01
9 4 8.53553390593273842e-01
10 4 8.53553390593273842e-01
11 4 8.53553390593273731e-01
12 4 8.53553390593273842e-01
13 4 8.53553390593273620e-01
14 4 8.53553390593273842e-01
15 4 8.53553390593273842e-01
16 4 8.53553390593273731e-01
17 4 8.53553390593273842e-01
18 4 8.53553390593273620e-01
19 4 8.53553390593273842e-01
20 4 8.53553390593273842e-01
21 4 8.53553390593273731e-01
1 5 1.00000000000000000e+00
2 5 1.00000000000000000e+00
3 5 1.00000000000000000e+00
4 5 1.00000000000000000e+00
5 5 1.00000000000000000e+00
6 5 1.00000000000000000e+00
7 5 1.00000000000000000e+00
8 5 1.00000000000000000e+00
9 5 1.00000000000000000e+00
10 5 1.00000000000000000e+00
11 5 1.00000000000000000e+00
12 5 1.00000000000000000e+00
13 5 1.00000000000000000e+00
14 5 1.00000000000000000e+00
15 5 1.00000000000000000e+00
16 5 1.00000000000000000e+00
17 5 1.00000000000000000e+00
18 5 1.00000000000000000e+00
19 5 1.00000000000000000e+00
20 5 1.00000000000000000e+00
21 5 1.00000000000000000e+00
1 6 1.00000000000000000e+00
2 6 1.00000000000000000e+00
3 6 1.00000000000000000e+00
4 6 1.00000000000000000e+00
5 6 1.00000000000000000e+00
6 6 1.00000000000000000e+00
7 6 1.00000000000000000e+00
8 6 1.00000000000000000e+00
9 6 1.00000000000000000e+00
10 6 1.00000000000000000e+00
11 6 1.00000000000000000e+00
12 6 1.00000000000000000e+00
13 6 1.00000000000000000e+00
14 6 1.00000000000000000e+00
15 6 1.00000000000000000e+00
16 6 1.00000000000000000e+00
17 6 1.00000000000000000e+00
18 6 1.00000000000000000e+00
19 6 1.00000000000000000e+00
20 6 1.00000000000000000e+00
21 6 1.00000000000000000e+00
1 7 1.00000000000000000e+00
2 7 1.00000000000000000e+00
3 7 1.00000000000000000e+00
4 7 1.00000000000000000e+00
5 7 1.00000000000000000e+00
6 7 1.00000000000000000e+00
7 7 1.00000000000000000e+00
8 7 1.00000000000000000e+00
9 7 1.00000000000000000e+00
10 7 1.00000000000000000e+00
11 7 1.00000000000000000e+00
12 7 1.00000000000000000e+00
13 7 1.00000000000000000e+00
14 7 1.00000000000000000e+00
15 7 1.00000000000000000e+00
16 7 1.00000000000000000e+00
17 7 1.00000000000000000e+00
18 7 1.00000000000000000e+00
19 7 1.00000000000000000e+00
20 7 1.00000000000000000e+00
21 7 1.00000000000000000e+00
1 8 8.53553390593273620e-01
2 8 8.53553390593273731e-01
3 8 8.53553390593273731e-01
4 8 8.53553390593273731e-01
5 8 8.53553390593273620e-01
6 8 8.53553390593273620e-01
7 8 8.53553390593273731e-01
8 8 8.53553390593273731e-01
9 8 8.53553390593273731e-01
10 8 8.53553390593273620e-01
11 8 8.53553390593273620e-01
12 8 8.53553390593273731e-01
13 8 8.53553390593273731e-01
14 8 8.53553390593273731e-01
15 8 8.53553390593273620e-01
16 8 8.53553390593273620e-01
17 8 8.53553390593273731e-01
18 8 8.53553390593273731e-01
19 8 8.53553390593273731e-01
20 8 8.53553390593273620e-01
21 8 8.53553390593273620e-01
1 9 5.60660171779821304e-01
2 9 5.60660171779821193e-01
3 9 5.60660171779821193e-01
4 9 5.60660171779821304e-01
5 9 5.60660171779821304e-01
6 9 5.60660171779821304e-01
7 9 5.60660171779821193e-01
8 9 5.60660171779821193e-01
9 9 5.60660171779821304e-01
10 9 5.60660171779821304e-01
11 9 5.60660171779821304e-01
12 9 5.60660171779821193e-01
13 9 5.60660171779821193e-01
14 9 5.60660171779821304e-01
15 9 5.60660171779821304e-01
16 9 5.60660171779821304e-01
17 9 5.60660171779821193e-01
18 9 5.60660171779821193e-01
19 9 5.60660171779821304e-01
20 9 5.60660171779821304e-01
21 9 5.60660171779821304e-01
1 10 1.90743569830546189e-01
2 10 1.90743569830546161e-01
3 10 1.90743569830546161e-01
4 10 1.90743569830546217e-01
5 10 1.90743569830546217e-01
6 10 1.90743569830546189e-01
7 10 1.90743569830546161e-01
8 10 1.90743569830546161e-01
9 10 1.90743569830546217e-01
10 10 1.90743569830546217e-01
11 10 1.90743569830546189e-01
12 10 1.90743569830546161e-01
13 10 1.90743569830546161e-01
14 10 1.90743569830546217e-01
15 10 1.90743569830546217e-01
16 10 1.90743569830546189e-01
17 10 1.90743569830546161e-01
18 10 1.90743569830546161e-01
19 10 1.90743569830546217e-01
20 10 1.90743569830546217e-01
21 10 1.90743569830546189e-01
1 11 0.00000000000000000e+00
2 11 0.00000000000000000e+00
3 11 0.00000000000000000e+00
4 11 0.00000000000000000e+00
5 11 0.00000000000000000e+00
6 11 0.00000000000000000e+00
7 11 0.00000000000000000e+00
8 11 0.00000000000000000e+00
9 11 0.00000000000000000e+00
10 11 0.00000000000000000e+00
11 11 0.00000000000000000e+00
12 11 0.00000000000000000e+00
13 11 0.00000000000000000e+00
14 11 0.00000000000000000e+00
15 11 0.00000000000000000e+00
16 11 0.00000000000000000e+00
17 11 0.00000000000000000e+00
18 11 0.00000000000000000e+00
19 11 0.00000000000000000e+00
20 11 0.00000000000000000e+00
21 11 0.00000000000000000e+00
1 12 -1.90743569830546245e-01
2 12 -1.90743569830546217e-01
3 12 -1.90743569830546161e-01
4 12 -1.90743569830546217e-01
5 12 -1.90743569830546245e-01
6 12 -1.90743569830546245e-01
7 12 -1.90743569830546217e-01
8 12 -1.90743569830546161e-01
9 12 -1.90743569830546217e-01
10 12 -1.90743569830546245e-01
11 12 -1.90743569830546245e-01
12 12 -1.90743569830546217e-01
13 12 -1.90743569830546161e-01
14 12 -1.90743569830546217e-01
15 12 -1.90743569830546245e-01
16 12 -1.90743569830546245e-01
17 12 -1.90743569830546217e-01
18 12 -1.90743569830546161e-01
19 12 -1.90743569830546217e-01
20 12 -1.90743569830546245e-01
21 12 -1.90743569830546245e-01
1 13 -5.60660171779821304e-01
2 13 -5.60660171779821304e-01
3 13 -5.60660171779821193e-01
4 13 -5.60660171779821526e-01
5 13 -5.60660171779821415e-01
6 13 -5.60660171779821304e-01
7 13 -5.60660171779821304e-01
8 13 -5.60660171779821193e-01
9 13 -5.60660171779821526e-01
10 13 -5.60660171779821415e-01
11 13 -5.60660171779821304e-01
12 13 -5.60660171779821304e-01
13 13 -5.60660171779821193e-01
14 13 -5.60660171779821526e-01
15 13 -5.60660171779821415e-01
16 13 -5.60660171779821304e-01
17 13 -5.60660171779821304e-01
18 13 -5.60660171779821193e-01
19 13 -5.60660171779821526e-01
20 13 -5.60660171779821415e-01
21 13 -5.60660171779821304e-01
1 14 -8.53553390593273731e-01
2 14 -8.53553390593273842e-01
3 14 -8.53553390593273620e-01
4 14 -8.53553390593273842e-01
5 14 -8.53553390593273842e-01
6 14 -8.53553390593273731e-01
7 14 -8.53553390593273842e-01
8 14 -8.53553390593273620e-01
9 14 -8.53553390593273842e-01
10 14 -8.53553390593273842e-01
11 14 -8.53553390593273731e-01
12 14 -8.53553390593273842e-01
13 14 -8.53553390593273620e-01
14 14 -8.53553390593273842e-01
15 14 -8.53553390593273842e-01
16 14 -8.53553390593273731e-01
17 14 -8.53553390593273842e-01
18 14 -8.53553390593273620e-01
19 14 -8.53553390593273842e-01
20 14 -8.53553390593273842e-01
21 14 -8.53553390593273731e-01
1 15 -1.00000000000000000e+00
2 15 -1.00000000000000000e+00
3 15 -1.00000000000000000e+00
4 15 -1.00000000000000000e+00
5 15 -1.00000000000000000e+00
6 15 -1.00000000000000000e+00
7 15 -1.00000000000000000e+00
8 15 -1.00000000000000000e+00
9 15 -1.00000000000000000e+00
10 15 -1.00000000000000000e+00
11 15 -1.00000000000000000e+00
12 15 -1.00000000000000000e+00
13 15 -1.00000000000000000e+00
14 15 -1.00000000000000000e+00
15 15 -1.00000000000000000e+00
16 15 -1.00000000000000000e+00
17 15 -1.00000000000000000e+00
18 15 -1.00000000000000000e+00
19 15 -1.00000000000000000e+00
20 15 -1.00000000000000000e+00
21 15 -1.00000000000000000e+00
1 16 -1.00000000000000000e+00
2 16 -1.00000000000000000e+00
3 16 -1.00000000000000000e+00
4 16 -1.00000000000000000e+00
5 16 -1.00000000000000000e+00
6 16 -1.00000000000000000e+00
7 16 -1.00000000000000000e+00
8 16 -1.00000000000000000e+00
9 16 -1.00000000000000000e+00
10 16 -1.00000000000000000e+00
11 16 -1.00000000000000000e+00
12 16 -1.00000000000000000e+00
13 16 -1.00000000000000000e+00
14 16 -1.00000000000000000e+00
15 16 -1.00000000000000000e+00
16 16 -1.00000000000000000e+00
17 16 -1.00000000000000000e+00
18 16 -1.00000000000000000e+00
19 16 -1.00000000000000000e+00
20 16 -1.00000000000000000e+00
21 16 -1.00000000000000000e+00
1 17 -1.00000000000000000e+00
2 17 -1.00000000000000000e+00
3 17 -1.00000000000000000e+00
4 17 -1.00000000000000000e+00
5 17 -1.00000000000000000e+00
6 17 -1.00000000000000000e+00
7 17 -1.00000000000000000e+00
8 17 -1.00000000000000000e+00
9 17 -1.00000000000000000e+00
10 17 -1.00000000000000000e+00
11 17 -1.00000000000000000e+00
12 17 -1.00000000000000000e+00
13 17 -1.00000000000000000e+00
14 17 -1.00000000000000000e+00
15 17 -1.00000000000000000e+00
16 17 -1.00000000000000000e+00
17 17 -1.00000000000000000e+00
18 17 -1.00000000000000000e+00
19 17 -1.00000000000000000e+00
20 17 -1.00000000000000000e+00
21 17 -1.00000000000000000e+00
1 18 -8.53553390593273620e-01
2 18 -8.53553390593273731e-01
3 18 -8.53553390593273731e-01
4 18 -8.53553390593273731e-01
5 18 -8.53553390593273620e-01
6 18 -8.53553390593273620e-01
7 18 -8.53553390593273731e-01
8 18 -8.53553390593273731e-01
9 18 -8.53553390593273731e-01
10 18 -8.53553390593273620e-01
11 18 -8.53553390593273620e-01
12 18 -8.53553390593273731e-01
13 18 -8.53553390593273731e-01
14 18 -8.53553390593273731e-01
15 18 -8.53553390593273620e-01
16 18 -8.53553390593273620e-01
17 18 -8.53553390593273731e-01
18 18 -8.53553390593273731e-01
19 18 -8.53553390593273731e-01
20 18 -8.53553390593273620e-01
21 18 -8.53553390593273620e-01
1 19 -5.60660171779821304e-01
2 19 -5.60660171779821193e-01
3 19 -5.60660171779821193e-01
4 19 -5.60660171779821304e-01
5 19 -5.60660171779821304e-01
6 19 -5.60660171779821304e-01
7 19 -5.60660171779821193e-01
8 19 -5.60660171779821193e-01
9 19 -5.60660171779821304e-01
10 19 -5.60660171779821304e-01
11 19 -5.60660171779821304e-01
12 19 -5.60660171779821193e-01
13 19 -5.60660171779821193e-01
14 19 -5.60660171779821304e-01
15 19 -5.60660171779821304e-01
16 19 -5.60660171779821304e-01
17 19 -5.60660171779821193e-01
18 19 -5.60660171779821193e-01
19 19 -5.60660171779821304e-01
20 19 -5.60660171779821304e-01
21 19 -5.60660171779821304e-01
1 20 -1.90743569830546189e-01
2 20 -1.90743569830546161e-01
3 20 -1.90743569830546161e-01
4 20 -1.90743569830546217e-01
5 20 -1.90743569830546217e-01
6 20 -1.90743569830546189e-01
7 20 -1.90743569830546161e-01
8 20 -1.90743569830546161e-01
9 20 -1.90743569830546217e-01
10 20 -1.90743569830546217e-01
11 20 -1.90743569830546189e-01
12 20 -1.90743569830546161e-01
13 20 -1.90743569830546161e-01
14 20 -1.90743569830546217e-01
15 20 -1.90743569830546217e-01
16 20 -1.90743569830546189e-01
17 20 -1.90743569830546161e-01
18 20 -1.90743569830546161e-01
19 20 -1.90743569830546217e-01
20 20 -1.90743569830546217e-01
21 20 -1.90743569830546189e-01
1 21 0.00000000000000000e+00
2 21 0.00000000000000000e+00
3 21 0.00000000000000000e+00
4 21 0.00000000000000000e+00
5 21 0.00000000000000000e+00
6 21 0.00000000000000000e+00
7 21 0.00000000000000000e+00
8 21 0.00000000000000000e+00
9 21 0.00000000000000000e+00
10 21 0.00000000000000000e+00
11 21 0.00000000000000000e+00
12 21 0.00000000000000000e+00
13 21 0.00000000000000000e+00
14 21 0.00000000000000000e+00
15 21 0.00000000000000000e+00
16 21 0.00000000000000000e+00
17 21 0.00000000000000000e+00
18 21 0.00000000000000000e+00
19 21 0.00000000000000000e+00
20 21 0.00000000000000000e+00
21 21 0.00000000000000000e+00
