%%MatrixMarket matrix coordinate  real general
21 21 441
1 1 0.00000000000000000e+00
2 1 -5.72230709491638678e-01
3 1 -1.68198051533946380e+00
4 1 -2.56066017177982141e+00
5 1 -3.00000000000000000e+00
6 1 -3.00000000000000000e+00
7 1 -3.00000000000000000e+00
8 1 -2.56066017177982141e+00
9 1 -1.68198051533946424e+00
10 1 -5.72230709491638900e-01
11 1 -3.67394039744205888e-16
12 1 5.72230709491638234e-01
13 1 1.68198051533946358e+00
14 1 2.56066017177982097e+00
15 1 3.00000000000000000e+00
16 1 3.00000000000000000e+00
17 1 3.00000000000000000e+00
18 1 2.56066017177982141e+00
19 1 1.68198051533946469e+00
20 1 5.72230709491639233e-01
21 1 7.34788079488411776e-16
1 2 0.00000000000000000e+00
2 2 -5.72230709491638678e-01
3 2 -1.68198051533946380e+00
4 2 -2.56066017177982141e+00
5 2 -3.00000000000000044e+00
6 2 -3.00000000000000000e+00
7 2 -2.99999999999999956e+00
8 2 -2.56066017177982141e+00
9 2 -1.68198051533946424e+00
10 2 -5.72230709491639011e-01
11 2 -3.67394039744205938e-16
12 2 5.72230709491638234e-01
13 2 1.68198051533946380e+00
14 2 2.56066017177982141e+00
15 2 3.00000000000000044e+00
16 2 3.00000000000000000e+00
17 2 2.99999999999999956e+00
18 2 2.56066017177982141e+00
19 2 1.68198051533946491e+00
20 2 5.72230709491639344e-01
21 2 7.34788079488411875e-16
1 3 0.00000000000000000e+00
2 3 -5.44296960423820142e-01
3 3 -1.59987373415291634e+00
4 3 -2.43566017177982186e+00
5 3 -2.85355339059327395e+00
6 3 -2.85355339059327395e+00
7 3 -2.85355339059327395e+00
8 3 -2.43566017177982097e+00
9 3 -1.59987373415291678e+00
10 3 -5.44296960423820364e-01
11 3 -3.49459502598612941e-16
12 3 5.44296960423819698e-01
13 3 1.59987373415291612e+00
14 3 2.43566017177982141e+00
15 3 2.85355339059327395e+00
16 3 2.85355339059327395e+00
17 3 2.85355339059327395e+00
18 3 2.43566017177982097e+00
19 3 1.59987373415291723e+00
20 3 5.44296960423820586e-01
21 3 6.98919005197225883e-16
1 4 0.00000000000000000e+00
2 4 -4.88429462288182903e-01
3 4 -1.43566017177982119e+00
4 4 -2.18566017177982186e+00
5 4 -2.56066017177982141e+00
6 4 -2.56066017177982141e+00
7 4 -2.56066017177982097e+00
8 4 -2.18566017177982097e+00
9 4 -1.43566017177982164e+00
10 4 -4.88429462288183069e-01
11 4 -3.13590428307426999e-16
12 4 4.88429462288182625e-01
13 4 1.43566017177982119e+00
14 4 2.18566017177982141e+00
15 4 2.56066017177982141e+00
16 4 2.56066017177982141e+00
17 4 2.56066017177982097e+00
18 4 2.18566017177982097e+00
19 4 1.43566017177982164e+00
20 4 4.88429462288183402e-01
21 4 6.27180856614853997e-16
1 5 0.00000000000000000e+00
2 5 -4.17870249092792911e-01
3 5 -1.22826266618673308e+00
4 5 -1.86991660194927523e+00
5 5 -2.19074356983054663e+00
6 5 -2.19074356983054619e+00
7 5 -2.19074356983054619e+00
8 5 -1.86991660194927500e+00
9 5 -1.22826266618673308e+00
10 5 -4.17870249092793133e-01
11 5 -2.68288710054562405e-16
12 5 4.17870249092792745e-01
13 5 1.22826266618673285e+00
14 5 1.86991660194927500e+00
15 5 2.19074356983054663e+00
16 5 2.19074356983054619e+00
17 5 2.19074356983054619e+00
18 5 1.86991660194927500e+00
19 5 1.22826266618673308e+00
20 5 4.17870249092793355e-01
21 5 5.36577420109124811e-16
1 6 0.00000000000000000e+00
2 6 -3.81487139661092489e-01
3 6 -1.12132034355964261e+00
4 6 -1.70710678118654746e+00
5 6 -2.00000000000000000e+00
6 6 -2.00000000000000000e+00
7 6 -2.00000000000000000e+00
8 6 -1.70710678118654768e+00
9 6 -1.12132034355964283e+00
10 6 -3.81487139661092600e-01
11 6 -2.44929359829470641e-16
12 6 3.81487139661092323e-01
13 6 1.12132034355964261e+00
14 6 1.70710678118654746e+00
15 6 2.00000000000000000e+00
16 6 2.00000000000000000e+00
17 6 2.00000000000000000e+00
18 6 1.70710678118654768e+00
19 6 1.12132034355964283e+00
20 6 3.81487139661092822e-01
21 6 4.89858719658941283e-16
1 7 0.00000000000000000e+00
2 7 -3.45104030229392011e-01
3 7 -1.01437802093255236e+00
4 7 -1.54429696042381992e+00
5 7 -1.80925643016945403e+00
6 7 -1.80925643016945381e+00
7 7 -1.80925643016945359e+00
8 7 -1.54429696042382014e+00
9 7 -1.01437802093255236e+00
10 7 -3.45104030229392122e-01
11 7 -2.21570009604378828e-16
12 7 3.45104030229391845e-01
13 7 1.01437802093255236e+00
14 7 1.54429696042381992e+00
15 7 1.80925643016945403e+00
16 7 1.80925643016945381e+00
17 7 1.80925643016945359e+00
18 7 1.54429696042382014e+00
19 7 1.01437802093255258e+00
20 7 3.45104030229392400e-01
21 7 4.43140019208757657e-16
1 8 0.00000000000000000e+00
2 8 -2.74544817034002075e-01
3 8 -8.06980515339463800e-01
4 8 -1.22855339059327373e+00
5 8 -1.43933982822017859e+00
6 8 -1.43933982822017859e+00
7 8 -1.43933982822017903e+00
8 8 -1.22855339059327395e+00
9 8 -8.06980515339464022e-01
10 8 -2.74544817034002131e-01
11 8 -1.76268291351514284e-16
12 8 2.74544817034001909e-01
13 8 8.06980515339463800e-01
14 8 1.22855339059327373e+00
15 8 1.43933982822017859e+00
16 8 1.43933982822017859e+00
17 8 1.43933982822017903e+00
18 8 1.22855339059327395e+00
19 8 8.06980515339464133e-01
20 8 2.74544817034002409e-01
21 8 3.52536582703028569e-16
1 9 0.00000000000000000e+00
2 9 -2.18677318898364809e-01
3 9 -6.42766952966368765e-01
4 9 -9.78553390593273731e-01
5 9 -1.14644660940672627e+00
6 9 -1.14644660940672627e+00
7 9 -1.14644660940672627e+00
8 9 -9.78553390593273731e-01
9 9 -6.42766952966368987e-01
10 9 -2.18677318898364947e-01
11 9 -1.40399217060328317e-16
12 9 2.18677318898364698e-01
13 9 6.42766952966368654e-01
14 9 9.78553390593273731e-01
15 9 1.14644660940672627e+00
16 9 1.14644660940672627e+00
17 9 1.14644660940672627e+00
18 9 9.78553390593273731e-01
19 9 6.42766952966369209e-01
20 9 2.18677318898365086e-01
21 9 2.80798434120656634e-16
1 10 0.00000000000000000e+00
2 10 -1.90743569830546161e-01
3 10 -5.60660171779821193e-01
4 10 -8.53553390593273620e-01
5 10 -1.00000000000000000e+00
6 10 -1.00000000000000000e+00
7 10 -1.00000000000000000e+00
8 10 -8.53553390593273731e-01
9 10 -5.60660171779821415e-01
10 10 -1.90743569830546328e-01
11 10 -1.22464679914735321e-16
12 10 1.90743569830546078e-01
13 10 5.60660171779821082e-01
14 10 8.53553390593273620e-01
15 10 1.00000000000000000e+00
16 10 1.00000000000000000e+00
17 10 1.00000000000000000e+00
18 10 8.53553390593273842e-01
19 10 5.60660171779821637e-01
20 10 1.90743569830546467e-01
21 10 2.44929359829470641e-16
1 11 0.00000000000000000e+00
2 11 -1.90743569830546189e-01
3 11 -5.60660171779821193e-01
4 11 -8.53553390593273731e-01
5 11 -1.00000000000000000e+00
6 11 -1.00000000000000000e+00
7 11 -1.00000000000000000e+00
8 11 -8.53553390593273842e-01
9 11 -5.60660171779821415e-01
10 11 -1.90743569830546300e-01
11 11 -1.22464679914735321e-16
12 11 1.90743569830546078e-01
13 11 5.60660171779821082e-01
14 11 8.53553390593273731e-01
15 11 1.00000000000000000e+00
16 11 1.00000000000000000e+00
17 11 1.00000000000000000e+00
18 11 8.53553390593273842e-01
19 11 5.60660171779821637e-01
20 11 1.90743569830546439e-01
21 11 2.44929359829470641e-16
1 12 0.00000000000000000e+00
2 12 -1.90743569830546161e-01
3 12 -5.60660171779821193e-01
4 12 -8.53553390593273842e-01
5 12 -1.00000000000000000e+00
6 12 -1.00000000000000000e+00
7 12 -1.00000000000000000e+00
8 12 -8.53553390593273842e-01
9 12 -5.60660171779821415e-01
10 12 -1.90743569830546328e-01
11 12 -1.22464679914735296e-16
12 12 1.90743569830546106e-01
13 12 5.60660171779821082e-01
14 12 8.53553390593273842e-01
15 12 1.00000000000000000e+00
16 12 1.00000000000000000e+00
17 12 1.00000000000000000e+00
18 12 8.53553390593273842e-01
19 12 5.60660171779821748e-01
20 12 1.90743569830546467e-01
21 12 2.44929359829470592e-16
1 13 0.00000000000000000e+00
2 13 -2.18677318898364836e-01
3 13 -6.42766952966368765e-01
4 13 -9.78553390593273731e-01
5 13 -1.14644660940672627e+00
6 13 -1.14644660940672627e+00
7 13 -1.14644660940672627e+00
8 13 -9.78553390593273731e-01
9 13 -6.42766952966368987e-01
10 13 -2.18677318898364947e-01
11 13 -1.40399217060328317e-16
12 13 2.18677318898364753e-01
13 13 6.42766952966368765e-01
14 13 9.78553390593273731e-01
15 13 1.14644660940672627e+00
16 13 1.14644660940672627e+00
17 13 1.14644660940672627e+00
18 13 9.78553390593273731e-01
19 13 6.42766952966369209e-01
20 13 2.18677318898365086e-01
21 13 2.80798434120656634e-16
1 14 0.00000000000000000e+00
2 14 -2.74544817034002075e-01
3 14 -8.06980515339463911e-01
4 14 -1.22855339059327373e+00
5 14 -1.43933982822017859e+00
6 14 -1.43933982822017903e+00
7 14 -1.43933982822017859e+00
8 14 -1.22855339059327373e+00
9 14 -8.06980515339464133e-01
10 14 -2.74544817034002187e-01
11 14 -1.76268291351514334e-16
12 14 2.74544817034001964e-01
13 14 8.06980515339463911e-01
14 14 1.22855339059327373e+00
15 14 1.43933982822017859e+00
16 14 1.43933982822017903e+00
17 14 1.43933982822017859e+00
18 14 1.22855339059327373e+00
19 14 8.06980515339464133e-01
20 14 2.74544817034002409e-01
21 14 3.52536582703028667e-16
1 15 0.00000000000000000e+00
2 15 -3.45104030229391956e-01
3 15 -1.01437802093255236e+00
4 15 -1.54429696042381992e+00
5 15 -1.80925643016945381e+00
6 15 -1.80925643016945403e+00
7 15 -1.80925643016945359e+00
8 15 -1.54429696042382014e+00
9 15 -1.01437802093255236e+00
10 15 -3.45104030229392122e-01
11 15 -2.21570009604378828e-16
12 15 3.45104030229391845e-01
13 15 1.01437802093255236e+00
14 15 1.54429696042381992e+00
15 15 1.80925643016945381e+00
16 15 1.80925643016945403e+00
17 15 1.80925643016945359e+00
18 15 1.54429696042382014e+00
19 15 1.01437802093255236e+00
20 15 3.45104030229392400e-01
21 15 4.43140019208757657e-16
1 16 0.00000000000000000e+00
2 16 -3.81487139661092489e-01
3 16 -1.12132034355964261e+00
4 16 -1.70710678118654746e+00
5 16 -2.00000000000000000e+00
6 16 -2.00000000000000000e+00
7 16 -2.00000000000000000e+00
8 16 -1.70710678118654768e+00
9 16 -1.12132034355964283e+00
10 16 -3.81487139661092600e-01
11 16 -2.44929359829470641e-16
12 16 3.81487139661092323e-01
13 16 1.12132034355964261e+00
14 16 1.70710678118654746e+00
15 16 2.00000000000000000e+00
16 16 2.00000000000000000e+00
17 16 2.00000000000000000e+00
18 16 1.70710678118654768e+00
19 16 1.12132034355964283e+00
20 16 3.81487139661092822e-01
21 16 4.89858719658941283e-16
1 17 0.00000000000000000e+00
2 17 -4.17870249092792911e-01
3 17 -1.22826266618673308e+00
4 17 -1.86991660194927523e+00
5 17 -2.19074356983054663e+00
6 17 -2.19074356983054619e+00
7 17 -2.19074356983054619e+00
8 17 -1.86991660194927478e+00
9 17 -1.22826266618673330e+00
10 17 -4.17870249092793133e-01
11 17 -2.68288710054562455e-16
12 17 4.17870249092792745e-01
13 17 1.22826266618673285e+00
14 17 1.86991660194927523e+00
15 17 2.19074356983054663e+00
16 17 2.19074356983054619e+00
17 17 2.19074356983054619e+00
18 17 1.86991660194927478e+00
19 17 1.22826266618673330e+00
20 17 4.17870249092793355e-01
21 17 5.36577420109124909e-16
1 18 0.00000000000000000e+00
2 18 -4.88429462288182903e-01
3 18 -1.43566017177982119e+00
4 18 -2.18566017177982186e+00
5 18 -2.56066017177982141e+00
6 18 -2.56066017177982141e+00
7 18 -2.56066017177982141e+00
8 18 -2.18566017177982097e+00
9 18 -1.43566017177982164e+00
10 18 -4.88429462288183069e-01
11 18 -3.13590428307426900e-16
12 18 4.88429462288182625e-01
13 18 1.43566017177982097e+00
14 18 2.18566017177982186e+00
15 18 2.56066017177982141e+00
16 18 2.56066017177982141e+00
17 18 2.56066017177982141e+00
18 18 2.18566017177982097e+00
19 18 1.43566017177982208e+00
20 18 4.88429462288183236e-01
21 18 6.27180856614853800e-16
1 19 0.00000000000000000e+00
2 19 -5.44296960423820142e-01
3 19 -1.59987373415291634e+00
4 19 -2.43566017177982186e+00
5 19 -2.85355339059327395e+00
6 19 -2.85355339059327395e+00
7 19 -2.85355339059327395e+00
8 19 -2.43566017177982141e+00
9 19 -1.59987373415291678e+00
10 19 -5.44296960423820364e-01
11 19 -3.49459502598612892e-16
12 19 5.44296960423819809e-01
13 19 1.59987373415291612e+00
14 19 2.43566017177982097e+00
15 19 2.85355339059327395e+00
16 19 2.85355339059327395e+00
17 19 2.85355339059327395e+00
18 19 2.43566017177982141e+00
19 19 1.59987373415291723e+00
20 19 5.44296960423820586e-01
21 19 6.98919005197225784e-16
1 20 0.00000000000000000e+00
2 20 -5.72230709491638678e-01
3 20 -1.68198051533946380e+00
4 20 -2.56066017177982141e+00
5 20 -3.00000000000000000e+00
6 20 -3.00000000000000000e+00
7 20 -2.99999999999999956e+00
8 20 -2.56066017177982141e+00
9 20 -1.68198051533946424e+00
10 20 -5.72230709491639011e-01
11 20 -3.67394039744205938e-16
12 20 5.72230709491638234e-01
13 20 1.68198051533946358e+00
14 20 2.56066017177982097e+00
15 20 3.00000000000000000e+00
16 20 3.00000000000000000e+00
17 20 2.99999999999999956e+00
18 20 2.56066017177982141e+00
19 20 1.68198051533946469e+00
20 20 5.72230709491639233e-01
21 20 7.34788079488411875e-16
1 21 0.00000000000000000e+00
2 21 -5.72230709491638678e-01
3 21 -1.68198051533946380e+00
4 21 -2.56066017177982141e+00
5 21 -3.00000000000000000e+00
6 21 -3.00000000000000000e+00
7 21 -3.00000000000000000e+00
8 21 -2.56066017177982141e+00
9 21 -1.68198051533946424e+00
10 21 -5.72230709491638900e-01
11 21 -3.67394039744205888e-16
12 21 5.72230709491638234e-01
13 21 1.68198051533946358e+00
14 21 2.56066017177982097e+00
15 21 3.00000000000000000e+00
16 21 3.00000000000000000e+00
17 21 3.00000000000000000e+00
18 21 2.56066017177982141e+00
19 21 1.68198051533946469e+00
20 21 5.72230709491639233e-01
21 21 7.34788079488411776e-16
