%%MatrixMarket matrix coordinate  real general
21 21 441
1 1 1.00000000000000000e+00
2 1 9.26776695296636976e-01
3 1 8.53553390593273953e-01
4 1 8.53553390593273731e-01
5 1 9.26776695296636865e-01
6 1 1.00000000000000000e+00
7 1 9.26776695296636976e-01
8 1 8.53553390593273953e-01
9 1 8.53553390593273731e-01
10 1 9.26776695296636865e-01
11 1 1.00000000000000000e+00
12 1 9.26776695296636976e-01
13 1 8.53553390593273953e-01
14 1 8.53553390593273731e-01
15 1 9.26776695296636865e-01
16 1 1.00000000000000000e+00
17 1 9.26776695296636976e-01
18 1 8.53553390593273953e-01
19 1 8.53553390593273731e-01
20 1 9.26776695296636865e-01
21 1 1.00000000000000000e+00
1 2 9.26776695296636976e-01
2 2 8.58915042944955465e-01
3 2 7.91053390593273953e-01
4 2 7.91053390593273731e-01
5 2 8.58915042944955243e-01
6 2 9.26776695296636976e-01
7 2 8.58915042944955465e-01
8 2 7.91053390593273953e-01
9 2 7.91053390593273731e-01
10 2 8.58915042944955243e-01
11 2 9.26776695296636976e-01
12 2 8.58915042944955465e-01
13 2 7.91053390593273953e-01
14 2 7.91053390593273731e-01
15 2 8.58915042944955243e-01
16 2 9.26776695296636976e-01
17 2 8.58915042944955465e-01
18 2 7.91053390593273953e-01
19 2 7.91053390593273731e-01
20 2 8.58915042944955243e-01
21 2 9.26776695296636976e-01
1 3 8.53553390593273953e-01
2 3 7.91053390593273842e-01
3 3 7.28553390593273953e-01
4 3 7.28553390593273731e-01
5 3 7.91053390593273731e-01
6 3 8.53553390593273953e-01
7 3 7.91053390593273842e-01
8 3 7.28553390593273953e-01
9 3 7.28553390593273731e-01
10 3 7.91053390593273731e-01
11 3 8.53553390593273953e-01
12 3 7.91053390593273842e-01
13 3 7.28553390593273953e-01
14 3 7.28553390593273731e-01
15 3 7.91053390593273731e-01
16 3 8.53553390593273953e-01
17 3 7.91053390593273842e-01
18 3 7.28553390593273953e-01
19 3 7.28553390593273731e-01
20 3 7.91053390593273731e-01
21 3 8.53553390593273953e-01
1 4 8.53553390593273731e-01
2 4 7.91053390593273842e-01
3 4 7.28553390593273953e-01
4 4 7.28553390593273731e-01
5 4 7.91053390593273731e-01
6 4 8.53553390593273731e-01
7 4 7.91053390593273842e-01
8 4 7.28553390593273953e-01
9 4 7.28553390593273731e-01
10 4 7.91053390593273731e-01
11 4 8.53553390593273731e-01
12 4 7.91053390593273842e-01
13 4 7.28553390593273953e-01
14 4 7.28553390593273731e-01
15 4 7.91053390593273731e-01
16 4 8.53553390593273731e-01
17 4 7.91053390593273842e-01
18 4 7.28553390593273953e-01
19 4 7.28553390593273731e-01
20 4 7.91053390593273731e-01
21 4 8.53553390593273731e-01
1 5 9.26776695296636865e-01
2 5 8.58915042944955465e-01
3 5 7.91053390593273953e-01
4 5 7.91053390593273731e-01
5 5 8.58915042944955243e-01
6 5 9.26776695296636865e-01
7 5 8.58915042944955465e-01
8 5 7.91053390593273953e-01
9 5 7.91053390593273731e-01
10 5 8.58915042944955243e-01
11 5 9.26776695296636865e-01
12 5 8.58915042944955465e-01
13 5 7.91053390593273953e-01
14 5 7.91053390593273731e-01
15 5 8.58915042944955243e-01
16 5 9.26776695296636865e-01
17 5 8.58915042944955465e-01
18 5 7.91053390593273953e-01
19 5 7.91053390593273731e-01
20 5 8.58915042944955243e-01
21 5 9.26776695296636865e-01
1 6 1.00000000000000000e+00
2 6 9.26776695296636976e-01
3 6 8.53553390593273953e-01
4 6 8.53553390593273731e-01
5 6 9.26776695296636865e-01
6 6 1.00000000000000000e+00
7 6 9.26776695296636976e-01
8 6 8.53553390593273953e-01
9 6 8.53553390593273731e-01
10 6 9.26776695296636865e-01
11 6 1.00000000000000000e+00
12 6 9.26776695296636976e-01
13 6 8.53553390593273953e-01
14 6 8.53553390593273731e-01
15 6 9.26776695296636865e-01
16 6 1.00000000000000000e+00
17 6 9.26776695296636976e-01
18 6 8.53553390593273953e-01
19 6 8.53553390593273731e-01
20 6 9.26776695296636865e-01
21 6 1.00000000000000000e+00
1 7 9.26776695296636976e-01
2 7 8.58915042944955465e-01
3 7 7.91053390593273953e-01
4 7 7.91053390593273731e-01
5 7 8.58915042944955243e-01
6 7 9.26776695296636976e-01
7 7 8.58915042944955465e-01
8 7 7.91053390593273953e-01
9 7 7.91053390593273731e-01
10 7 8.58915042944955243e-01
11 7 9.26776695296636976e-01
12 7 8.58915042944955465e-01
13 7 7.91053390593273953e-01
14 7 7.91053390593273731e-01
15 7 8.58915042944955243e-01
16 7 9.26776695296636976e-01
17 7 8.58915042944955465e-01
18 7 7.91053390593273953e-01
19 7 7.91053390593273731e-01
20 7 8.58915042944955243e-01
21 7 9.26776695296636976e-01
1 8 8.53553390593273953e-01
2 8 7.91053390593273842e-01
3 8 7.28553390593273953e-01
4 8 7.28553390593273731e-01
5 8 7.91053390593273731e-01
6 8 8.53553390593273953e-01
7 8 7.91053390593273842e-01
8 8 7.28553390593273953e-01
9 8 7.28553390593273731e-01
10 8 7.91053390593273731e-01
11 8 8.53553390593273953e-01
12 8 7.91053390593273842e-01
13 8 7.28553390593273953e-01
14 8 7.28553390593273731e-01
15 8 7.91053390593273731e-01
16 8 8.53553390593273953e-01
17 8 7.91053390593273842e-01
18 8 7.28553390593273953e-01
19 8 7.28553390593273731e-01
20 8 7.91053390593273731e-01
21 8 8.53553390593273953e-01
1 9 8.53553390593273731e-01
2 9 7.91053390593273842e-01
3 9 7.28553390593273953e-01
4 9 7.28553390593273731e-01
5 9 7.91053390593273731e-01
6 9 8.53553390593273731e-01
7 9 7.91053390593273842e-01
8 9 7.28553390593273953e-01
9 9 7.28553390593273731e-01
10 9 7.91053390593273731e-01
11 9 8.53553390593273731e-01
12 9 7.91053390593273842e-01
13 9 7.28553390593273953e-01
14 9 7.28553390593273731e-01
15 9 7.91053390593273731e-01
16 9 8.53553390593273731e-01
17 9 7.91053390593273842e-01
18 9 7.28553390593273953e-01
19 9 7.28553390593273731e-01
20 9 7.91053390593273731e-01
21 9 8.53553390593273731e-01
1 10 9.26776695296636865e-01
2 10 8.58915042944955465e-01
3 10 7.91053390593273953e-01
4 10 7.91053390593273731e-01
5 10 8.58915042944955243e-01
6 10 9.26776695296636865e-01
7 10 8.58915042944955465e-01
8 10 7.91053390593273953e-01
9 10 7.91053390593273731e-01
10 10 8.58915042944955243e-01
11 10 9.26776695296636865e-01
12 10 8.58915042944955465e-01
13 10 7.91053390593273953e-01
14 10 7.91053390593273731e-01
15 10 8.58915042944955243e-01
16 10 9.26776695296636865e-01
17 10 8.58915042944955465e-01
18 10 7.91053390593273953e-01
19 10 7.91053390593273731e-01
20 10 8.58915042944955243e-01
21 10 9.26776695296636865e-01
1 11 1.00000000000000000e+00
2 11 9.26776695296636976e-01
3 11 8.53553390593273953e-01
4 11 8.53553390593273731e-01
5 11 9.26776695296636865e-01
6 11 1.00000000000000000e+00
7 11 9.26776695296636976e-01
8 11 8.53553390593273953e-01
9 11 8.53553390593273731e-01
10 11 9.26776695296636865e-01
11 11 1.00000000000000000e+00
12 11 9.26776695296636976e-01
13 11 8.53553390593273953e-01
14 11 8.53553390593273731e-01
15 11 9.26776695296636865e-01
16 11 1.00000000000000000e+00
17 11 9.26776695296636976e-01
18 11 8.53553390593273953e-01
19 11 8.53553390593273731e-01
20 11 9.26776695296636865e-01
21 11 1.00000000000000000e+00
1 12 9.26776695296636976e-01
2 12 8.58915042944955465e-01
3 12 7.91053390593273953e-01
4 12 7.91053390593273731e-01
5 12 8.58915042944955243e-01
6 12 9.26776695296636976e-01
7 12 8.58915042944955465e-01
8 12 7.91053390593273953e-01
9 12 7.91053390593273731e-01
10 12 8.58915042944955243e-01
11 12 9.26776695296636976e-01
12 12 8.58915042944955465e-01
13 12 7.91053390593273953e-01
14 12 7.91053390593273731e-01
15 12 8.58915042944955243e-01
16 12 9.26776695296636976e-01
17 12 8.58915042944955465e-01
18 12 7.91053390593273953e-01
19 12 7.91053390593273731e-01
20 12 8.58915042944955243e-01
21 12 9.26776695296636976e-01
1 13 8.53553390593273953e-01
2 13 7.91053390593273842e-01
3 13 7.28553390593273953e-01
4 13 7.28553390593273731e-01
5 13 7.91053390593273731e-01
6 13 8.53553390593273953e-01
7 13 7.91053390593273842e-01
8 13 7.28553390593273953e-01
9 13 7.28553390593273731e-01
10 13 7.91053390593273731e-01
11 13 8.53553390593273953e-01
12 13 7.91053390593273842e-01
13 13 7.28553390593273953e-01
14 13 7.28553390593273731e-01
15 13 7.91053390593273731e-01
16 13 8.53553390593273953e-01
17 13 7.91053390593273842e-01
18 13 7.28553390593273953e-01
19 13 7.28553390593273731e-01
20 13 7.91053390593273731e-01
21 13 8.53553390593273953e-01
1 14 8.53553390593273731e-01
2 14 7.91053390593273842e-01
3 14 7.28553390593273953e-01
4 14 7.28553390593273731e-01
5 14 7.91053390593273731e-01
6 14 8.53553390593273731e-01
7 14 7.91053390593273842e-01
8 14 7.28553390593273953e-01
9 14 7.28553390593273731e-01
10 14 7.91053390593273731e-01
11 14 8.53553390593273731e-01
12 14 7.91053390593273842e-01
13 14 7.28553390593273953e-01
14 14 7.28553390593273731e-01
15 14 7.91053390593273731e-01
16 14 8.53553390593273731e-01
17 14 7.91053390593273842e-01
18 14 7.28553390593273953e-01
19 14 7.28553390593273731e-01
20 14 7.91053390593273731e-01
21 14 8.53553390593273731e-01
1 15 9.26776695296636865e-01
2 15 8.58915042944955465e-01
3 15 7.91053390593273953e-01
4 15 7.91053390593273731e-01
5 15 8.58915042944955243e-01
6 15 9.26776695296636865e-01
7 15 8.58915042944955465e-01
8 15 7.91053390593273953e-01
9 15 7.91053390593273731e-01
10 15 8.58915042944955243e-01
11 15 9.26776695296636865e-01
12 15 8.58915042944955465e-01
13 15 7.91053390593273953e-01
14 15 7.91053390593273731e-01
15 15 8.58915042944955243e-01
16 15 9.26776695296636865e-01
17 15 8.58915042944955465e-01
18 15 7.91053390593273953e-01
19 15 7.91053390593273731e-01
20 15 8.58915042944955243e-01
21 15 9.26776695296636865e-01
1 16 1.00000000000000000e+00
2 16 9.26776695296636976e-01
3 16 8.53553390593273953e-01
4 16 8.53553390593273731e-01
5 16 9.26776695296636865e-01
6 16 1.00000000000000000e+00
7 16 9.26776695296636976e-01
8 16 8.53553390593273953e-01
9 16 8.53553390593273731e-01
10 16 9.26776695296636865e-01
11 16 1.00000000000000000e+00
12 16 9.26776695296636976e-01
13 16 8.53553390593273953e-01
14 16 8.53553390593273731e-01
15 16 9.26776695296636865e-01
16 16 1.00000000000000000e+00
17 16 9.26776695296636976e-01
18 16 8.53553390593273953e-01
19 16 8.53553390593273731e-01
20 16 9.26776695296636865e-01
21 16 1.00000000000000000e+00
1 17 9.26776695296636976e-01
2 17 8.58915042944955465e-01
3 17 7.91053390593273953e-01
4 17 7.91053390593273731e-01
5 17 8.58915042944955243e-01
6 17 9.26776695296636976e-01
7 17 8.58915042944955465e-01
8 17 7.91053390593273953e-01
9 17 7.91053390593273731e-01
10 17 8.58915042944955243e-01
11 17 9.26776695296636976e-01
12 17 8.58915042944955465e-01
13 17 7.91053390593273953e-01
14 17 7.91053390593273731e-01
15 17 8.58915042944955243e-01
16 17 9.26776695296636976e-01
17 17 8.58915042944955465e-01
18 17 7.91053390593273953e-01
19 17 7.91053390593273731e-01
20 17 8.58915042944955243e-01
21 17 9.26776695296636976e-01
1 18 8.53553390593273953e-01
2 18 7.91053390593273842e-01
3 18 7.28553390593273953e-01
4 18 7.28553390593273731e-01
5 18 7.91053390593273731e-01
6 18 8.53553390593273953e-01
7 18 7.91053390593273842e-01
8 18 7.28553390593273953e-01
9 18 7.28553390593273731e-01
10 18 7.91053390593273731e-01
11 18 8.53553390593273953e-01
12 18 7.91053390593273842e-01
13 18 7.28553390593273953e-01
14 18 7.28553390593273731e-01
15 18 7.91053390593273731e-01
16 18 8.53553390593273953e-01
17 18 7.91053390593273842e-01
18 18 7.28553390593273953e-01
19 18 7.28553390593273731e-01
20 18 7.91053390593273731e-01
21 18 8.53553390593273953e-01
1 19 8.53553390593273731e-01
2 19 7.91053390593273842e-01
3 19 7.28553390593273953e-01
4 19 7.28553390593273731e-01
5 19 7.91053390593273731e-01
6 19 8.53553390593273731e-01
7 19 7.91053390593273842e-01
8 19 7.28553390593273953e-01
9 19 7.28553390593273731e-01
10 19 7.91053390593273731e-01
11 19 8.53553390593273731e-01
12 19 7.91053390593273842e-01
13 19 7.28553390593273953e-01
14 19 7.28553390593273731e-01
15 19 7.91053390593273731e-01
16 19 8.53553390593273731e-01
17 19 7.91053390593273842e-01
18 19 7.28553390593273953e-01
19 19 7.28553390593273731e-01
20 19 7.91053390593273731e-01
21 19 8.53553390593273731e-01
1 20 9.26776695296636865e-01
2 20 8.58915042944955465e-01
3 20 7.91053390593273953e-01
4 20 7.91053390593273731e-01
5 20 8.58915042944955243e-01
6 20 9.26776695296636865e-01
7 20 8.58915042944955465e-01
8 20 7.91053390593273953e-01
9 20 7.91053390593273731e-01
10 20 8.58915042944955243e-01
11 20 9.26776695296636865e-01
12 20 8.58915042944955465e-01
13 20 7.91053390593273953e-01
14 20 7.91053390593273731e-01
15 20 8.58915042944955243e-01
16 20 9.26776695296636865e-01
17 20 8.58915042944955465e-01
18 20 7.91053390593273953e-01
19 20 7.91053390593273731e-01
20 20 8.58915042944955243e-01
21 20 9.26776695296636865e-01
1 21 1.00000000000000000e+00
2 21 9.26776695296636976e-01
3 21 8.53553390593273953e-01
4 21 8.53553390593273731e-01
5 21 9.26776695296636865e-01
6 21 1.00000000000000000e+00
7 21 9.26776695296636976e-01
8 21 8.53553390593273953e-01
9 21 8.53553390593273731e-01
10 21 9.26776695296636865e-01
11 21 1.00000000000000000e+00
12 21 9.26776695296636976e-01
13 21 8.53553390593273953e-01
14 21 8.53553390593273731e-01
15 21 9.26776695296636865e-01
16 21 1.00000000000000000e+00
17 21 9.26776695296636976e-01
18 21 8.53553390593273953e-01
19 21 8.53553390593273731e-01
20 21 9.26776695296636865e-01
21 21 1.00000000000000000e+00
