%%MatrixMarket matrix coordinate  real general
13 13 169
1 1 0.00000000000000000e+00
2 1 -1.24264068711928544e+00
3 1 -3.00000000000000044e+00
4 1 -3.00000000000000000e+00
5 1 -3.00000000000000044e+00
6 1 -1.24264068711928566e+00
7 1 -3.67394039744205888e-16
8 1 1.24264068711928477e+00
9 1 2.99999999999999956e+00
10 1 3.00000000000000000e+00
11 1 3.00000000000000044e+00
12 1 1.24264068711928588e+00
13 1 7.34788079488411776e-16
1 2 0.00000000000000000e+00
2 2 -1.24264068711928544e+00
3 2 -3.00000000000000044e+00
4 2 -3.00000000000000044e+00
5 2 -3.00000000000000044e+00
6 2 -1.24264068711928566e+00
7 2 -3.67394039744205888e-16
8 2 1.24264068711928499e+00
9 2 2.99999999999999956e+00
10 2 3.00000000000000044e+00
11 2 3.00000000000000044e+00
12 2 1.24264068711928588e+00
13 2 7.34788079488411776e-16
1 3 0.00000000000000000e+00
2 3 -1.00000000000000022e+00
3 3 -2.41421356237309537e+00
4 3 -2.41421356237309537e+00
5 3 -2.41421356237309537e+00
6 3 -1.00000000000000022e+00
7 3 -2.95655891161834003e-16
8 3 1.00000000000000000e+00
9 3 2.41421356237309537e+00
10 3 2.41421356237309537e+00
11 3 2.41421356237309537e+00
12 3 1.00000000000000067e+00
13 3 5.91311782323668005e-16
1 4 0.00000000000000000e+00
2 4 -8.28427124746190180e-01
3 4 -2.00000000000000000e+00
4 4 -2.00000000000000000e+00
5 4 -2.00000000000000000e+00
6 4 -8.28427124746190291e-01
7 4 -2.44929359829470641e-16
8 4 8.28427124746190069e-01
9 4 2.00000000000000000e+00
10 4 2.00000000000000000e+00
11 4 2.00000000000000000e+00
12 4 8.28427124746190402e-01
13 4 4.89858719658941283e-16
1 5 0.00000000000000000e+00
2 5 -6.56854249492380249e-01
3 5 -1.58578643762690485e+00
4 5 -1.58578643762690508e+00
5 5 -1.58578643762690508e+00
6 5 -6.56854249492380360e-01
7 5 -1.94202828497107330e-16
8 5 6.56854249492380138e-01
9 5 1.58578643762690485e+00
10 5 1.58578643762690508e+00
11 5 1.58578643762690508e+00
12 5 6.56854249492380582e-01
13 5 3.88405656994214659e-16
1 6 0.00000000000000000e+00
2 6 -4.14213562373095034e-01
3 6 -1.00000000000000000e+00
4 6 -1.00000000000000000e+00
5 6 -1.00000000000000000e+00
6 6 -4.14213562373095201e-01
7 6 -1.22464679914735321e-16
8 6 4.14213562373094979e-01
9 6 1.00000000000000000e+00
10 6 1.00000000000000000e+00
11 6 1.00000000000000022e+00
12 6 4.14213562373095368e-01
13 6 2.44929359829470641e-16
1 7 0.00000000000000000e+00
2 7 -4.14213562373095034e-01
3 7 -1.00000000000000000e+00
4 7 -1.00000000000000000e+00
5 7 -1.00000000000000000e+00
6 7 -4.14213562373095145e-01
7 7 -1.22464679914735321e-16
8 7 4.14213562373094979e-01
9 7 1.00000000000000000e+00
10 7 1.00000000000000000e+00
11 7 1.00000000000000022e+00
12 7 4.14213562373095312e-01
13 7 2.44929359829470641e-16
1 8 0.00000000000000000e+00
2 8 -4.14213562373095034e-01
3 8 -1.00000000000000000e+00
4 8 -1.00000000000000000e+00
5 8 -1.00000000000000000e+00
6 8 -4.14213562373095201e-01
7 8 -1.22464679914735321e-16
8 8 4.14213562373094979e-01
9 8 1.00000000000000000e+00
10 8 1.00000000000000000e+00
11 8 1.00000000000000022e+00
12 8 4.14213562373095368e-01
13 8 2.44929359829470641e-16
1 9 0.00000000000000000e+00
2 9 -6.56854249492380249e-01
3 9 -1.58578643762690485e+00
4 9 -1.58578643762690508e+00
5 9 -1.58578643762690508e+00
6 9 -6.56854249492380360e-01
7 9 -1.94202828497107330e-16
8 9 6.56854249492380138e-01
9 9 1.58578643762690485e+00
10 9 1.58578643762690508e+00
11 9 1.58578643762690508e+00
12 9 6.56854249492380582e-01
13 9 3.88405656994214659e-16
1 10 0.00000000000000000e+00
2 10 -8.28427124746190180e-01
3 10 -2.00000000000000000e+00
4 10 -2.00000000000000000e+00
5 10 -2.00000000000000000e+00
6 10 -8.28427124746190291e-01
7 10 -2.44929359829470641e-16
8 10 8.28427124746190069e-01
9 10 2.00000000000000000e+00
10 10 2.00000000000000000e+00
11 10 2.00000000000000000e+00
12 10 8.28427124746190402e-01
13 10 4.89858719658941283e-16
1 11 0.00000000000000000e+00
2 11 -1.00000000000000022e+00
3 11 -2.41421356237309537e+00
4 11 -2.41421356237309537e+00
5 11 -2.41421356237309537e+00
6 11 -1.00000000000000022e+00
7 11 -2.95655891161834003e-16
8 11 1.00000000000000000e+00
9 11 2.41421356237309537e+00
10 11 2.41421356237309537e+00
11 11 2.41421356237309537e+00
12 11 1.00000000000000067e+00
13 11 5.91311782323668005e-16
1 12 0.00000000000000000e+00
2 12 -1.24264068711928544e+00
3 12 -3.00000000000000044e+00
4 12 -3.00000000000000044e+00
5 12 -3.00000000000000044e+00
6 12 -1.24264068711928566e+00
7 12 -3.67394039744205888e-16
8 12 1.24264068711928499e+00
9 12 2.99999999999999956e+00
10 12 3.00000000000000044e+00
11 12 3.00000000000000044e+00
12 12 1.24264068711928588e+00
13 12 7.34788079488411776e-16
1 13 0.00000000000000000e+00
2 13 -1.24264068711928544e+00
3 13 -3.00000000000000044e+00
4 13 -3.00000000000000000e+00
5 13 -3.00000000000000044e+00
6 13 -1.24264068711928566e+00
7 13 -3.67394039744205888e-16
8 13 1.24264068711928477e+00
9 13 2.99999999999999956e+00
10 13 3.00000000000000000e+00
11 13 3.00000000000000044e+00
12 13 1.24264068711928588e+00
13 13 7.34788079488411776e-16
