%%MatrixMarket matrix coordinate  real general
13 13 169
1 1 0.00000000000000000e+00
2 1 0.00000000000000000e+00
3 1 0.00000000000000000e+00
4 1 0.00000000000000000e+00
5 1 0.00000000000000000e+00
6 1 0.00000000000000000e+00
7 1 0.00000000000000000e+00
8 1 0.00000000000000000e+00
9 1 0.00000000000000000e+00
10 1 0.00000000000000000e+00
11 1 0.00000000000000000e+00
12 1 0.00000000000000000e+00
13 1 0.00000000000000000e+00
1 2 4.14213562373095090e-01
2 2 4.14213562373095145e-01
3 2 4.14213562373095145e-01
4 2 4.14213562373095090e-01
5 2 4.14213562373095145e-01
6 2 4.14213562373095145e-01
7 2 4.14213562373095090e-01
8 2 4.14213562373095145e-01
9 2 4.14213562373095145e-01
10 2 4.14213562373095090e-01
11 2 4.14213562373095145e-01
12 2 4.14213562373095145e-01
13 2 4.14213562373095090e-01
1 3 1.00000000000000000e+00
2 3 1.00000000000000000e+00
3 3 1.00000000000000000e+00
4 3 1.00000000000000000e+00
5 3 1.00000000000000000e+00
6 3 1.00000000000000000e+00
7 3 1.00000000000000000e+00
8 3 1.00000000000000000e+00
9 3 1.00000000000000000e+00
10 3 1.00000000000000000e+00
11 3 1.00000000000000000e+00
12 3 1.00000000000000000e+00
13 3 1.00000000000000000e+00
1 4 1.00000000000000000e+00
2 4 1.00000000000000000e+00
3 4 1.00000000000000000e+00
4 4 1.00000000000000000e+00
5 4 1.00000000000000000e+00
6 4 1.00000000000000000e+00
7 4 1.00000000000000000e+00
8 4 1.00000000000000000e+00
9 4 1.00000000000000000e+00
10 4 1.00000000000000000e+00
11 4 1.00000000000000000e+00
12 4 1.00000000000000000e+00
13 4 1.00000000000000000e+00
1 5 1.00000000000000000e+00
2 5 1.00000000000000000e+00
3 5 1.00000000000000000e+00
4 5 1.00000000000000000e+00
5 5 1.00000000000000000e+00
6 5 1.00000000000000000e+00
7 5 1.00000000000000000e+00
8 5 1.00000000000000000e+00
9 5 1.00000000000000000e+00
10 5 1.00000000000000000e+00
11 5 1.00000000000000000e+00
12 5 1.00000000000000000e+00
13 5 1.00000000000000000e+00
1 6 4.14213562373095090e-01
2 6 4.14213562373095145e-01
3 6 4.14213562373095145e-01
4 6 4.14213562373095090e-01
5 6 4.14213562373095145e-01
6 6 4.14213562373095145e-01
7 6 4.14213562373095090e-01
8 6 4.14213562373095145e-01
9 6 4.14213562373095145e-01
10 6 4.14213562373095090e-01
11 6 4.14213562373095145e-01
12 6 4.14213562373095145e-01
13 6 4.14213562373095090e-01
1 7 0.00000000000000000e+00
2 7 0.00000000000000000e+00
3 7 0.00000000000000000e+00
4 7 0.00000000000000000e+00
5 7 0.00000000000000000e+00
6 7 0.00000000000000000e+00
7 7 0.00000000000000000e+00
8 7 0.00000000000000000e+00
9 7 0.00000000000000000e+00
10 7 0.00000000000000000e+00
11 7 0.00000000000000000e+00
12 7 0.00000000000000000e+00
13 7 0.00000000000000000e+00
1 8 -4.14213562373095090e-01
2 8 -4.14213562373095145e-01
3 8 -4.14213562373095145e-01
4 8 -4.14213562373095090e-01
5 8 -4.14213562373095145e-01
6 8 -4.14213562373095145e-01
7 8 -4.14213562373095090e-01
8 8 -4.14213562373095145e-01
9 8 -4.14213562373095145e-01
10 8 -4.14213562373095090e-01
11 8 -4.14213562373095145e-01
12 8 -4.14213562373095145e-01
13 8 -4.14213562373095090e-01
1 9 -1.00000000000000000e+00
2 9 -1.00000000000000000e+00
3 9 -1.00000000000000000e+00
4 9 -1.00000000000000000e+00
5 9 -1.00000000000000000e+00
6 9 -1.00000000000000000e+00
7 9 -1.00000000000000000e+00
8 9 -1.00000000000000000e+00
9 9 -1.00000000000000000e+00
10 9 -1.00000000000000000e+00
11 9 -1.00000000000000000e+00
12 9 -1.00000000000000000e+00
13 9 -1.00000000000000000e+00
1 10 -1.00000000000000000e+00
2 10 -1.00000000000000000e+00
3 10 -1.00000000000000000e+00
4 10 -1.00000000000000000e+00
5 10 -1.00000000000000000e+00
6 10 -1.00000000000000000e+00
7 10 -1.00000000000000000e+00
8 10 -1.00000000000000000e+00
9 10 -1.00000000000000000e+00
10 10 -1.00000000000000000e+00
11 10 -1.00000000000000000e+00
12 10 -1.00000000000000000e+00
13 10 -1.00000000000000000e+00
1 11 -1.00000000000000000e+00
2 11 -1.00000000000000000e+00
3 11 -1.00000000000000000e+00
4 11 -1.00000000000000000e+00
5 11 -1.00000000000000000e+00
6 11 -1.00000000000000000e+00
7 11 -1.00000000000000000e+00
8 11 -1.00000000000000000e+00
9 11 -1.00000000000000000e+00
10 11 -1.00000000000000000e+00
11 11 -1.00000000000000000e+00
12 11 -1.00000000000000000e+00
13 11 -1.00000000000000000e+00
1 12 -4.14213562373095090e-01
2 12 -4.14213562373095145e-01
3 12 -4.14213562373095145e-01
4 12 -4.14213562373095090e-01
5 12 -4.14213562373095145e-01
6 12 -4.14213562373095145e-01
7 12 -4.14213562373095090e-01
8 12 -4.14213562373095145e-01
9 12 -4.14213562373095145e-01
10 12 -4.14213562373095090e-01
11 12 -4.14213562373095145e-01
12 12 -4.14213562373095145e-01
13 12 -4.14213562373095090e-01
1 13 0.00000000000000000e+00
2 13 0.00000000000000000e+00
3 13 0.00000000000000000e+00
4 13 0.00000000000000000e+00
5 13 0.00000000000000000e+00
6 13 0.00000000000000000e+00
7 13 0.00000000000000000e+00
8 13 0.00000000000000000e+00
9 13 0.00000000000000000e+00
10 13 0.00000000000000000e+00
11 13 0.00000000000000000e+00
12 13 0.00000000000000000e+00
13 13 0.00000000000000000e+00
