%%MatrixMarket matrix coordinate  real general
13 13 169
1 1 3.00000000000000000e+00
2 1 3.00000000000000044e+00
3 1 1.24264068711928544e+00
4 1 1.83697019872102969e-16
5 1 -1.24264068711928477e+00
6 1 -2.99999999999999956e+00
7 1 -3.00000000000000000e+00
8 1 -3.00000000000000089e+00
9 1 -1.24264068711928588e+00
10 1 -5.51091059616308956e-16
11 1 1.24264068711928388e+00
12 1 2.99999999999999867e+00
13 1 3.00000000000000000e+00
1 2 3.00000000000000044e+00
2 2 3.00000000000000044e+00
3 2 1.24264068711928544e+00
4 2 1.83697019872102993e-16
5 2 -1.24264068711928477e+00
6 2 -2.99999999999999956e+00
7 2 -3.00000000000000044e+00
8 2 -3.00000000000000089e+00
9 2 -1.24264068711928610e+00
10 2 -5.51091059616308956e-16
11 2 1.24264068711928366e+00
12 2 2.99999999999999911e+00
13 2 3.00000000000000044e+00
1 3 2.41421356237309537e+00
2 3 2.41421356237309537e+00
3 3 1.00000000000000022e+00
4 3 1.47827945580917001e-16
5 3 -9.99999999999999667e-01
6 3 -2.41421356237309537e+00
7 3 -2.41421356237309537e+00
8 3 -2.41421356237309581e+00
9 3 -1.00000000000000067e+00
10 3 -4.43483836742751028e-16
11 3 9.99999999999999112e-01
12 3 2.41421356237309448e+00
13 3 2.41421356237309537e+00
1 4 2.00000000000000000e+00
2 4 2.00000000000000000e+00
3 4 8.28427124746190291e-01
4 4 1.22464679914735321e-16
5 4 -8.28427124746189847e-01
6 4 -2.00000000000000000e+00
7 4 -2.00000000000000000e+00
8 4 -2.00000000000000044e+00
9 4 -8.28427124746190624e-01
10 4 -3.67394039744205938e-16
11 4 8.28427124746189514e-01
12 4 1.99999999999999978e+00
13 4 2.00000000000000000e+00
1 5 1.58578643762690508e+00
2 5 1.58578643762690508e+00
3 5 6.56854249492380360e-01
4 5 9.71014142485536648e-17
5 5 -6.56854249492380027e-01
6 5 -1.58578643762690485e+00
7 5 -1.58578643762690508e+00
8 5 -1.58578643762690552e+00
9 5 -6.56854249492380693e-01
10 5 -2.91304242745660945e-16
11 5 6.56854249492379916e-01
12 5 1.58578643762690485e+00
13 5 1.58578643762690508e+00
1 6 1.00000000000000000e+00
2 6 1.00000000000000000e+00
3 6 4.14213562373095201e-01
4 6 6.12323399573676604e-17
5 6 -4.14213562373094979e-01
6 6 -1.00000000000000000e+00
7 6 -1.00000000000000000e+00
8 6 -1.00000000000000022e+00
9 6 -4.14213562373095368e-01
10 6 -1.83697019872102993e-16
11 6 4.14213562373094868e-01
12 6 1.00000000000000000e+00
13 6 1.00000000000000000e+00
1 7 1.00000000000000000e+00
2 7 1.00000000000000000e+00
3 7 4.14213562373095145e-01
4 7 6.12323399573676604e-17
5 7 -4.14213562373094979e-01
6 7 -1.00000000000000000e+00
7 7 -1.00000000000000000e+00
8 7 -1.00000000000000022e+00
9 7 -4.14213562373095312e-01
10 7 -1.83697019872102969e-16
11 7 4.14213562373094923e-01
12 7 1.00000000000000000e+00
13 7 1.00000000000000000e+00
1 8 1.00000000000000000e+00
2 8 1.00000000000000000e+00
3 8 4.14213562373095201e-01
4 8 6.12323399573676604e-17
5 8 -4.14213562373094979e-01
6 8 -1.00000000000000000e+00
7 8 -1.00000000000000000e+00
8 8 -1.00000000000000022e+00
9 8 -4.14213562373095368e-01
10 8 -1.83697019872102993e-16
11 8 4.14213562373094868e-01
12 8 1.00000000000000000e+00
13 8 1.00000000000000000e+00
1 9 1.58578643762690508e+00
2 9 1.58578643762690508e+00
3 9 6.56854249492380360e-01
4 9 9.71014142485536648e-17
5 9 -6.56854249492380027e-01
6 9 -1.58578643762690485e+00
7 9 -1.58578643762690508e+00
8 9 -1.58578643762690552e+00
9 9 -6.56854249492380693e-01
10 9 -2.91304242745660945e-16
11 9 6.56854249492379916e-01
12 9 1.58578643762690485e+00
13 9 1.58578643762690508e+00
1 10 2.00000000000000000e+00
2 10 2.00000000000000000e+00
3 10 8.28427124746190291e-01
4 10 1.22464679914735321e-16
5 10 -8.28427124746189847e-01
6 10 -2.00000000000000000e+00
7 10 -2.00000000000000000e+00
8 10 -2.00000000000000044e+00
9 10 -8.28427124746190624e-01
10 10 -3.67394039744205938e-16
11 10 8.28427124746189514e-01
12 10 1.99999999999999978e+00
13 10 2.00000000000000000e+00
1 11 2.41421356237309537e+00
2 11 2.41421356237309537e+00
3 11 1.00000000000000022e+00
4 11 1.47827945580917001e-16
5 11 -9.99999999999999667e-01
6 11 -2.41421356237309537e+00
7 11 -2.41421356237309537e+00
8 11 -2.41421356237309581e+00
9 11 -1.00000000000000067e+00
10 11 -4.43483836742751028e-16
11 11 9.99999999999999112e-01
12 11 2.41421356237309448e+00
13 11 2.41421356237309537e+00
1 12 3.00000000000000044e+00
2 12 3.00000000000000044e+00
3 12 1.24264068711928544e+00
4 12 1.83697019872102993e-16
5 12 -1.24264068711928477e+00
6 12 -2.99999999999999956e+00
7 12 -3.00000000000000044e+00
8 12 -3.00000000000000089e+00
9 12 -1.24264068711928610e+00
10 12 -5.51091059616308956e-16
11 12 1.24264068711928366e+00
12 12 2.99999999999999911e+00
13 12 3.00000000000000044e+00
1 13 3.00000000000000000e+00
2 13 3.00000000000000044e+00
3 13 1.24264068711928544e+00
4 13 1.83697019872102969e-16
5 13 -1.24264068711928477e+00
6 13 -2.99999999999999956e+00
7 13 -3.00000000000000000e+00
8 13 -3.00000000000000089e+00
9 13 -1.24264068711928588e+00
10 13 -5.51091059616308956e-16
11 13 1.24264068711928388e+00
12 13 2.99999999999999867e+00
13 13 3.00000000000000000e+00
