%%MatrixMarket matrix coordinate  real general
13 13 169
1 1 1.00000000000000000e+00
2 1 8.53553390593273731e-01
3 1 8.53553390593273731e-01
4 1 1.00000000000000000e+00
5 1 8.53553390593273731e-01
6 1 8.53553390593273731e-01
7 1 1.00000000000000000e+00
8 1 8.53553390593273731e-01
9 1 8.53553390593273731e-01
10 1 1.00000000000000000e+00
11 1 8.53553390593273731e-01
12 1 8.53553390593273731e-01
13 1 1.00000000000000000e+00
1 2 8.53553390593273731e-01
2 2 7.28553390593273731e-01
3 2 7.28553390593273731e-01
4 2 8.53553390593273731e-01
5 2 7.28553390593273731e-01
6 2 7.28553390593273731e-01
7 2 8.53553390593273731e-01
8 2 7.28553390593273731e-01
9 2 7.28553390593273731e-01
10 2 8.53553390593273731e-01
11 2 7.28553390593273731e-01
12 2 7.28553390593273731e-01
13 2 8.53553390593273731e-01
1 3 8.53553390593273731e-01
2 3 7.28553390593273731e-01
3 3 7.28553390593273731e-01
4 3 8.53553390593273731e-01
5 3 7.28553390593273731e-01
6 3 7.28553390593273731e-01
7 3 8.53553390593273731e-01
8 3 7.28553390593273731e-01
9 3 7.28553390593273731e-01
10 3 8.53553390593273731e-01
11 3 7.28553390593273731e-01
12 3 7.28553390593273731e-01
13 3 8.53553390593273731e-01
1 4 1.00000000000000000e+00
2 4 8.53553390593273731e-01
3 4 8.53553390593273731e-01
4 4 1.00000000000000000e+00
5 4 8.53553390593273731e-01
6 4 8.53553390593273731e-01
7 4 1.00000000000000000e+00
8 4 8.53553390593273731e-01
9 4 8.53553390593273731e-01
10 4 1.00000000000000000e+00
11 4 8.53553390593273731e-01
12 4 8.53553390593273731e-01
13 4 1.00000000000000000e+00
1 5 8.53553390593273731e-01
2 5 7.28553390593273731e-01
3 5 7.28553390593273731e-01
4 5 8.53553390593273731e-01
5 5 7.28553390593273731e-01
6 5 7.28553390593273731e-01
7 5 8.53553390593273731e-01
8 5 7.28553390593273731e-01
9 5 7.28553390593273731e-01
10 5 8.53553390593273731e-01
11 5 7.28553390593273731e-01
12 5 7.28553390593273731e-01
13 5 8.53553390593273731e-01
1 6 8.53553390593273731e-01
2 6 7.28553390593273731e-01
3 6 7.28553390593273731e-01
4 6 8.53553390593273731e-01
5 6 7.28553390593273731e-01
6 6 7.28553390593273731e-01
7 6 8.53553390593273731e-01
8 6 7.28553390593273731e-01
9 6 7.28553390593273731e-01
10 6 8.53553390593273731e-01
11 6 7.28553390593273731e-01
12 6 7.28553390593273731e-01
13 6 8.53553390593273731e-01
1 7 1.00000000000000000e+00
2 7 8.53553390593273731e-01
3 7 8.53553390593273731e-01
4 7 1.00000000000000000e+00
5 7 8.53553390593273731e-01
6 7 8.53553390593273731e-01
7 7 1.00000000000000000e+00
8 7 8.53553390593273731e-01
9 7 8.53553390593273731e-01
10 7 1.00000000000000000e+00
11 7 8.53553390593273731e-01
12 7 8.53553390593273731e-01
13 7 1.00000000000000000e+00
1 8 8.53553390593273731e-01
2 8 7.28553390593273731e-01
3 8 7.28553390593273731e-01
4 8 8.53553390593273731e-01
5 8 7.28553390593273731e-01
6 8 7.28553390593273731e-01
7 8 8.53553390593273731e-01
8 8 7.28553390593273731e-01
9 8 7.28553390593273731e-01
10 8 8.53553390593273731e-01
11 8 7.28553390593273731e-01
12 8 7.28553390593273731e-01
13 8 8.53553390593273731e-01
1 9 8.53553390593273731e-01
2 9 7.28553390593273731e-01
3 9 7.28553390593273731e-01
4 9 8.53553390593273731e-01
5 9 7.28553390593273731e-01
6 9 7.28553390593273731e-01
7 9 8.53553390593273731e-01
8 9 7.28553390593273731e-01
9 9 7.28553390593273731e-01
10 9 8.53553390593273731e-01
11 9 7.28553390593273731e-01
12 9 7.28553390593273731e-01
13 9 8.53553390593273731e-01
1 10 1.00000000000000000e+00
2 10 8.53553390593273731e-01
3 10 8.53553390593273731e-01
4 10 1.00000000000000000e+00
5 10 8.53553390593273731e-01
6 10 8.53553390593273731e-01
7 10 1.00000000000000000e+00
8 10 8.53553390593273731e-01
9 10 8.53553390593273731e-01
10 10 1.00000000000000000e+00
11 10 8.53553390593273731e-01
12 10 8.53553390593273731e-01
13 10 1.00000000000000000e+00
1 11 8.53553390593273731e-01
2 11 7.28553390593273731e-01
3 11 7.28553390593273731e-01
4 11 8.53553390593273731e-01
5 11 7.28553390593273731e-01
6 11 7.28553390593273731e-01
7 11 8.53553390593273731e-01
8 11 7.28553390593273731e-01
9 11 7.28553390593273731e-01
10 11 8.53553390593273731e-01
11 11 7.28553390593273731e-01
12 11 7.28553390593273731e-01
13 11 8.53553390593273731e-01
1 12 8.53553390593273731e-01
2 12 7.28553390593273731e-01
3 12 7.28553390593273731e-01
4 12 8.53553390593273731e-01
5 12 7.28553390593273731e-01
6 12 7.28553390593273731e-01
7 12 8.53553390593273731e-01
8 12 7.28553390593273731e-01
9 12 7.28553390593273731e-01
10 12 8.53553390593273731e-01
11 12 7.28553390593273731e-01
12 12 7.28553390593273731e-01
13 12 8.53553390593273731e-01
1 13 1.00000000000000000e+00
2 13 8.53553390593273731e-01
3 13 8.53553390593273731e-01
4 13 1.00000000000000000e+00
5 13 8.53553390593273731e-01
6 13 8.53553390593273731e-01
7 13 1.00000000000000000e+00
8 13 8.53553390593273731e-01
9 13 8.53553390593273731e-01
10 13 1.00000000000000000e+00
11 13 8.53553390593273731e-01
12 13 8.53553390593273731e-01
13 13 1.00000000000000000e+00
