%%MatrixMarket matrix coordinate  real general
66 66 4356
1 1 0.00000000000000000e+00
2 1 0.00000000000000000e+00
3 1 0.00000000000000000e+00
4 1 0.00000000000000000e+00
5 1 0.00000000000000000e+00
6 1 0.00000000000000000e+00
7 1 0.00000000000000000e+00
8 1 0.00000000000000000e+00
9 1 0.00000000000000000e+00
10 1 0.00000000000000000e+00
11 1 0.00000000000000000e+00
12 1 0.00000000000000000e+00
13 1 0.00000000000000000e+00
14 1 0.00000000000000000e+00
15 1 0.00000000000000000e+00
16 1 0.00000000000000000e+00
17 1 0.00000000000000000e+00
18 1 0.00000000000000000e+00
19 1 0.00000000000000000e+00
20 1 0.00000000000000000e+00
21 1 0.00000000000000000e+00
22 1 0.00000000000000000e+00
23 1 0.00000000000000000e+00
24 1 0.00000000000000000e+00
25 1 0.00000000000000000e+00
26 1 0.00000000000000000e+00
27 1 0.00000000000000000e+00
28 1 0.00000000000000000e+00
29 1 0.00000000000000000e+00
30 1 0.00000000000000000e+00
31 1 0.00000000000000000e+00
32 1 0.00000000000000000e+00
33 1 0.00000000000000000e+00
34 1 0.00000000000000000e+00
35 1 0.00000000000000000e+00
36 1 0.00000000000000000e+00
37 1 0.00000000000000000e+00
38 1 0.00000000000000000e+00
39 1 0.00000000000000000e+00
40 1 0.00000000000000000e+00
41 1 0.00000000000000000e+00
42 1 0.00000000000000000e+00
43 1 0.00000000000000000e+00
44 1 0.00000000000000000e+00
45 1 0.00000000000000000e+00
46 1 0.00000000000000000e+00
47 1 0.00000000000000000e+00
48 1 0.00000000000000000e+00
49 1 0.00000000000000000e+00
50 1 0.00000000000000000e+00
51 1 0.00000000000000000e+00
52 1 0.00000000000000000e+00
53 1 0.00000000000000000e+00
54 1 0.00000000000000000e+00
55 1 0.00000000000000000e+00
56 1 0.00000000000000000e+00
57 1 0.00000000000000000e+00
58 1 0.00000000000000000e+00
59 1 0.00000000000000000e+00
60 1 0.00000000000000000e+00
61 1 0.00000000000000000e+00
62 1 0.00000000000000000e+00
63 1 0.00000000000000000e+00
64 1 0.00000000000000000e+00
65 1 0.00000000000000000e+00
66 1 0.00000000000000000e+00
1 2 7.81250000000000000e-03
2 2 7.81250000000000000e-03
3 2 7.81250000000000000e-03
4 2 7.81250000000000000e-03
5 2 7.81250000000000000e-03
6 2 7.81250000000000000e-03
7 2 7.81250000000000000e-03
8 2 7.81250000000000000e-03
9 2 7.81250000000000000e-03
10 2 7.81250000000000000e-03
11 2 7.81250000000000000e-03
12 2 7.81250000000000000e-03
13 2 7.81250000000000000e-03
14 2 7.81250000000000000e-03
15 2 7.81250000000000000e-03
16 2 7.81250000000000000e-03
17 2 7.81250000000000000e-03
18 2 7.81250000000000000e-03
19 2 7.81250000000000000e-03
20 2 7.81250000000000000e-03
21 2 7.81250000000000000e-03
22 2 7.81250000000000000e-03
23 2 7.81250000000000000e-03
24 2 7.81250000000000000e-03
25 2 7.81250000000000000e-03
26 2 7.81250000000000000e-03
27 2 7.81250000000000000e-03
28 2 7.81250000000000000e-03
29 2 7.81250000000000000e-03
30 2 7.81250000000000000e-03
31 2 7.81250000000000000e-03
32 2 7.81250000000000000e-03
33 2 7.81250000000000000e-03
34 2 7.81250000000000000e-03
35 2 7.81250000000000000e-03
36 2 7.81250000000000000e-03
37 2 7.81250000000000000e-03
38 2 7.81250000000000000e-03
39 2 7.81250000000000000e-03
40 2 7.81250000000000000e-03
41 2 7.81250000000000000e-03
42 2 7.81250000000000000e-03
43 2 7.81250000000000000e-03
44 2 7.81250000000000000e-03
45 2 7.81250000000000000e-03
46 2 7.81250000000000000e-03
47 2 7.81250000000000000e-03
48 2 7.81250000000000000e-03
49 2 7.81250000000000000e-03
50 2 7.81250000000000000e-03
51 2 7.81250000000000000e-03
52 2 7.81250000000000000e-03
53 2 7.81250000000000000e-03
54 2 7.81250000000000000e-03
55 2 7.81250000000000000e-03
56 2 7.81250000000000000e-03
57 2 7.81250000000000000e-03
58 2 7.81250000000000000e-03
59 2 7.81250000000000000e-03
60 2 7.81250000000000000e-03
61 2 7.81250000000000000e-03
62 2 7.81250000000000000e-03
63 2 7.81250000000000000e-03
64 2 7.81250000000000000e-03
65 2 7.81250000000000000e-03
66 2 7.81250000000000000e-03
1 3 2.34375000000000000e-02
2 3 2.34375000000000000e-02
3 3 2.34375000000000000e-02
4 3 2.34375000000000000e-02
5 3 2.34375000000000000e-02
6 3 2.34375000000000000e-02
7 3 2.34375000000000000e-02
8 3 2.34375000000000000e-02
9 3 2.34375000000000000e-02
10 3 2.34375000000000000e-02
11 3 2.34375000000000000e-02
12 3 2.34375000000000000e-02
13 3 2.34375000000000000e-02
14 3 2.34375000000000000e-02
15 3 2.34375000000000000e-02
16 3 2.34375000000000000e-02
17 3 2.34375000000000000e-02
18 3 2.34375000000000000e-02
19 3 2.34375000000000000e-02
20 3 2.34375000000000000e-02
21 3 2.34375000000000000e-02
22 3 2.34375000000000000e-02
23 3 2.34375000000000000e-02
24 3 2.34375000000000000e-02
25 3 2.34375000000000000e-02
26 3 2.34375000000000000e-02
27 3 2.34375000000000000e-02
28 3 2.34375000000000000e-02
29 3 2.34375000000000000e-02
30 3 2.34375000000000000e-02
31 3 2.34375000000000000e-02
32 3 2.34375000000000000e-02
33 3 2.34375000000000000e-02
34 3 2.34375000000000000e-02
35 3 2.34375000000000000e-02
36 3 2.34375000000000000e-02
37 3 2.34375000000000000e-02
38 3 2.34375000000000000e-02
39 3 2.34375000000000000e-02
40 3 2.34375000000000000e-02
41 3 2.34375000000000000e-02
42 3 2.34375000000000000e-02
43 3 2.34375000000000000e-02
44 3 2.34375000000000000e-02
45 3 2.34375000000000000e-02
46 3 2.34375000000000000e-02
47 3 2.34375000000000000e-02
48 3 2.34375000000000000e-02
49 3 2.34375000000000000e-02
50 3 2.34375000000000000e-02
51 3 2.34375000000000000e-02
52 3 2.34375000000000000e-02
53 3 2.34375000000000000e-02
54 3 2.34375000000000000e-02
55 3 2.34375000000000000e-02
56 3 2.34375000000000000e-02
57 3 2.34375000000000000e-02
58 3 2.34375000000000000e-02
59 3 2.34375000000000000e-02
60 3 2.34375000000000000e-02
61 3 2.34375000000000000e-02
62 3 2.34375000000000000e-02
63 3 2.34375000000000000e-02
64 3 2.34375000000000000e-02
65 3 2.34375000000000000e-02
66 3 2.34375000000000000e-02
1 4 3.90625000000000000e-02
2 4 3.90625000000000000e-02
3 4 3.90625000000000000e-02
4 4 3.90625000000000000e-02
5 4 3.90625000000000000e-02
6 4 3.90625000000000000e-02
7 4 3.90625000000000000e-02
8 4 3.90625000000000000e-02
9 4 3.90625000000000000e-02
10 4 3.90625000000000000e-02
11 4 3.90625000000000000e-02
12 4 3.90625000000000000e-02
13 4 3.90625000000000000e-02
14 4 3.90625000000000000e-02
15 4 3.90625000000000000e-02
16 4 3.90625000000000000e-02
17 4 3.90625000000000000e-02
18 4 3.90625000000000000e-02
19 4 3.90625000000000000e-02
20 4 3.90625000000000000e-02
21 4 3.90625000000000000e-02
22 4 3.90625000000000000e-02
23 4 3.90625000000000000e-02
24 4 3.90625000000000000e-02
25 4 3.90625000000000000e-02
26 4 3.90625000000000000e-02
27 4 3.90625000000000000e-02
28 4 3.90625000000000000e-02
29 4 3.90625000000000000e-02
30 4 3.90625000000000000e-02
31 4 3.90625000000000000e-02
32 4 3.90625000000000000e-02
33 4 3.90625000000000000e-02
34 4 3.90625000000000000e-02
35 4 3.90625000000000000e-02
36 4 3.90625000000000000e-02
37 4 3.90625000000000000e-02
38 4 3.90625000000000000e-02
39 4 3.90625000000000000e-02
40 4 3.90625000000000000e-02
41 4 3.90625000000000000e-02
42 4 3.90625000000000000e-02
43 4 3.90625000000000000e-02
44 4 3.90625000000000000e-02
45 4 3.90625000000000000e-02
46 4 3.90625000000000000e-02
47 4 3.90625000000000000e-02
48 4 3.90625000000000000e-02
49 4 3.90625000000000000e-02
50 4 3.90625000000000000e-02
51 4 3.90625000000000000e-02
52 4 3.90625000000000000e-02
53 4 3.90625000000000000e-02
54 4 3.90625000000000000e-02
55 4 3.90625000000000000e-02
56 4 3.90625000000000000e-02
57 4 3.90625000000000000e-02
58 4 3.90625000000000000e-02
59 4 3.90625000000000000e-02
60 4 3.90625000000000000e-02
61 4 3.90625000000000000e-02
62 4 3.90625000000000000e-02
63 4 3.90625000000000000e-02
64 4 3.90625000000000000e-02
65 4 3.90625000000000000e-02
66 4 3.90625000000000000e-02
1 5 5.46875000000000000e-02
2 5 5.46875000000000000e-02
3 5 5.46875000000000000e-02
4 5 5.46875000000000000e-02
5 5 5.46875000000000000e-02
6 5 5.46875000000000000e-02
7 5 5.46875000000000000e-02
8 5 5.46875000000000000e-02
9 5 5.46875000000000000e-02
10 5 5.46875000000000000e-02
11 5 5.46875000000000000e-02
12 5 5.46875000000000000e-02
13 5 5.46875000000000000e-02
14 5 5.46875000000000000e-02
15 5 5.46875000000000000e-02
16 5 5.46875000000000000e-02
17 5 5.46875000000000000e-02
18 5 5.46875000000000000e-02
19 5 5.46875000000000000e-02
20 5 5.46875000000000000e-02
21 5 5.46875000000000000e-02
22 5 5.46875000000000000e-02
23 5 5.46875000000000000e-02
24 5 5.46875000000000000e-02
25 5 5.46875000000000000e-02
26 5 5.46875000000000000e-02
27 5 5.46875000000000000e-02
28 5 5.46875000000000000e-02
29 5 5.46875000000000000e-02
30 5 5.46875000000000000e-02
31 5 5.46875000000000000e-02
32 5 5.46875000000000000e-02
33 5 5.46875000000000000e-02
34 5 5.46875000000000000e-02
35 5 5.46875000000000000e-02
36 5 5.46875000000000000e-02
37 5 5.46875000000000000e-02
38 5 5.46875000000000000e-02
39 5 5.46875000000000000e-02
40 5 5.46875000000000000e-02
41 5 5.46875000000000000e-02
42 5 5.46875000000000000e-02
43 5 5.46875000000000000e-02
44 5 5.46875000000000000e-02
45 5 5.46875000000000000e-02
46 5 5.46875000000000000e-02
47 5 5.46875000000000000e-02
48 5 5.46875000000000000e-02
49 5 5.46875000000000000e-02
50 5 5.46875000000000000e-02
51 5 5.46875000000000000e-02
52 5 5.46875000000000000e-02
53 5 5.46875000000000000e-02
54 5 5.46875000000000000e-02
55 5 5.46875000000000000e-02
56 5 5.46875000000000000e-02
57 5 5.46875000000000000e-02
58 5 5.46875000000000000e-02
59 5 5.46875000000000000e-02
60 5 5.46875000000000000e-02
61 5 5.46875000000000000e-02
62 5 5.46875000000000000e-02
63 5 5.46875000000000000e-02
64 5 5.46875000000000000e-02
65 5 5.46875000000000000e-02
66 5 5.46875000000000000e-02
1 6 7.03125000000000000e-02
2 6 7.03125000000000000e-02
3 6 7.03125000000000000e-02
4 6 7.03125000000000000e-02
5 6 7.03125000000000000e-02
6 6 7.03125000000000000e-02
7 6 7.03125000000000000e-02
8 6 7.03125000000000000e-02
9 6 7.03125000000000000e-02
10 6 7.03125000000000000e-02
11 6 7.03125000000000000e-02
12 6 7.03125000000000000e-02
13 6 7.03125000000000000e-02
14 6 7.03125000000000000e-02
15 6 7.03125000000000000e-02
16 6 7.03125000000000000e-02
17 6 7.03125000000000000e-02
18 6 7.03125000000000000e-02
19 6 7.03125000000000000e-02
20 6 7.03125000000000000e-02
21 6 7.03125000000000000e-02
22 6 7.03125000000000000e-02
23 6 7.03125000000000000e-02
24 6 7.03125000000000000e-02
25 6 7.03125000000000000e-02
26 6 7.03125000000000000e-02
27 6 7.03125000000000000e-02
28 6 7.03125000000000000e-02
29 6 7.03125000000000000e-02
30 6 7.03125000000000000e-02
31 6 7.03125000000000000e-02
32 6 7.03125000000000000e-02
33 6 7.03125000000000000e-02
34 6 7.03125000000000000e-02
35 6 7.03125000000000000e-02
36 6 7.03125000000000000e-02
37 6 7.03125000000000000e-02
38 6 7.03125000000000000e-02
39 6 7.03125000000000000e-02
40 6 7.03125000000000000e-02
41 6 7.03125000000000000e-02
42 6 7.03125000000000000e-02
43 6 7.03125000000000000e-02
44 6 7.03125000000000000e-02
45 6 7.03125000000000000e-02
46 6 7.03125000000000000e-02
47 6 7.03125000000000000e-02
48 6 7.03125000000000000e-02
49 6 7.03125000000000000e-02
50 6 7.03125000000000000e-02
51 6 7.03125000000000000e-02
52 6 7.03125000000000000e-02
53 6 7.03125000000000000e-02
54 6 7.03125000000000000e-02
55 6 7.03125000000000000e-02
56 6 7.03125000000000000e-02
57 6 7.03125000000000000e-02
58 6 7.03125000000000000e-02
59 6 7.03125000000000000e-02
60 6 7.03125000000000000e-02
61 6 7.03125000000000000e-02
62 6 7.03125000000000000e-02
63 6 7.03125000000000000e-02
64 6 7.03125000000000000e-02
65 6 7.03125000000000000e-02
66 6 7.03125000000000000e-02
1 7 8.59375000000000000e-02
2 7 8.59375000000000000e-02
3 7 8.59375000000000000e-02
4 7 8.59375000000000000e-02
5 7 8.59375000000000000e-02
6 7 8.59375000000000000e-02
7 7 8.59375000000000000e-02
8 7 8.59375000000000000e-02
9 7 8.59375000000000000e-02
10 7 8.59375000000000000e-02
11 7 8.59375000000000000e-02
12 7 8.59375000000000000e-02
13 7 8.59375000000000000e-02
14 7 8.59375000000000000e-02
15 7 8.59375000000000000e-02
16 7 8.59375000000000000e-02
17 7 8.59375000000000000e-02
18 7 8.59375000000000000e-02
19 7 8.59375000000000000e-02
20 7 8.59375000000000000e-02
21 7 8.59375000000000000e-02
22 7 8.59375000000000000e-02
23 7 8.59375000000000000e-02
24 7 8.59375000000000000e-02
25 7 8.59375000000000000e-02
26 7 8.59375000000000000e-02
27 7 8.59375000000000000e-02
28 7 8.59375000000000000e-02
29 7 8.59375000000000000e-02
30 7 8.59375000000000000e-02
31 7 8.59375000000000000e-02
32 7 8.59375000000000000e-02
33 7 8.59375000000000000e-02
34 7 8.59375000000000000e-02
35 7 8.59375000000000000e-02
36 7 8.59375000000000000e-02
37 7 8.59375000000000000e-02
38 7 8.59375000000000000e-02
39 7 8.59375000000000000e-02
40 7 8.59375000000000000e-02
41 7 8.59375000000000000e-02
42 7 8.59375000000000000e-02
43 7 8.59375000000000000e-02
44 7 8.59375000000000000e-02
45 7 8.59375000000000000e-02
46 7 8.59375000000000000e-02
47 7 8.59375000000000000e-02
48 7 8.59375000000000000e-02
49 7 8.59375000000000000e-02
50 7 8.59375000000000000e-02
51 7 8.59375000000000000e-02
52 7 8.59375000000000000e-02
53 7 8.59375000000000000e-02
54 7 8.59375000000000000e-02
55 7 8.59375000000000000e-02
56 7 8.59375000000000000e-02
57 7 8.59375000000000000e-02
58 7 8.59375000000000000e-02
59 7 8.59375000000000000e-02
60 7 8.59375000000000000e-02
61 7 8.59375000000000000e-02
62 7 8.59375000000000000e-02
63 7 8.59375000000000000e-02
64 7 8.59375000000000000e-02
65 7 8.59375000000000000e-02
66 7 8.59375000000000000e-02
1 8 1.01562500000000000e-01
2 8 1.01562500000000000e-01
3 8 1.01562500000000000e-01
4 8 1.01562500000000000e-01
5 8 1.01562500000000000e-01
6 8 1.01562500000000000e-01
7 8 1.01562500000000000e-01
8 8 1.01562500000000000e-01
9 8 1.01562500000000000e-01
10 8 1.01562500000000000e-01
11 8 1.01562500000000000e-01
12 8 1.01562500000000000e-01
13 8 1.01562500000000000e-01
14 8 1.01562500000000000e-01
15 8 1.01562500000000000e-01
16 8 1.01562500000000000e-01
17 8 1.01562500000000000e-01
18 8 1.01562500000000000e-01
19 8 1.01562500000000000e-01
20 8 1.01562500000000000e-01
21 8 1.01562500000000000e-01
22 8 1.01562500000000000e-01
23 8 1.01562500000000000e-01
24 8 1.01562500000000000e-01
25 8 1.01562500000000000e-01
26 8 1.01562500000000000e-01
27 8 1.01562500000000000e-01
28 8 1.01562500000000000e-01
29 8 1.01562500000000000e-01
30 8 1.01562500000000000e-01
31 8 1.01562500000000000e-01
32 8 1.01562500000000000e-01
33 8 1.01562500000000000e-01
34 8 1.01562500000000000e-01
35 8 1.01562500000000000e-01
36 8 1.01562500000000000e-01
37 8 1.01562500000000000e-01
38 8 1.01562500000000000e-01
39 8 1.01562500000000000e-01
40 8 1.01562500000000000e-01
41 8 1.01562500000000000e-01
42 8 1.01562500000000000e-01
43 8 1.01562500000000000e-01
44 8 1.01562500000000000e-01
45 8 1.01562500000000000e-01
46 8 1.01562500000000000e-01
47 8 1.01562500000000000e-01
48 8 1.01562500000000000e-01
49 8 1.01562500000000000e-01
50 8 1.01562500000000000e-01
51 8 1.01562500000000000e-01
52 8 1.01562500000000000e-01
53 8 1.01562500000000000e-01
54 8 1.01562500000000000e-01
55 8 1.01562500000000000e-01
56 8 1.01562500000000000e-01
57 8 1.01562500000000000e-01
58 8 1.01562500000000000e-01
59 8 1.01562500000000000e-01
60 8 1.01562500000000000e-01
61 8 1.01562500000000000e-01
62 8 1.01562500000000000e-01
63 8 1.01562500000000000e-01
64 8 1.01562500000000000e-01
65 8 1.01562500000000000e-01
66 8 1.01562500000000000e-01
1 9 1.17187500000000000e-01
2 9 1.17187500000000000e-01
3 9 1.17187500000000000e-01
4 9 1.17187500000000000e-01
5 9 1.17187500000000000e-01
6 9 1.17187500000000000e-01
7 9 1.17187500000000000e-01
8 9 1.17187500000000000e-01
9 9 1.17187500000000000e-01
10 9 1.17187500000000000e-01
11 9 1.17187500000000000e-01
12 9 1.17187500000000000e-01
13 9 1.17187500000000000e-01
14 9 1.17187500000000000e-01
15 9 1.17187500000000000e-01
16 9 1.17187500000000000e-01
17 9 1.17187500000000000e-01
18 9 1.17187500000000000e-01
19 9 1.17187500000000000e-01
20 9 1.17187500000000000e-01
21 9 1.17187500000000000e-01
22 9 1.17187500000000000e-01
23 9 1.17187500000000000e-01
24 9 1.17187500000000000e-01
25 9 1.17187500000000000e-01
26 9 1.17187500000000000e-01
27 9 1.17187500000000000e-01
28 9 1.17187500000000000e-01
29 9 1.17187500000000000e-01
30 9 1.17187500000000000e-01
31 9 1.17187500000000000e-01
32 9 1.17187500000000000e-01
33 9 1.17187500000000000e-01
34 9 1.17187500000000000e-01
35 9 1.17187500000000000e-01
36 9 1.17187500000000000e-01
37 9 1.17187500000000000e-01
38 9 1.17187500000000000e-01
39 9 1.17187500000000000e-01
40 9 1.17187500000000000e-01
41 9 1.17187500000000000e-01
42 9 1.17187500000000000e-01
43 9 1.17187500000000000e-01
44 9 1.17187500000000000e-01
45 9 1.17187500000000000e-01
46 9 1.17187500000000000e-01
47 9 1.17187500000000000e-01
48 9 1.17187500000000000e-01
49 9 1.17187500000000000e-01
50 9 1.17187500000000000e-01
51 9 1.17187500000000000e-01
52 9 1.17187500000000000e-01
53 9 1.17187500000000000e-01
54 9 1.17187500000000000e-01
55 9 1.17187500000000000e-01
56 9 1.17187500000000000e-01
57 9 1.17187500000000000e-01
58 9 1.17187500000000000e-01
59 9 1.17187500000000000e-01
60 9 1.17187500000000000e-01
61 9 1.17187500000000000e-01
62 9 1.17187500000000000e-01
63 9 1.17187500000000000e-01
64 9 1.17187500000000000e-01
65 9 1.17187500000000000e-01
66 9 1.17187500000000000e-01
1 10 1.32812500000000000e-01
2 10 1.32812500000000000e-01
3 10 1.32812500000000000e-01
4 10 1.32812500000000000e-01
5 10 1.32812500000000000e-01
6 10 1.32812500000000000e-01
7 10 1.32812500000000000e-01
8 10 1.32812500000000000e-01
9 10 1.32812500000000000e-01
10 10 1.32812500000000000e-01
11 10 1.32812500000000000e-01
12 10 1.32812500000000000e-01
13 10 1.32812500000000000e-01
14 10 1.32812500000000000e-01
15 10 1.32812500000000000e-01
16 10 1.32812500000000000e-01
17 10 1.32812500000000000e-01
18 10 1.32812500000000000e-01
19 10 1.32812500000000000e-01
20 10 1.32812500000000000e-01
21 10 1.32812500000000000e-01
22 10 1.32812500000000000e-01
23 10 1.32812500000000000e-01
24 10 1.32812500000000000e-01
25 10 1.32812500000000000e-01
26 10 1.32812500000000000e-01
27 10 1.32812500000000000e-01
28 10 1.32812500000000000e-01
29 10 1.32812500000000000e-01
30 10 1.32812500000000000e-01
31 10 1.32812500000000000e-01
32 10 1.32812500000000000e-01
33 10 1.32812500000000000e-01
34 10 1.32812500000000000e-01
35 10 1.32812500000000000e-01
36 10 1.32812500000000000e-01
37 10 1.32812500000000000e-01
38 10 1.32812500000000000e-01
39 10 1.32812500000000000e-01
40 10 1.32812500000000000e-01
41 10 1.32812500000000000e-01
42 10 1.32812500000000000e-01
43 10 1.32812500000000000e-01
44 10 1.32812500000000000e-01
45 10 1.32812500000000000e-01
46 10 1.32812500000000000e-01
47 10 1.32812500000000000e-01
48 10 1.32812500000000000e-01
49 10 1.32812500000000000e-01
50 10 1.32812500000000000e-01
51 10 1.32812500000000000e-01
52 10 1.32812500000000000e-01
53 10 1.32812500000000000e-01
54 10 1.32812500000000000e-01
55 10 1.32812500000000000e-01
56 10 1.32812500000000000e-01
57 10 1.32812500000000000e-01
58 10 1.32812500000000000e-01
59 10 1.32812500000000000e-01
60 10 1.32812500000000000e-01
61 10 1.32812500000000000e-01
62 10 1.32812500000000000e-01
63 10 1.32812500000000000e-01
64 10 1.32812500000000000e-01
65 10 1.32812500000000000e-01
66 10 1.32812500000000000e-01
1 11 1.48437500000000000e-01
2 11 1.48437500000000000e-01
3 11 1.48437500000000000e-01
4 11 1.48437500000000000e-01
5 11 1.48437500000000000e-01
6 11 1.48437500000000000e-01
7 11 1.48437500000000000e-01
8 11 1.48437500000000000e-01
9 11 1.48437500000000000e-01
10 11 1.48437500000000000e-01
11 11 1.48437500000000000e-01
12 11 1.48437500000000000e-01
13 11 1.48437500000000000e-01
14 11 1.48437500000000000e-01
15 11 1.48437500000000000e-01
16 11 1.48437500000000000e-01
17 11 1.48437500000000000e-01
18 11 1.48437500000000000e-01
19 11 1.48437500000000000e-01
20 11 1.48437500000000000e-01
21 11 1.48437500000000000e-01
22 11 1.48437500000000000e-01
23 11 1.48437500000000000e-01
24 11 1.48437500000000000e-01
25 11 1.48437500000000000e-01
26 11 1.48437500000000000e-01
27 11 1.48437500000000000e-01
28 11 1.48437500000000000e-01
29 11 1.48437500000000000e-01
30 11 1.48437500000000000e-01
31 11 1.48437500000000000e-01
32 11 1.48437500000000000e-01
33 11 1.48437500000000000e-01
34 11 1.48437500000000000e-01
35 11 1.48437500000000000e-01
36 11 1.48437500000000000e-01
37 11 1.48437500000000000e-01
38 11 1.48437500000000000e-01
39 11 1.48437500000000000e-01
40 11 1.48437500000000000e-01
41 11 1.48437500000000000e-01
42 11 1.48437500000000000e-01
43 11 1.48437500000000000e-01
44 11 1.48437500000000000e-01
45 11 1.48437500000000000e-01
46 11 1.48437500000000000e-01
47 11 1.48437500000000000e-01
48 11 1.48437500000000000e-01
49 11 1.48437500000000000e-01
50 11 1.48437500000000000e-01
51 11 1.48437500000000000e-01
52 11 1.48437500000000000e-01
53 11 1.48437500000000000e-01
54 11 1.48437500000000000e-01
55 11 1.48437500000000000e-01
56 11 1.48437500000000000e-01
57 11 1.48437500000000000e-01
58 11 1.48437500000000000e-01
59 11 1.48437500000000000e-01
60 11 1.48437500000000000e-01
61 11 1.48437500000000000e-01
62 11 1.48437500000000000e-01
63 11 1.48437500000000000e-01
64 11 1.48437500000000000e-01
65 11 1.48437500000000000e-01
66 11 1.48437500000000000e-01
1 12 1.64062500000000000e-01
2 12 1.64062500000000000e-01
3 12 1.64062500000000000e-01
4 12 1.64062500000000000e-01
5 12 1.64062500000000000e-01
6 12 1.64062500000000000e-01
7 12 1.64062500000000000e-01
8 12 1.64062500000000000e-01
9 12 1.64062500000000000e-01
10 12 1.64062500000000000e-01
11 12 1.64062500000000000e-01
12 12 1.64062500000000000e-01
13 12 1.64062500000000000e-01
14 12 1.64062500000000000e-01
15 12 1.64062500000000000e-01
16 12 1.64062500000000000e-01
17 12 1.64062500000000000e-01
18 12 1.64062500000000000e-01
19 12 1.64062500000000000e-01
20 12 1.64062500000000000e-01
21 12 1.64062500000000000e-01
22 12 1.64062500000000000e-01
23 12 1.64062500000000000e-01
24 12 1.64062500000000000e-01
25 12 1.64062500000000000e-01
26 12 1.64062500000000000e-01
27 12 1.64062500000000000e-01
28 12 1.64062500000000000e-01
29 12 1.64062500000000000e-01
30 12 1.64062500000000000e-01
31 12 1.64062500000000000e-01
32 12 1.64062500000000000e-01
33 12 1.64062500000000000e-01
34 12 1.64062500000000000e-01
35 12 1.64062500000000000e-01
36 12 1.64062500000000000e-01
37 12 1.64062500000000000e-01
38 12 1.64062500000000000e-01
39 12 1.64062500000000000e-01
40 12 1.64062500000000000e-01
41 12 1.64062500000000000e-01
42 12 1.64062500000000000e-01
43 12 1.64062500000000000e-01
44 12 1.64062500000000000e-01
45 12 1.64062500000000000e-01
46 12 1.64062500000000000e-01
47 12 1.64062500000000000e-01
48 12 1.64062500000000000e-01
49 12 1.64062500000000000e-01
50 12 1.64062500000000000e-01
51 12 1.64062500000000000e-01
52 12 1.64062500000000000e-01
53 12 1.64062500000000000e-01
54 12 1.64062500000000000e-01
55 12 1.64062500000000000e-01
56 12 1.64062500000000000e-01
57 12 1.64062500000000000e-01
58 12 1.64062500000000000e-01
59 12 1.64062500000000000e-01
60 12 1.64062500000000000e-01
61 12 1.64062500000000000e-01
62 12 1.64062500000000000e-01
63 12 1.64062500000000000e-01
64 12 1.64062500000000000e-01
65 12 1.64062500000000000e-01
66 12 1.64062500000000000e-01
1 13 1.79687500000000000e-01
2 13 1.79687500000000000e-01
3 13 1.79687500000000000e-01
4 13 1.79687500000000000e-01
5 13 1.79687500000000000e-01
6 13 1.79687500000000000e-01
7 13 1.79687500000000000e-01
8 13 1.79687500000000000e-01
9 13 1.79687500000000000e-01
10 13 1.79687500000000000e-01
11 13 1.79687500000000000e-01
12 13 1.79687500000000000e-01
13 13 1.79687500000000000e-01
14 13 1.79687500000000000e-01
15 13 1.79687500000000000e-01
16 13 1.79687500000000000e-01
17 13 1.79687500000000000e-01
18 13 1.79687500000000000e-01
19 13 1.79687500000000000e-01
20 13 1.79687500000000000e-01
21 13 1.79687500000000000e-01
22 13 1.79687500000000000e-01
23 13 1.79687500000000000e-01
24 13 1.79687500000000000e-01
25 13 1.79687500000000000e-01
26 13 1.79687500000000000e-01
27 13 1.79687500000000000e-01
28 13 1.79687500000000000e-01
29 13 1.79687500000000000e-01
30 13 1.79687500000000000e-01
31 13 1.79687500000000000e-01
32 13 1.79687500000000000e-01
33 13 1.79687500000000000e-01
34 13 1.79687500000000000e-01
35 13 1.79687500000000000e-01
36 13 1.79687500000000000e-01
37 13 1.79687500000000000e-01
38 13 1.79687500000000000e-01
39 13 1.79687500000000000e-01
40 13 1.79687500000000000e-01
41 13 1.79687500000000000e-01
42 13 1.79687500000000000e-01
43 13 1.79687500000000000e-01
44 13 1.79687500000000000e-01
45 13 1.79687500000000000e-01
46 13 1.79687500000000000e-01
47 13 1.79687500000000000e-01
48 13 1.79687500000000000e-01
49 13 1.79687500000000000e-01
50 13 1.79687500000000000e-01
51 13 1.79687500000000000e-01
52 13 1.79687500000000000e-01
53 13 1.79687500000000000e-01
54 13 1.79687500000000000e-01
55 13 1.79687500000000000e-01
56 13 1.79687500000000000e-01
57 13 1.79687500000000000e-01
58 13 1.79687500000000000e-01
59 13 1.79687500000000000e-01
60 13 1.79687500000000000e-01
61 13 1.79687500000000000e-01
62 13 1.79687500000000000e-01
63 13 1.79687500000000000e-01
64 13 1.79687500000000000e-01
65 13 1.79687500000000000e-01
66 13 1.79687500000000000e-01
1 14 1.95312500000000000e-01
2 14 1.95312500000000000e-01
3 14 1.95312500000000000e-01
4 14 1.95312500000000000e-01
5 14 1.95312500000000000e-01
6 14 1.95312500000000000e-01
7 14 1.95312500000000000e-01
8 14 1.95312500000000000e-01
9 14 1.95312500000000000e-01
10 14 1.95312500000000000e-01
11 14 1.95312500000000000e-01
12 14 1.95312500000000000e-01
13 14 1.95312500000000000e-01
14 14 1.95312500000000000e-01
15 14 1.95312500000000000e-01
16 14 1.95312500000000000e-01
17 14 1.95312500000000000e-01
18 14 1.95312500000000000e-01
19 14 1.95312500000000000e-01
20 14 1.95312500000000000e-01
21 14 1.95312500000000000e-01
22 14 1.95312500000000000e-01
23 14 1.95312500000000000e-01
24 14 1.95312500000000000e-01
25 14 1.95312500000000000e-01
26 14 1.95312500000000000e-01
27 14 1.95312500000000000e-01
28 14 1.95312500000000000e-01
29 14 1.95312500000000000e-01
30 14 1.95312500000000000e-01
31 14 1.95312500000000000e-01
32 14 1.95312500000000000e-01
33 14 1.95312500000000000e-01
34 14 1.95312500000000000e-01
35 14 1.95312500000000000e-01
36 14 1.95312500000000000e-01
37 14 1.95312500000000000e-01
38 14 1.95312500000000000e-01
39 14 1.95312500000000000e-01
40 14 1.95312500000000000e-01
41 14 1.95312500000000000e-01
42 14 1.95312500000000000e-01
43 14 1.95312500000000000e-01
44 14 1.95312500000000000e-01
45 14 1.95312500000000000e-01
46 14 1.95312500000000000e-01
47 14 1.95312500000000000e-01
48 14 1.95312500000000000e-01
49 14 1.95312500000000000e-01
50 14 1.95312500000000000e-01
51 14 1.95312500000000000e-01
52 14 1.95312500000000000e-01
53 14 1.95312500000000000e-01
54 14 1.95312500000000000e-01
55 14 1.95312500000000000e-01
56 14 1.95312500000000000e-01
57 14 1.95312500000000000e-01
58 14 1.95312500000000000e-01
59 14 1.95312500000000000e-01
60 14 1.95312500000000000e-01
61 14 1.95312500000000000e-01
62 14 1.95312500000000000e-01
63 14 1.95312500000000000e-01
64 14 1.95312500000000000e-01
65 14 1.95312500000000000e-01
66 14 1.95312500000000000e-01
1 15 2.10937499999999972e-01
2 15 2.10937499999999972e-01
3 15 2.10937499999999972e-01
4 15 2.10937499999999972e-01
5 15 2.10937499999999972e-01
6 15 2.10937499999999972e-01
7 15 2.10937499999999972e-01
8 15 2.10937499999999972e-01
9 15 2.10937499999999972e-01
10 15 2.10937499999999972e-01
11 15 2.10937499999999972e-01
12 15 2.10937499999999972e-01
13 15 2.10937499999999972e-01
14 15 2.10937499999999972e-01
15 15 2.10937499999999972e-01
16 15 2.10937499999999972e-01
17 15 2.10937499999999972e-01
18 15 2.10937499999999972e-01
19 15 2.10937499999999972e-01
20 15 2.10937499999999972e-01
21 15 2.10937499999999972e-01
22 15 2.10937499999999972e-01
23 15 2.10937499999999972e-01
24 15 2.10937499999999972e-01
25 15 2.10937499999999972e-01
26 15 2.10937499999999972e-01
27 15 2.10937499999999972e-01
28 15 2.10937499999999972e-01
29 15 2.10937499999999972e-01
30 15 2.10937499999999972e-01
31 15 2.10937499999999972e-01
32 15 2.10937499999999972e-01
33 15 2.10937499999999972e-01
34 15 2.10937499999999972e-01
35 15 2.10937499999999972e-01
36 15 2.10937499999999972e-01
37 15 2.10937499999999972e-01
38 15 2.10937499999999972e-01
39 15 2.10937499999999972e-01
40 15 2.10937499999999972e-01
41 15 2.10937499999999972e-01
42 15 2.10937499999999972e-01
43 15 2.10937499999999972e-01
44 15 2.10937499999999972e-01
45 15 2.10937499999999972e-01
46 15 2.10937499999999972e-01
47 15 2.10937499999999972e-01
48 15 2.10937499999999972e-01
49 15 2.10937499999999972e-01
50 15 2.10937499999999972e-01
51 15 2.10937499999999972e-01
52 15 2.10937499999999972e-01
53 15 2.10937499999999972e-01
54 15 2.10937499999999972e-01
55 15 2.10937499999999972e-01
56 15 2.10937499999999972e-01
57 15 2.10937499999999972e-01
58 15 2.10937499999999972e-01
59 15 2.10937499999999972e-01
60 15 2.10937499999999972e-01
61 15 2.10937499999999972e-01
62 15 2.10937499999999972e-01
63 15 2.10937499999999972e-01
64 15 2.10937499999999972e-01
65 15 2.10937499999999972e-01
66 15 2.10937499999999972e-01
1 16 2.26562499999999944e-01
2 16 2.26562499999999944e-01
3 16 2.26562499999999944e-01
4 16 2.26562499999999944e-01
5 16 2.26562499999999944e-01
6 16 2.26562499999999944e-01
7 16 2.26562499999999944e-01
8 16 2.26562499999999944e-01
9 16 2.26562499999999944e-01
10 16 2.26562499999999944e-01
11 16 2.26562499999999944e-01
12 16 2.26562499999999944e-01
13 16 2.26562499999999944e-01
14 16 2.26562499999999944e-01
15 16 2.26562499999999944e-01
16 16 2.26562499999999944e-01
17 16 2.26562499999999944e-01
18 16 2.26562499999999944e-01
19 16 2.26562499999999944e-01
20 16 2.26562499999999944e-01
21 16 2.26562499999999944e-01
22 16 2.26562499999999944e-01
23 16 2.26562499999999944e-01
24 16 2.26562499999999944e-01
25 16 2.26562499999999944e-01
26 16 2.26562499999999944e-01
27 16 2.26562499999999944e-01
28 16 2.26562499999999944e-01
29 16 2.26562499999999944e-01
30 16 2.26562499999999944e-01
31 16 2.26562499999999944e-01
32 16 2.26562499999999944e-01
33 16 2.26562499999999944e-01
34 16 2.26562499999999944e-01
35 16 2.26562499999999944e-01
36 16 2.26562499999999944e-01
37 16 2.26562499999999944e-01
38 16 2.26562499999999944e-01
39 16 2.26562499999999944e-01
40 16 2.26562499999999944e-01
41 16 2.26562499999999944e-01
42 16 2.26562499999999944e-01
43 16 2.26562499999999944e-01
44 16 2.26562499999999944e-01
45 16 2.26562499999999944e-01
46 16 2.26562499999999944e-01
47 16 2.26562499999999944e-01
48 16 2.26562499999999944e-01
49 16 2.26562499999999944e-01
50 16 2.26562499999999944e-01
51 16 2.26562499999999944e-01
52 16 2.26562499999999944e-01
53 16 2.26562499999999944e-01
54 16 2.26562499999999944e-01
55 16 2.26562499999999944e-01
56 16 2.26562499999999944e-01
57 16 2.26562499999999944e-01
58 16 2.26562499999999944e-01
59 16 2.26562499999999944e-01
60 16 2.26562499999999944e-01
61 16 2.26562499999999944e-01
62 16 2.26562499999999944e-01
63 16 2.26562499999999944e-01
64 16 2.26562499999999944e-01
65 16 2.26562499999999944e-01
66 16 2.26562499999999944e-01
1 17 2.42187499999999944e-01
2 17 2.42187499999999944e-01
3 17 2.42187499999999944e-01
4 17 2.42187499999999944e-01
5 17 2.42187499999999944e-01
6 17 2.42187499999999944e-01
7 17 2.42187499999999944e-01
8 17 2.42187499999999944e-01
9 17 2.42187499999999944e-01
10 17 2.42187499999999944e-01
11 17 2.42187499999999944e-01
12 17 2.42187499999999944e-01
13 17 2.42187499999999944e-01
14 17 2.42187499999999944e-01
15 17 2.42187499999999944e-01
16 17 2.42187499999999944e-01
17 17 2.42187499999999944e-01
18 17 2.42187499999999944e-01
19 17 2.42187499999999944e-01
20 17 2.42187499999999944e-01
21 17 2.42187499999999944e-01
22 17 2.42187499999999944e-01
23 17 2.42187499999999944e-01
24 17 2.42187499999999944e-01
25 17 2.42187499999999944e-01
26 17 2.42187499999999944e-01
27 17 2.42187499999999944e-01
28 17 2.42187499999999944e-01
29 17 2.42187499999999944e-01
30 17 2.42187499999999944e-01
31 17 2.42187499999999944e-01
32 17 2.42187499999999944e-01
33 17 2.42187499999999944e-01
34 17 2.42187499999999944e-01
35 17 2.42187499999999944e-01
36 17 2.42187499999999944e-01
37 17 2.42187499999999944e-01
38 17 2.42187499999999944e-01
39 17 2.42187499999999944e-01
40 17 2.42187499999999944e-01
41 17 2.42187499999999944e-01
42 17 2.42187499999999944e-01
43 17 2.42187499999999944e-01
44 17 2.42187499999999944e-01
45 17 2.42187499999999944e-01
46 17 2.42187499999999944e-01
47 17 2.42187499999999944e-01
48 17 2.42187499999999944e-01
49 17 2.42187499999999944e-01
50 17 2.42187499999999944e-01
51 17 2.42187499999999944e-01
52 17 2.42187499999999944e-01
53 17 2.42187499999999944e-01
54 17 2.42187499999999944e-01
55 17 2.42187499999999944e-01
56 17 2.42187499999999944e-01
57 17 2.42187499999999944e-01
58 17 2.42187499999999944e-01
59 17 2.42187499999999944e-01
60 17 2.42187499999999944e-01
61 17 2.42187499999999944e-01
62 17 2.42187499999999944e-01
63 17 2.42187499999999944e-01
64 17 2.42187499999999944e-01
65 17 2.42187499999999944e-01
66 17 2.42187499999999944e-01
1 18 2.57812499999999944e-01
2 18 2.57812499999999944e-01
3 18 2.57812499999999944e-01
4 18 2.57812499999999944e-01
5 18 2.57812499999999944e-01
6 18 2.57812499999999944e-01
7 18 2.57812499999999944e-01
8 18 2.57812499999999944e-01
9 18 2.57812499999999944e-01
10 18 2.57812499999999944e-01
11 18 2.57812499999999944e-01
12 18 2.57812499999999944e-01
13 18 2.57812499999999944e-01
14 18 2.57812499999999944e-01
15 18 2.57812499999999944e-01
16 18 2.57812499999999944e-01
17 18 2.57812499999999944e-01
18 18 2.57812499999999944e-01
19 18 2.57812499999999944e-01
20 18 2.57812499999999944e-01
21 18 2.57812499999999944e-01
22 18 2.57812499999999944e-01
23 18 2.57812499999999944e-01
24 18 2.57812499999999944e-01
25 18 2.57812499999999944e-01
26 18 2.57812499999999944e-01
27 18 2.57812499999999944e-01
28 18 2.57812499999999944e-01
29 18 2.57812499999999944e-01
30 18 2.57812499999999944e-01
31 18 2.57812499999999944e-01
32 18 2.57812499999999944e-01
33 18 2.57812499999999944e-01
34 18 2.57812499999999944e-01
35 18 2.57812499999999944e-01
36 18 2.57812499999999944e-01
37 18 2.57812499999999944e-01
38 18 2.57812499999999944e-01
39 18 2.57812499999999944e-01
40 18 2.57812499999999944e-01
41 18 2.57812499999999944e-01
42 18 2.57812499999999944e-01
43 18 2.57812499999999944e-01
44 18 2.57812499999999944e-01
45 18 2.57812499999999944e-01
46 18 2.57812499999999944e-01
47 18 2.57812499999999944e-01
48 18 2.57812499999999944e-01
49 18 2.57812499999999944e-01
50 18 2.57812499999999944e-01
51 18 2.57812499999999944e-01
52 18 2.57812499999999944e-01
53 18 2.57812499999999944e-01
54 18 2.57812499999999944e-01
55 18 2.57812499999999944e-01
56 18 2.57812499999999944e-01
57 18 2.57812499999999944e-01
58 18 2.57812499999999944e-01
59 18 2.57812499999999944e-01
60 18 2.57812499999999944e-01
61 18 2.57812499999999944e-01
62 18 2.57812499999999944e-01
63 18 2.57812499999999944e-01
64 18 2.57812499999999944e-01
65 18 2.57812499999999944e-01
66 18 2.57812499999999944e-01
1 19 2.73437499999999944e-01
2 19 2.73437499999999944e-01
3 19 2.73437499999999944e-01
4 19 2.73437499999999944e-01
5 19 2.73437499999999944e-01
6 19 2.73437499999999944e-01
7 19 2.73437499999999944e-01
8 19 2.73437499999999944e-01
9 19 2.73437499999999944e-01
10 19 2.73437499999999944e-01
11 19 2.73437499999999944e-01
12 19 2.73437499999999944e-01
13 19 2.73437499999999944e-01
14 19 2.73437499999999944e-01
15 19 2.73437499999999944e-01
16 19 2.73437499999999944e-01
17 19 2.73437499999999944e-01
18 19 2.73437499999999944e-01
19 19 2.73437499999999944e-01
20 19 2.73437499999999944e-01
21 19 2.73437499999999944e-01
22 19 2.73437499999999944e-01
23 19 2.73437499999999944e-01
24 19 2.73437499999999944e-01
25 19 2.73437499999999944e-01
26 19 2.73437499999999944e-01
27 19 2.73437499999999944e-01
28 19 2.73437499999999944e-01
29 19 2.73437499999999944e-01
30 19 2.73437499999999944e-01
31 19 2.73437499999999944e-01
32 19 2.73437499999999944e-01
33 19 2.73437499999999944e-01
34 19 2.73437499999999944e-01
35 19 2.73437499999999944e-01
36 19 2.73437499999999944e-01
37 19 2.73437499999999944e-01
38 19 2.73437499999999944e-01
39 19 2.73437499999999944e-01
40 19 2.73437499999999944e-01
41 19 2.73437499999999944e-01
42 19 2.73437499999999944e-01
43 19 2.73437499999999944e-01
44 19 2.73437499999999944e-01
45 19 2.73437499999999944e-01
46 19 2.73437499999999944e-01
47 19 2.73437499999999944e-01
48 19 2.73437499999999944e-01
49 19 2.73437499999999944e-01
50 19 2.73437499999999944e-01
51 19 2.73437499999999944e-01
52 19 2.73437499999999944e-01
53 19 2.73437499999999944e-01
54 19 2.73437499999999944e-01
55 19 2.73437499999999944e-01
56 19 2.73437499999999944e-01
57 19 2.73437499999999944e-01
58 19 2.73437499999999944e-01
59 19 2.73437499999999944e-01
60 19 2.73437499999999944e-01
61 19 2.73437499999999944e-01
62 19 2.73437499999999944e-01
63 19 2.73437499999999944e-01
64 19 2.73437499999999944e-01
65 19 2.73437499999999944e-01
66 19 2.73437499999999944e-01
1 20 2.89062499999999944e-01
2 20 2.89062499999999944e-01
3 20 2.89062499999999944e-01
4 20 2.89062499999999944e-01
5 20 2.89062499999999944e-01
6 20 2.89062499999999944e-01
7 20 2.89062499999999944e-01
8 20 2.89062499999999944e-01
9 20 2.89062499999999944e-01
10 20 2.89062499999999944e-01
11 20 2.89062499999999944e-01
12 20 2.89062499999999944e-01
13 20 2.89062499999999944e-01
14 20 2.89062499999999944e-01
15 20 2.89062499999999944e-01
16 20 2.89062499999999944e-01
17 20 2.89062499999999944e-01
18 20 2.89062499999999944e-01
19 20 2.89062499999999944e-01
20 20 2.89062499999999944e-01
21 20 2.89062499999999944e-01
22 20 2.89062499999999944e-01
23 20 2.89062499999999944e-01
24 20 2.89062499999999944e-01
25 20 2.89062499999999944e-01
26 20 2.89062499999999944e-01
27 20 2.89062499999999944e-01
28 20 2.89062499999999944e-01
29 20 2.89062499999999944e-01
30 20 2.89062499999999944e-01
31 20 2.89062499999999944e-01
32 20 2.89062499999999944e-01
33 20 2.89062499999999944e-01
34 20 2.89062499999999944e-01
35 20 2.89062499999999944e-01
36 20 2.89062499999999944e-01
37 20 2.89062499999999944e-01
38 20 2.89062499999999944e-01
39 20 2.89062499999999944e-01
40 20 2.89062499999999944e-01
41 20 2.89062499999999944e-01
42 20 2.89062499999999944e-01
43 20 2.89062499999999944e-01
44 20 2.89062499999999944e-01
45 20 2.89062499999999944e-01
46 20 2.89062499999999944e-01
47 20 2.89062499999999944e-01
48 20 2.89062499999999944e-01
49 20 2.89062499999999944e-01
50 20 2.89062499999999944e-01
51 20 2.89062499999999944e-01
52 20 2.89062499999999944e-01
53 20 2.89062499999999944e-01
54 20 2.89062499999999944e-01
55 20 2.89062499999999944e-01
56 20 2.89062499999999944e-01
57 20 2.89062499999999944e-01
58 20 2.89062499999999944e-01
59 20 2.89062499999999944e-01
60 20 2.89062499999999944e-01
61 20 2.89062499999999944e-01
62 20 2.89062499999999944e-01
63 20 2.89062499999999944e-01
64 20 2.89062499999999944e-01
65 20 2.89062499999999944e-01
66 20 2.89062499999999944e-01
1 21 3.04687499999999944e-01
2 21 3.04687499999999944e-01
3 21 3.04687499999999944e-01
4 21 3.04687499999999944e-01
5 21 3.04687499999999944e-01
6 21 3.04687499999999944e-01
7 21 3.04687499999999944e-01
8 21 3.04687499999999944e-01
9 21 3.04687499999999944e-01
10 21 3.04687499999999944e-01
11 21 3.04687499999999944e-01
12 21 3.04687499999999944e-01
13 21 3.04687499999999944e-01
14 21 3.04687499999999944e-01
15 21 3.04687499999999944e-01
16 21 3.04687499999999944e-01
17 21 3.04687499999999944e-01
18 21 3.04687499999999944e-01
19 21 3.04687499999999944e-01
20 21 3.04687499999999944e-01
21 21 3.04687499999999944e-01
22 21 3.04687499999999944e-01
23 21 3.04687499999999944e-01
24 21 3.04687499999999944e-01
25 21 3.04687499999999944e-01
26 21 3.04687499999999944e-01
27 21 3.04687499999999944e-01
28 21 3.04687499999999944e-01
29 21 3.04687499999999944e-01
30 21 3.04687499999999944e-01
31 21 3.04687499999999944e-01
32 21 3.04687499999999944e-01
33 21 3.04687499999999944e-01
34 21 3.04687499999999944e-01
35 21 3.04687499999999944e-01
36 21 3.04687499999999944e-01
37 21 3.04687499999999944e-01
38 21 3.04687499999999944e-01
39 21 3.04687499999999944e-01
40 21 3.04687499999999944e-01
41 21 3.04687499999999944e-01
42 21 3.04687499999999944e-01
43 21 3.04687499999999944e-01
44 21 3.04687499999999944e-01
45 21 3.04687499999999944e-01
46 21 3.04687499999999944e-01
47 21 3.04687499999999944e-01
48 21 3.04687499999999944e-01
49 21 3.04687499999999944e-01
50 21 3.04687499999999944e-01
51 21 3.04687499999999944e-01
52 21 3.04687499999999944e-01
53 21 3.04687499999999944e-01
54 21 3.04687499999999944e-01
55 21 3.04687499999999944e-01
56 21 3.04687499999999944e-01
57 21 3.04687499999999944e-01
58 21 3.04687499999999944e-01
59 21 3.04687499999999944e-01
60 21 3.04687499999999944e-01
61 21 3.04687499999999944e-01
62 21 3.04687499999999944e-01
63 21 3.04687499999999944e-01
64 21 3.04687499999999944e-01
65 21 3.04687499999999944e-01
66 21 3.04687499999999944e-01
1 22 3.20312499999999944e-01
2 22 3.20312499999999944e-01
3 22 3.20312499999999944e-01
4 22 3.20312499999999944e-01
5 22 3.20312499999999944e-01
6 22 3.20312499999999944e-01
7 22 3.20312499999999944e-01
8 22 3.20312499999999944e-01
9 22 3.20312499999999944e-01
10 22 3.20312499999999944e-01
11 22 3.20312499999999944e-01
12 22 3.20312499999999944e-01
13 22 3.20312499999999944e-01
14 22 3.20312499999999944e-01
15 22 3.20312499999999944e-01
16 22 3.20312499999999944e-01
17 22 3.20312499999999944e-01
18 22 3.20312499999999944e-01
19 22 3.20312499999999944e-01
20 22 3.20312499999999944e-01
21 22 3.20312499999999944e-01
22 22 3.20312499999999944e-01
23 22 3.20312499999999944e-01
24 22 3.20312499999999944e-01
25 22 3.20312499999999944e-01
26 22 3.20312499999999944e-01
27 22 3.20312499999999944e-01
28 22 3.20312499999999944e-01
29 22 3.20312499999999944e-01
30 22 3.20312499999999944e-01
31 22 3.20312499999999944e-01
32 22 3.20312499999999944e-01
33 22 3.20312499999999944e-01
34 22 3.20312499999999944e-01
35 22 3.20312499999999944e-01
36 22 3.20312499999999944e-01
37 22 3.20312499999999944e-01
38 22 3.20312499999999944e-01
39 22 3.20312499999999944e-01
40 22 3.20312499999999944e-01
41 22 3.20312499999999944e-01
42 22 3.20312499999999944e-01
43 22 3.20312499999999944e-01
44 22 3.20312499999999944e-01
45 22 3.20312499999999944e-01
46 22 3.20312499999999944e-01
47 22 3.20312499999999944e-01
48 22 3.20312499999999944e-01
49 22 3.20312499999999944e-01
50 22 3.20312499999999944e-01
51 22 3.20312499999999944e-01
52 22 3.20312499999999944e-01
53 22 3.20312499999999944e-01
54 22 3.20312499999999944e-01
55 22 3.20312499999999944e-01
56 22 3.20312499999999944e-01
57 22 3.20312499999999944e-01
58 22 3.20312499999999944e-01
59 22 3.20312499999999944e-01
60 22 3.20312499999999944e-01
61 22 3.20312499999999944e-01
62 22 3.20312499999999944e-01
63 22 3.20312499999999944e-01
64 22 3.20312499999999944e-01
65 22 3.20312499999999944e-01
66 22 3.20312499999999944e-01
1 23 3.35937499999999944e-01
2 23 3.35937499999999944e-01
3 23 3.35937499999999944e-01
4 23 3.35937499999999944e-01
5 23 3.35937499999999944e-01
6 23 3.35937499999999944e-01
7 23 3.35937499999999944e-01
8 23 3.35937499999999944e-01
9 23 3.35937499999999944e-01
10 23 3.35937499999999944e-01
11 23 3.35937499999999944e-01
12 23 3.35937499999999944e-01
13 23 3.35937499999999944e-01
14 23 3.35937499999999944e-01
15 23 3.35937499999999944e-01
16 23 3.35937499999999944e-01
17 23 3.35937499999999944e-01
18 23 3.35937499999999944e-01
19 23 3.35937499999999944e-01
20 23 3.35937499999999944e-01
21 23 3.35937499999999944e-01
22 23 3.35937499999999944e-01
23 23 3.35937499999999944e-01
24 23 3.35937499999999944e-01
25 23 3.35937499999999944e-01
26 23 3.35937499999999944e-01
27 23 3.35937499999999944e-01
28 23 3.35937499999999944e-01
29 23 3.35937499999999944e-01
30 23 3.35937499999999944e-01
31 23 3.35937499999999944e-01
32 23 3.35937499999999944e-01
33 23 3.35937499999999944e-01
34 23 3.35937499999999944e-01
35 23 3.35937499999999944e-01
36 23 3.35937499999999944e-01
37 23 3.35937499999999944e-01
38 23 3.35937499999999944e-01
39 23 3.35937499999999944e-01
40 23 3.35937499999999944e-01
41 23 3.35937499999999944e-01
42 23 3.35937499999999944e-01
43 23 3.35937499999999944e-01
44 23 3.35937499999999944e-01
45 23 3.35937499999999944e-01
46 23 3.35937499999999944e-01
47 23 3.35937499999999944e-01
48 23 3.35937499999999944e-01
49 23 3.35937499999999944e-01
50 23 3.35937499999999944e-01
51 23 3.35937499999999944e-01
52 23 3.35937499999999944e-01
53 23 3.35937499999999944e-01
54 23 3.35937499999999944e-01
55 23 3.35937499999999944e-01
56 23 3.35937499999999944e-01
57 23 3.35937499999999944e-01
58 23 3.35937499999999944e-01
59 23 3.35937499999999944e-01
60 23 3.35937499999999944e-01
61 23 3.35937499999999944e-01
62 23 3.35937499999999944e-01
63 23 3.35937499999999944e-01
64 23 3.35937499999999944e-01
65 23 3.35937499999999944e-01
66 23 3.35937499999999944e-01
1 24 3.51562499999999944e-01
2 24 3.51562499999999944e-01
3 24 3.51562499999999944e-01
4 24 3.51562499999999944e-01
5 24 3.51562499999999944e-01
6 24 3.51562499999999944e-01
7 24 3.51562499999999944e-01
8 24 3.51562499999999944e-01
9 24 3.51562499999999944e-01
10 24 3.51562499999999944e-01
11 24 3.51562499999999944e-01
12 24 3.51562499999999944e-01
13 24 3.51562499999999944e-01
14 24 3.51562499999999944e-01
15 24 3.51562499999999944e-01
16 24 3.51562499999999944e-01
17 24 3.51562499999999944e-01
18 24 3.51562499999999944e-01
19 24 3.51562499999999944e-01
20 24 3.51562499999999944e-01
21 24 3.51562499999999944e-01
22 24 3.51562499999999944e-01
23 24 3.51562499999999944e-01
24 24 3.51562499999999944e-01
25 24 3.51562499999999944e-01
26 24 3.51562499999999944e-01
27 24 3.51562499999999944e-01
28 24 3.51562499999999944e-01
29 24 3.51562499999999944e-01
30 24 3.51562499999999944e-01
31 24 3.51562499999999944e-01
32 24 3.51562499999999944e-01
33 24 3.51562499999999944e-01
34 24 3.51562499999999944e-01
35 24 3.51562499999999944e-01
36 24 3.51562499999999944e-01
37 24 3.51562499999999944e-01
38 24 3.51562499999999944e-01
39 24 3.51562499999999944e-01
40 24 3.51562499999999944e-01
41 24 3.51562499999999944e-01
42 24 3.51562499999999944e-01
43 24 3.51562499999999944e-01
44 24 3.51562499999999944e-01
45 24 3.51562499999999944e-01
46 24 3.51562499999999944e-01
47 24 3.51562499999999944e-01
48 24 3.51562499999999944e-01
49 24 3.51562499999999944e-01
50 24 3.51562499999999944e-01
51 24 3.51562499999999944e-01
52 24 3.51562499999999944e-01
53 24 3.51562499999999944e-01
54 24 3.51562499999999944e-01
55 24 3.51562499999999944e-01
56 24 3.51562499999999944e-01
57 24 3.51562499999999944e-01
58 24 3.51562499999999944e-01
59 24 3.51562499999999944e-01
60 24 3.51562499999999944e-01
61 24 3.51562499999999944e-01
62 24 3.51562499999999944e-01
63 24 3.51562499999999944e-01
64 24 3.51562499999999944e-01
65 24 3.51562499999999944e-01
66 24 3.51562499999999944e-01
1 25 3.67187499999999944e-01
2 25 3.67187499999999944e-01
3 25 3.67187499999999944e-01
4 25 3.67187499999999944e-01
5 25 3.67187499999999944e-01
6 25 3.67187499999999944e-01
7 25 3.67187499999999944e-01
8 25 3.67187499999999944e-01
9 25 3.67187499999999944e-01
10 25 3.67187499999999944e-01
11 25 3.67187499999999944e-01
12 25 3.67187499999999944e-01
13 25 3.67187499999999944e-01
14 25 3.67187499999999944e-01
15 25 3.67187499999999944e-01
16 25 3.67187499999999944e-01
17 25 3.67187499999999944e-01
18 25 3.67187499999999944e-01
19 25 3.67187499999999944e-01
20 25 3.67187499999999944e-01
21 25 3.67187499999999944e-01
22 25 3.67187499999999944e-01
23 25 3.67187499999999944e-01
24 25 3.67187499999999944e-01
25 25 3.67187499999999944e-01
26 25 3.67187499999999944e-01
27 25 3.67187499999999944e-01
28 25 3.67187499999999944e-01
29 25 3.67187499999999944e-01
30 25 3.67187499999999944e-01
31 25 3.67187499999999944e-01
32 25 3.67187499999999944e-01
33 25 3.67187499999999944e-01
34 25 3.67187499999999944e-01
35 25 3.67187499999999944e-01
36 25 3.67187499999999944e-01
37 25 3.67187499999999944e-01
38 25 3.67187499999999944e-01
39 25 3.67187499999999944e-01
40 25 3.67187499999999944e-01
41 25 3.67187499999999944e-01
42 25 3.67187499999999944e-01
43 25 3.67187499999999944e-01
44 25 3.67187499999999944e-01
45 25 3.67187499999999944e-01
46 25 3.67187499999999944e-01
47 25 3.67187499999999944e-01
48 25 3.67187499999999944e-01
49 25 3.67187499999999944e-01
50 25 3.67187499999999944e-01
51 25 3.67187499999999944e-01
52 25 3.67187499999999944e-01
53 25 3.67187499999999944e-01
54 25 3.67187499999999944e-01
55 25 3.67187499999999944e-01
56 25 3.67187499999999944e-01
57 25 3.67187499999999944e-01
58 25 3.67187499999999944e-01
59 25 3.67187499999999944e-01
60 25 3.67187499999999944e-01
61 25 3.67187499999999944e-01
62 25 3.67187499999999944e-01
63 25 3.67187499999999944e-01
64 25 3.67187499999999944e-01
65 25 3.67187499999999944e-01
66 25 3.67187499999999944e-01
1 26 3.82812499999999889e-01
2 26 3.82812499999999889e-01
3 26 3.82812499999999889e-01
4 26 3.82812499999999889e-01
5 26 3.82812499999999889e-01
6 26 3.82812499999999889e-01
7 26 3.82812499999999889e-01
8 26 3.82812499999999889e-01
9 26 3.82812499999999889e-01
10 26 3.82812499999999889e-01
11 26 3.82812499999999889e-01
12 26 3.82812499999999889e-01
13 26 3.82812499999999889e-01
14 26 3.82812499999999889e-01
15 26 3.82812499999999889e-01
16 26 3.82812499999999889e-01
17 26 3.82812499999999889e-01
18 26 3.82812499999999889e-01
19 26 3.82812499999999889e-01
20 26 3.82812499999999889e-01
21 26 3.82812499999999889e-01
22 26 3.82812499999999889e-01
23 26 3.82812499999999889e-01
24 26 3.82812499999999889e-01
25 26 3.82812499999999889e-01
26 26 3.82812499999999889e-01
27 26 3.82812499999999889e-01
28 26 3.82812499999999889e-01
29 26 3.82812499999999889e-01
30 26 3.82812499999999889e-01
31 26 3.82812499999999889e-01
32 26 3.82812499999999889e-01
33 26 3.82812499999999889e-01
34 26 3.82812499999999889e-01
35 26 3.82812499999999889e-01
36 26 3.82812499999999889e-01
37 26 3.82812499999999889e-01
38 26 3.82812499999999889e-01
39 26 3.82812499999999889e-01
40 26 3.82812499999999889e-01
41 26 3.82812499999999889e-01
42 26 3.82812499999999889e-01
43 26 3.82812499999999889e-01
44 26 3.82812499999999889e-01
45 26 3.82812499999999889e-01
46 26 3.82812499999999889e-01
47 26 3.82812499999999889e-01
48 26 3.82812499999999889e-01
49 26 3.82812499999999889e-01
50 26 3.82812499999999889e-01
51 26 3.82812499999999889e-01
52 26 3.82812499999999889e-01
53 26 3.82812499999999889e-01
54 26 3.82812499999999889e-01
55 26 3.82812499999999889e-01
56 26 3.82812499999999889e-01
57 26 3.82812499999999889e-01
58 26 3.82812499999999889e-01
59 26 3.82812499999999889e-01
60 26 3.82812499999999889e-01
61 26 3.82812499999999889e-01
62 26 3.82812499999999889e-01
63 26 3.82812499999999889e-01
64 26 3.82812499999999889e-01
65 26 3.82812499999999889e-01
66 26 3.82812499999999889e-01
1 27 3.98437499999999889e-01
2 27 3.98437499999999889e-01
3 27 3.98437499999999889e-01
4 27 3.98437499999999889e-01
5 27 3.98437499999999889e-01
6 27 3.98437499999999889e-01
7 27 3.98437499999999889e-01
8 27 3.98437499999999889e-01
9 27 3.98437499999999889e-01
10 27 3.98437499999999889e-01
11 27 3.98437499999999889e-01
12 27 3.98437499999999889e-01
13 27 3.98437499999999889e-01
14 27 3.98437499999999889e-01
15 27 3.98437499999999889e-01
16 27 3.98437499999999889e-01
17 27 3.98437499999999889e-01
18 27 3.98437499999999889e-01
19 27 3.98437499999999889e-01
20 27 3.98437499999999889e-01
21 27 3.98437499999999889e-01
22 27 3.98437499999999889e-01
23 27 3.98437499999999889e-01
24 27 3.98437499999999889e-01
25 27 3.98437499999999889e-01
26 27 3.98437499999999889e-01
27 27 3.98437499999999889e-01
28 27 3.98437499999999889e-01
29 27 3.98437499999999889e-01
30 27 3.98437499999999889e-01
31 27 3.98437499999999889e-01
32 27 3.98437499999999889e-01
33 27 3.98437499999999889e-01
34 27 3.98437499999999889e-01
35 27 3.98437499999999889e-01
36 27 3.98437499999999889e-01
37 27 3.98437499999999889e-01
38 27 3.98437499999999889e-01
39 27 3.98437499999999889e-01
40 27 3.98437499999999889e-01
41 27 3.98437499999999889e-01
42 27 3.98437499999999889e-01
43 27 3.98437499999999889e-01
44 27 3.98437499999999889e-01
45 27 3.98437499999999889e-01
46 27 3.98437499999999889e-01
47 27 3.98437499999999889e-01
48 27 3.98437499999999889e-01
49 27 3.98437499999999889e-01
50 27 3.98437499999999889e-01
51 27 3.98437499999999889e-01
52 27 3.98437499999999889e-01
53 27 3.98437499999999889e-01
54 27 3.98437499999999889e-01
55 27 3.98437499999999889e-01
56 27 3.98437499999999889e-01
57 27 3.98437499999999889e-01
58 27 3.98437499999999889e-01
59 27 3.98437499999999889e-01
60 27 3.98437499999999889e-01
61 27 3.98437499999999889e-01
62 27 3.98437499999999889e-01
63 27 3.98437499999999889e-01
64 27 3.98437499999999889e-01
65 27 3.98437499999999889e-01
66 27 3.98437499999999889e-01
1 28 4.14062499999999889e-01
2 28 4.14062499999999889e-01
3 28 4.14062499999999889e-01
4 28 4.14062499999999889e-01
5 28 4.14062499999999889e-01
6 28 4.14062499999999889e-01
7 28 4.14062499999999889e-01
8 28 4.14062499999999889e-01
9 28 4.14062499999999889e-01
10 28 4.14062499999999889e-01
11 28 4.14062499999999889e-01
12 28 4.14062499999999889e-01
13 28 4.14062499999999889e-01
14 28 4.14062499999999889e-01
15 28 4.14062499999999889e-01
16 28 4.14062499999999889e-01
17 28 4.14062499999999889e-01
18 28 4.14062499999999889e-01
19 28 4.14062499999999889e-01
20 28 4.14062499999999889e-01
21 28 4.14062499999999889e-01
22 28 4.14062499999999889e-01
23 28 4.14062499999999889e-01
24 28 4.14062499999999889e-01
25 28 4.14062499999999889e-01
26 28 4.14062499999999889e-01
27 28 4.14062499999999889e-01
28 28 4.14062499999999889e-01
29 28 4.14062499999999889e-01
30 28 4.14062499999999889e-01
31 28 4.14062499999999889e-01
32 28 4.14062499999999889e-01
33 28 4.14062499999999889e-01
34 28 4.14062499999999889e-01
35 28 4.14062499999999889e-01
36 28 4.14062499999999889e-01
37 28 4.14062499999999889e-01
38 28 4.14062499999999889e-01
39 28 4.14062499999999889e-01
40 28 4.14062499999999889e-01
41 28 4.14062499999999889e-01
42 28 4.14062499999999889e-01
43 28 4.14062499999999889e-01
44 28 4.14062499999999889e-01
45 28 4.14062499999999889e-01
46 28 4.14062499999999889e-01
47 28 4.14062499999999889e-01
48 28 4.14062499999999889e-01
49 28 4.14062499999999889e-01
50 28 4.14062499999999889e-01
51 28 4.14062499999999889e-01
52 28 4.14062499999999889e-01
53 28 4.14062499999999889e-01
54 28 4.14062499999999889e-01
55 28 4.14062499999999889e-01
56 28 4.14062499999999889e-01
57 28 4.14062499999999889e-01
58 28 4.14062499999999889e-01
59 28 4.14062499999999889e-01
60 28 4.14062499999999889e-01
61 28 4.14062499999999889e-01
62 28 4.14062499999999889e-01
63 28 4.14062499999999889e-01
64 28 4.14062499999999889e-01
65 28 4.14062499999999889e-01
66 28 4.14062499999999889e-01
1 29 4.29687499999999833e-01
2 29 4.29687499999999833e-01
3 29 4.29687499999999833e-01
4 29 4.29687499999999833e-01
5 29 4.29687499999999833e-01
6 29 4.29687499999999833e-01
7 29 4.29687499999999833e-01
8 29 4.29687499999999833e-01
9 29 4.29687499999999833e-01
10 29 4.29687499999999833e-01
11 29 4.29687499999999833e-01
12 29 4.29687499999999833e-01
13 29 4.29687499999999833e-01
14 29 4.29687499999999833e-01
15 29 4.29687499999999833e-01
16 29 4.29687499999999833e-01
17 29 4.29687499999999833e-01
18 29 4.29687499999999833e-01
19 29 4.29687499999999833e-01
20 29 4.29687499999999833e-01
21 29 4.29687499999999833e-01
22 29 4.29687499999999833e-01
23 29 4.29687499999999833e-01
24 29 4.29687499999999833e-01
25 29 4.29687499999999833e-01
26 29 4.29687499999999833e-01
27 29 4.29687499999999833e-01
28 29 4.29687499999999833e-01
29 29 4.29687499999999833e-01
30 29 4.29687499999999833e-01
31 29 4.29687499999999833e-01
32 29 4.29687499999999833e-01
33 29 4.29687499999999833e-01
34 29 4.29687499999999833e-01
35 29 4.29687499999999833e-01
36 29 4.29687499999999833e-01
37 29 4.29687499999999833e-01
38 29 4.29687499999999833e-01
39 29 4.29687499999999833e-01
40 29 4.29687499999999833e-01
41 29 4.29687499999999833e-01
42 29 4.29687499999999833e-01
43 29 4.29687499999999833e-01
44 29 4.29687499999999833e-01
45 29 4.29687499999999833e-01
46 29 4.29687499999999833e-01
47 29 4.29687499999999833e-01
48 29 4.29687499999999833e-01
49 29 4.29687499999999833e-01
50 29 4.29687499999999833e-01
51 29 4.29687499999999833e-01
52 29 4.29687499999999833e-01
53 29 4.29687499999999833e-01
54 29 4.29687499999999833e-01
55 29 4.29687499999999833e-01
56 29 4.29687499999999833e-01
57 29 4.29687499999999833e-01
58 29 4.29687499999999833e-01
59 29 4.29687499999999833e-01
60 29 4.29687499999999833e-01
61 29 4.29687499999999833e-01
62 29 4.29687499999999833e-01
63 29 4.29687499999999833e-01
64 29 4.29687499999999833e-01
65 29 4.29687499999999833e-01
66 29 4.29687499999999833e-01
1 30 4.45312499999999833e-01
2 30 4.45312499999999833e-01
3 30 4.45312499999999833e-01
4 30 4.45312499999999833e-01
5 30 4.45312499999999833e-01
6 30 4.45312499999999833e-01
7 30 4.45312499999999833e-01
8 30 4.45312499999999833e-01
9 30 4.45312499999999833e-01
10 30 4.45312499999999833e-01
11 30 4.45312499999999833e-01
12 30 4.45312499999999833e-01
13 30 4.45312499999999833e-01
14 30 4.45312499999999833e-01
15 30 4.45312499999999833e-01
16 30 4.45312499999999833e-01
17 30 4.45312499999999833e-01
18 30 4.45312499999999833e-01
19 30 4.45312499999999833e-01
20 30 4.45312499999999833e-01
21 30 4.45312499999999833e-01
22 30 4.45312499999999833e-01
23 30 4.45312499999999833e-01
24 30 4.45312499999999833e-01
25 30 4.45312499999999833e-01
26 30 4.45312499999999833e-01
27 30 4.45312499999999833e-01
28 30 4.45312499999999833e-01
29 30 4.45312499999999833e-01
30 30 4.45312499999999833e-01
31 30 4.45312499999999833e-01
32 30 4.45312499999999833e-01
33 30 4.45312499999999833e-01
34 30 4.45312499999999833e-01
35 30 4.45312499999999833e-01
36 30 4.45312499999999833e-01
37 30 4.45312499999999833e-01
38 30 4.45312499999999833e-01
39 30 4.45312499999999833e-01
40 30 4.45312499999999833e-01
41 30 4.45312499999999833e-01
42 30 4.45312499999999833e-01
43 30 4.45312499999999833e-01
44 30 4.45312499999999833e-01
45 30 4.45312499999999833e-01
46 30 4.45312499999999833e-01
47 30 4.45312499999999833e-01
48 30 4.45312499999999833e-01
49 30 4.45312499999999833e-01
50 30 4.45312499999999833e-01
51 30 4.45312499999999833e-01
52 30 4.45312499999999833e-01
53 30 4.45312499999999833e-01
54 30 4.45312499999999833e-01
55 30 4.45312499999999833e-01
56 30 4.45312499999999833e-01
57 30 4.45312499999999833e-01
58 30 4.45312499999999833e-01
59 30 4.45312499999999833e-01
60 30 4.45312499999999833e-01
61 30 4.45312499999999833e-01
62 30 4.45312499999999833e-01
63 30 4.45312499999999833e-01
64 30 4.45312499999999833e-01
65 30 4.45312499999999833e-01
66 30 4.45312499999999833e-01
1 31 4.60937499999999833e-01
2 31 4.60937499999999833e-01
3 31 4.60937499999999833e-01
4 31 4.60937499999999833e-01
5 31 4.60937499999999833e-01
6 31 4.60937499999999833e-01
7 31 4.60937499999999833e-01
8 31 4.60937499999999833e-01
9 31 4.60937499999999833e-01
10 31 4.60937499999999833e-01
11 31 4.60937499999999833e-01
12 31 4.60937499999999833e-01
13 31 4.60937499999999833e-01
14 31 4.60937499999999833e-01
15 31 4.60937499999999833e-01
16 31 4.60937499999999833e-01
17 31 4.60937499999999833e-01
18 31 4.60937499999999833e-01
19 31 4.60937499999999833e-01
20 31 4.60937499999999833e-01
21 31 4.60937499999999833e-01
22 31 4.60937499999999833e-01
23 31 4.60937499999999833e-01
24 31 4.60937499999999833e-01
25 31 4.60937499999999833e-01
26 31 4.60937499999999833e-01
27 31 4.60937499999999833e-01
28 31 4.60937499999999833e-01
29 31 4.60937499999999833e-01
30 31 4.60937499999999833e-01
31 31 4.60937499999999833e-01
32 31 4.60937499999999833e-01
33 31 4.60937499999999833e-01
34 31 4.60937499999999833e-01
35 31 4.60937499999999833e-01
36 31 4.60937499999999833e-01
37 31 4.60937499999999833e-01
38 31 4.60937499999999833e-01
39 31 4.60937499999999833e-01
40 31 4.60937499999999833e-01
41 31 4.60937499999999833e-01
42 31 4.60937499999999833e-01
43 31 4.60937499999999833e-01
44 31 4.60937499999999833e-01
45 31 4.60937499999999833e-01
46 31 4.60937499999999833e-01
47 31 4.60937499999999833e-01
48 31 4.60937499999999833e-01
49 31 4.60937499999999833e-01
50 31 4.60937499999999833e-01
51 31 4.60937499999999833e-01
52 31 4.60937499999999833e-01
53 31 4.60937499999999833e-01
54 31 4.60937499999999833e-01
55 31 4.60937499999999833e-01
56 31 4.60937499999999833e-01
57 31 4.60937499999999833e-01
58 31 4.60937499999999833e-01
59 31 4.60937499999999833e-01
60 31 4.60937499999999833e-01
61 31 4.60937499999999833e-01
62 31 4.60937499999999833e-01
63 31 4.60937499999999833e-01
64 31 4.60937499999999833e-01
65 31 4.60937499999999833e-01
66 31 4.60937499999999833e-01
1 32 4.76562499999999778e-01
2 32 4.76562499999999778e-01
3 32 4.76562499999999778e-01
4 32 4.76562499999999778e-01
5 32 4.76562499999999778e-01
6 32 4.76562499999999778e-01
7 32 4.76562499999999778e-01
8 32 4.76562499999999778e-01
9 32 4.76562499999999778e-01
10 32 4.76562499999999778e-01
11 32 4.76562499999999778e-01
12 32 4.76562499999999778e-01
13 32 4.76562499999999778e-01
14 32 4.76562499999999778e-01
15 32 4.76562499999999778e-01
16 32 4.76562499999999778e-01
17 32 4.76562499999999778e-01
18 32 4.76562499999999778e-01
19 32 4.76562499999999778e-01
20 32 4.76562499999999778e-01
21 32 4.76562499999999778e-01
22 32 4.76562499999999778e-01
23 32 4.76562499999999778e-01
24 32 4.76562499999999778e-01
25 32 4.76562499999999778e-01
26 32 4.76562499999999778e-01
27 32 4.76562499999999778e-01
28 32 4.76562499999999778e-01
29 32 4.76562499999999778e-01
30 32 4.76562499999999778e-01
31 32 4.76562499999999778e-01
32 32 4.76562499999999778e-01
33 32 4.76562499999999778e-01
34 32 4.76562499999999778e-01
35 32 4.76562499999999778e-01
36 32 4.76562499999999778e-01
37 32 4.76562499999999778e-01
38 32 4.76562499999999778e-01
39 32 4.76562499999999778e-01
40 32 4.76562499999999778e-01
41 32 4.76562499999999778e-01
42 32 4.76562499999999778e-01
43 32 4.76562499999999778e-01
44 32 4.76562499999999778e-01
45 32 4.76562499999999778e-01
46 32 4.76562499999999778e-01
47 32 4.76562499999999778e-01
48 32 4.76562499999999778e-01
49 32 4.76562499999999778e-01
50 32 4.76562499999999778e-01
51 32 4.76562499999999778e-01
52 32 4.76562499999999778e-01
53 32 4.76562499999999778e-01
54 32 4.76562499999999778e-01
55 32 4.76562499999999778e-01
56 32 4.76562499999999778e-01
57 32 4.76562499999999778e-01
58 32 4.76562499999999778e-01
59 32 4.76562499999999778e-01
60 32 4.76562499999999778e-01
61 32 4.76562499999999778e-01
62 32 4.76562499999999778e-01
63 32 4.76562499999999778e-01
64 32 4.76562499999999778e-01
65 32 4.76562499999999778e-01
66 32 4.76562499999999778e-01
1 33 4.92187499999999778e-01
2 33 4.92187499999999778e-01
3 33 4.92187499999999778e-01
4 33 4.92187499999999778e-01
5 33 4.92187499999999778e-01
6 33 4.92187499999999778e-01
7 33 4.92187499999999778e-01
8 33 4.92187499999999778e-01
9 33 4.92187499999999778e-01
10 33 4.92187499999999778e-01
11 33 4.92187499999999778e-01
12 33 4.92187499999999778e-01
13 33 4.92187499999999778e-01
14 33 4.92187499999999778e-01
15 33 4.92187499999999778e-01
16 33 4.92187499999999778e-01
17 33 4.92187499999999778e-01
18 33 4.92187499999999778e-01
19 33 4.92187499999999778e-01
20 33 4.92187499999999778e-01
21 33 4.92187499999999778e-01
22 33 4.92187499999999778e-01
23 33 4.92187499999999778e-01
24 33 4.92187499999999778e-01
25 33 4.92187499999999778e-01
26 33 4.92187499999999778e-01
27 33 4.92187499999999778e-01
28 33 4.92187499999999778e-01
29 33 4.92187499999999778e-01
30 33 4.92187499999999778e-01
31 33 4.92187499999999778e-01
32 33 4.92187499999999778e-01
33 33 4.92187499999999778e-01
34 33 4.92187499999999778e-01
35 33 4.92187499999999778e-01
36 33 4.92187499999999778e-01
37 33 4.92187499999999778e-01
38 33 4.92187499999999778e-01
39 33 4.92187499999999778e-01
40 33 4.92187499999999778e-01
41 33 4.92187499999999778e-01
42 33 4.92187499999999778e-01
43 33 4.92187499999999778e-01
44 33 4.92187499999999778e-01
45 33 4.92187499999999778e-01
46 33 4.92187499999999778e-01
47 33 4.92187499999999778e-01
48 33 4.92187499999999778e-01
49 33 4.92187499999999778e-01
50 33 4.92187499999999778e-01
51 33 4.92187499999999778e-01
52 33 4.92187499999999778e-01
53 33 4.92187499999999778e-01
54 33 4.92187499999999778e-01
55 33 4.92187499999999778e-01
56 33 4.92187499999999778e-01
57 33 4.92187499999999778e-01
58 33 4.92187499999999778e-01
59 33 4.92187499999999778e-01
60 33 4.92187499999999778e-01
61 33 4.92187499999999778e-01
62 33 4.92187499999999778e-01
63 33 4.92187499999999778e-01
64 33 4.92187499999999778e-01
65 33 4.92187499999999778e-01
66 33 4.92187499999999778e-01
1 34 5.07812499999999778e-01
2 34 5.07812499999999778e-01
3 34 5.07812499999999778e-01
4 34 5.07812499999999778e-01
5 34 5.07812499999999778e-01
6 34 5.07812499999999778e-01
7 34 5.07812499999999778e-01
8 34 5.07812499999999778e-01
9 34 5.07812499999999778e-01
10 34 5.07812499999999778e-01
11 34 5.07812499999999778e-01
12 34 5.07812499999999778e-01
13 34 5.07812499999999778e-01
14 34 5.07812499999999778e-01
15 34 5.07812499999999778e-01
16 34 5.07812499999999778e-01
17 34 5.07812499999999778e-01
18 34 5.07812499999999778e-01
19 34 5.07812499999999778e-01
20 34 5.07812499999999778e-01
21 34 5.07812499999999778e-01
22 34 5.07812499999999778e-01
23 34 5.07812499999999778e-01
24 34 5.07812499999999778e-01
25 34 5.07812499999999778e-01
26 34 5.07812499999999778e-01
27 34 5.07812499999999778e-01
28 34 5.07812499999999778e-01
29 34 5.07812499999999778e-01
30 34 5.07812499999999778e-01
31 34 5.07812499999999778e-01
32 34 5.07812499999999778e-01
33 34 5.07812499999999778e-01
34 34 5.07812499999999778e-01
35 34 5.07812499999999778e-01
36 34 5.07812499999999778e-01
37 34 5.07812499999999778e-01
38 34 5.07812499999999778e-01
39 34 5.07812499999999778e-01
40 34 5.07812499999999778e-01
41 34 5.07812499999999778e-01
42 34 5.07812499999999778e-01
43 34 5.07812499999999778e-01
44 34 5.07812499999999778e-01
45 34 5.07812499999999778e-01
46 34 5.07812499999999778e-01
47 34 5.07812499999999778e-01
48 34 5.07812499999999778e-01
49 34 5.07812499999999778e-01
50 34 5.07812499999999778e-01
51 34 5.07812499999999778e-01
52 34 5.07812499999999778e-01
53 34 5.07812499999999778e-01
54 34 5.07812499999999778e-01
55 34 5.07812499999999778e-01
56 34 5.07812499999999778e-01
57 34 5.07812499999999778e-01
58 34 5.07812499999999778e-01
59 34 5.07812499999999778e-01
60 34 5.07812499999999778e-01
61 34 5.07812499999999778e-01
62 34 5.07812499999999778e-01
63 34 5.07812499999999778e-01
64 34 5.07812499999999778e-01
65 34 5.07812499999999778e-01
66 34 5.07812499999999778e-01
1 35 5.23437499999999778e-01
2 35 5.23437499999999778e-01
3 35 5.23437499999999778e-01
4 35 5.23437499999999778e-01
5 35 5.23437499999999778e-01
6 35 5.23437499999999778e-01
7 35 5.23437499999999778e-01
8 35 5.23437499999999778e-01
9 35 5.23437499999999778e-01
10 35 5.23437499999999778e-01
11 35 5.23437499999999778e-01
12 35 5.23437499999999778e-01
13 35 5.23437499999999778e-01
14 35 5.23437499999999778e-01
15 35 5.23437499999999778e-01
16 35 5.23437499999999778e-01
17 35 5.23437499999999778e-01
18 35 5.23437499999999778e-01
19 35 5.23437499999999778e-01
20 35 5.23437499999999778e-01
21 35 5.23437499999999778e-01
22 35 5.23437499999999778e-01
23 35 5.23437499999999778e-01
24 35 5.23437499999999778e-01
25 35 5.23437499999999778e-01
26 35 5.23437499999999778e-01
27 35 5.23437499999999778e-01
28 35 5.23437499999999778e-01
29 35 5.23437499999999778e-01
30 35 5.23437499999999778e-01
31 35 5.23437499999999778e-01
32 35 5.23437499999999778e-01
33 35 5.23437499999999778e-01
34 35 5.23437499999999778e-01
35 35 5.23437499999999778e-01
36 35 5.23437499999999778e-01
37 35 5.23437499999999778e-01
38 35 5.23437499999999778e-01
39 35 5.23437499999999778e-01
40 35 5.23437499999999778e-01
41 35 5.23437499999999778e-01
42 35 5.23437499999999778e-01
43 35 5.23437499999999778e-01
44 35 5.23437499999999778e-01
45 35 5.23437499999999778e-01
46 35 5.23437499999999778e-01
47 35 5.23437499999999778e-01
48 35 5.23437499999999778e-01
49 35 5.23437499999999778e-01
50 35 5.23437499999999778e-01
51 35 5.23437499999999778e-01
52 35 5.23437499999999778e-01
53 35 5.23437499999999778e-01
54 35 5.23437499999999778e-01
55 35 5.23437499999999778e-01
56 35 5.23437499999999778e-01
57 35 5.23437499999999778e-01
58 35 5.23437499999999778e-01
59 35 5.23437499999999778e-01
60 35 5.23437499999999778e-01
61 35 5.23437499999999778e-01
62 35 5.23437499999999778e-01
63 35 5.23437499999999778e-01
64 35 5.23437499999999778e-01
65 35 5.23437499999999778e-01
66 35 5.23437499999999778e-01
1 36 5.39062499999999778e-01
2 36 5.39062499999999778e-01
3 36 5.39062499999999778e-01
4 36 5.39062499999999778e-01
5 36 5.39062499999999778e-01
6 36 5.39062499999999778e-01
7 36 5.39062499999999778e-01
8 36 5.39062499999999778e-01
9 36 5.39062499999999778e-01
10 36 5.39062499999999778e-01
11 36 5.39062499999999778e-01
12 36 5.39062499999999778e-01
13 36 5.39062499999999778e-01
14 36 5.39062499999999778e-01
15 36 5.39062499999999778e-01
16 36 5.39062499999999778e-01
17 36 5.39062499999999778e-01
18 36 5.39062499999999778e-01
19 36 5.39062499999999778e-01
20 36 5.39062499999999778e-01
21 36 5.39062499999999778e-01
22 36 5.39062499999999778e-01
23 36 5.39062499999999778e-01
24 36 5.39062499999999778e-01
25 36 5.39062499999999778e-01
26 36 5.39062499999999778e-01
27 36 5.39062499999999778e-01
28 36 5.39062499999999778e-01
29 36 5.39062499999999778e-01
30 36 5.39062499999999778e-01
31 36 5.39062499999999778e-01
32 36 5.39062499999999778e-01
33 36 5.39062499999999778e-01
34 36 5.39062499999999778e-01
35 36 5.39062499999999778e-01
36 36 5.39062499999999778e-01
37 36 5.39062499999999778e-01
38 36 5.39062499999999778e-01
39 36 5.39062499999999778e-01
40 36 5.39062499999999778e-01
41 36 5.39062499999999778e-01
42 36 5.39062499999999778e-01
43 36 5.39062499999999778e-01
44 36 5.39062499999999778e-01
45 36 5.39062499999999778e-01
46 36 5.39062499999999778e-01
47 36 5.39062499999999778e-01
48 36 5.39062499999999778e-01
49 36 5.39062499999999778e-01
50 36 5.39062499999999778e-01
51 36 5.39062499999999778e-01
52 36 5.39062499999999778e-01
53 36 5.39062499999999778e-01
54 36 5.39062499999999778e-01
55 36 5.39062499999999778e-01
56 36 5.39062499999999778e-01
57 36 5.39062499999999778e-01
58 36 5.39062499999999778e-01
59 36 5.39062499999999778e-01
60 36 5.39062499999999778e-01
61 36 5.39062499999999778e-01
62 36 5.39062499999999778e-01
63 36 5.39062499999999778e-01
64 36 5.39062499999999778e-01
65 36 5.39062499999999778e-01
66 36 5.39062499999999778e-01
1 37 5.54687499999999778e-01
2 37 5.54687499999999778e-01
3 37 5.54687499999999778e-01
4 37 5.54687499999999778e-01
5 37 5.54687499999999778e-01
6 37 5.54687499999999778e-01
7 37 5.54687499999999778e-01
8 37 5.54687499999999778e-01
9 37 5.54687499999999778e-01
10 37 5.54687499999999778e-01
11 37 5.54687499999999778e-01
12 37 5.54687499999999778e-01
13 37 5.54687499999999778e-01
14 37 5.54687499999999778e-01
15 37 5.54687499999999778e-01
16 37 5.54687499999999778e-01
17 37 5.54687499999999778e-01
18 37 5.54687499999999778e-01
19 37 5.54687499999999778e-01
20 37 5.54687499999999778e-01
21 37 5.54687499999999778e-01
22 37 5.54687499999999778e-01
23 37 5.54687499999999778e-01
24 37 5.54687499999999778e-01
25 37 5.54687499999999778e-01
26 37 5.54687499999999778e-01
27 37 5.54687499999999778e-01
28 37 5.54687499999999778e-01
29 37 5.54687499999999778e-01
30 37 5.54687499999999778e-01
31 37 5.54687499999999778e-01
32 37 5.54687499999999778e-01
33 37 5.54687499999999778e-01
34 37 5.54687499999999778e-01
35 37 5.54687499999999778e-01
36 37 5.54687499999999778e-01
37 37 5.54687499999999778e-01
38 37 5.54687499999999778e-01
39 37 5.54687499999999778e-01
40 37 5.54687499999999778e-01
41 37 5.54687499999999778e-01
42 37 5.54687499999999778e-01
43 37 5.54687499999999778e-01
44 37 5.54687499999999778e-01
45 37 5.54687499999999778e-01
46 37 5.54687499999999778e-01
47 37 5.54687499999999778e-01
48 37 5.54687499999999778e-01
49 37 5.54687499999999778e-01
50 37 5.54687499999999778e-01
51 37 5.54687499999999778e-01
52 37 5.54687499999999778e-01
53 37 5.54687499999999778e-01
54 37 5.54687499999999778e-01
55 37 5.54687499999999778e-01
56 37 5.54687499999999778e-01
57 37 5.54687499999999778e-01
58 37 5.54687499999999778e-01
59 37 5.54687499999999778e-01
60 37 5.54687499999999778e-01
61 37 5.54687499999999778e-01
62 37 5.54687499999999778e-01
63 37 5.54687499999999778e-01
64 37 5.54687499999999778e-01
65 37 5.54687499999999778e-01
66 37 5.54687499999999778e-01
1 38 5.70312499999999778e-01
2 38 5.70312499999999778e-01
3 38 5.70312499999999778e-01
4 38 5.70312499999999778e-01
5 38 5.70312499999999778e-01
6 38 5.70312499999999778e-01
7 38 5.70312499999999778e-01
8 38 5.70312499999999778e-01
9 38 5.70312499999999778e-01
10 38 5.70312499999999778e-01
11 38 5.70312499999999778e-01
12 38 5.70312499999999778e-01
13 38 5.70312499999999778e-01
14 38 5.70312499999999778e-01
15 38 5.70312499999999778e-01
16 38 5.70312499999999778e-01
17 38 5.70312499999999778e-01
18 38 5.70312499999999778e-01
19 38 5.70312499999999778e-01
20 38 5.70312499999999778e-01
21 38 5.70312499999999778e-01
22 38 5.70312499999999778e-01
23 38 5.70312499999999778e-01
24 38 5.70312499999999778e-01
25 38 5.70312499999999778e-01
26 38 5.70312499999999778e-01
27 38 5.70312499999999778e-01
28 38 5.70312499999999778e-01
29 38 5.70312499999999778e-01
30 38 5.70312499999999778e-01
31 38 5.70312499999999778e-01
32 38 5.70312499999999778e-01
33 38 5.70312499999999778e-01
34 38 5.70312499999999778e-01
35 38 5.70312499999999778e-01
36 38 5.70312499999999778e-01
37 38 5.70312499999999778e-01
38 38 5.70312499999999778e-01
39 38 5.70312499999999778e-01
40 38 5.70312499999999778e-01
41 38 5.70312499999999778e-01
42 38 5.70312499999999778e-01
43 38 5.70312499999999778e-01
44 38 5.70312499999999778e-01
45 38 5.70312499999999778e-01
46 38 5.70312499999999778e-01
47 38 5.70312499999999778e-01
48 38 5.70312499999999778e-01
49 38 5.70312499999999778e-01
50 38 5.70312499999999778e-01
51 38 5.70312499999999778e-01
52 38 5.70312499999999778e-01
53 38 5.70312499999999778e-01
54 38 5.70312499999999778e-01
55 38 5.70312499999999778e-01
56 38 5.70312499999999778e-01
57 38 5.70312499999999778e-01
58 38 5.70312499999999778e-01
59 38 5.70312499999999778e-01
60 38 5.70312499999999778e-01
61 38 5.70312499999999778e-01
62 38 5.70312499999999778e-01
63 38 5.70312499999999778e-01
64 38 5.70312499999999778e-01
65 38 5.70312499999999778e-01
66 38 5.70312499999999778e-01
1 39 5.85937499999999778e-01
2 39 5.85937499999999778e-01
3 39 5.85937499999999778e-01
4 39 5.85937499999999778e-01
5 39 5.85937499999999778e-01
6 39 5.85937499999999778e-01
7 39 5.85937499999999778e-01
8 39 5.85937499999999778e-01
9 39 5.85937499999999778e-01
10 39 5.85937499999999778e-01
11 39 5.85937499999999778e-01
12 39 5.85937499999999778e-01
13 39 5.85937499999999778e-01
14 39 5.85937499999999778e-01
15 39 5.85937499999999778e-01
16 39 5.85937499999999778e-01
17 39 5.85937499999999778e-01
18 39 5.85937499999999778e-01
19 39 5.85937499999999778e-01
20 39 5.85937499999999778e-01
21 39 5.85937499999999778e-01
22 39 5.85937499999999778e-01
23 39 5.85937499999999778e-01
24 39 5.85937499999999778e-01
25 39 5.85937499999999778e-01
26 39 5.85937499999999778e-01
27 39 5.85937499999999778e-01
28 39 5.85937499999999778e-01
29 39 5.85937499999999778e-01
30 39 5.85937499999999778e-01
31 39 5.85937499999999778e-01
32 39 5.85937499999999778e-01
33 39 5.85937499999999778e-01
34 39 5.85937499999999778e-01
35 39 5.85937499999999778e-01
36 39 5.85937499999999778e-01
37 39 5.85937499999999778e-01
38 39 5.85937499999999778e-01
39 39 5.85937499999999778e-01
40 39 5.85937499999999778e-01
41 39 5.85937499999999778e-01
42 39 5.85937499999999778e-01
43 39 5.85937499999999778e-01
44 39 5.85937499999999778e-01
45 39 5.85937499999999778e-01
46 39 5.85937499999999778e-01
47 39 5.85937499999999778e-01
48 39 5.85937499999999778e-01
49 39 5.85937499999999778e-01
50 39 5.85937499999999778e-01
51 39 5.85937499999999778e-01
52 39 5.85937499999999778e-01
53 39 5.85937499999999778e-01
54 39 5.85937499999999778e-01
55 39 5.85937499999999778e-01
56 39 5.85937499999999778e-01
57 39 5.85937499999999778e-01
58 39 5.85937499999999778e-01
59 39 5.85937499999999778e-01
60 39 5.85937499999999778e-01
61 39 5.85937499999999778e-01
62 39 5.85937499999999778e-01
63 39 5.85937499999999778e-01
64 39 5.85937499999999778e-01
65 39 5.85937499999999778e-01
66 39 5.85937499999999778e-01
1 40 6.01562499999999889e-01
2 40 6.01562499999999889e-01
3 40 6.01562499999999889e-01
4 40 6.01562499999999889e-01
5 40 6.01562499999999889e-01
6 40 6.01562499999999889e-01
7 40 6.01562499999999889e-01
8 40 6.01562499999999889e-01
9 40 6.01562499999999889e-01
10 40 6.01562499999999889e-01
11 40 6.01562499999999889e-01
12 40 6.01562499999999889e-01
13 40 6.01562499999999889e-01
14 40 6.01562499999999889e-01
15 40 6.01562499999999889e-01
16 40 6.01562499999999889e-01
17 40 6.01562499999999889e-01
18 40 6.01562499999999889e-01
19 40 6.01562499999999889e-01
20 40 6.01562499999999889e-01
21 40 6.01562499999999889e-01
22 40 6.01562499999999889e-01
23 40 6.01562499999999889e-01
24 40 6.01562499999999889e-01
25 40 6.01562499999999889e-01
26 40 6.01562499999999889e-01
27 40 6.01562499999999889e-01
28 40 6.01562499999999889e-01
29 40 6.01562499999999889e-01
30 40 6.01562499999999889e-01
31 40 6.01562499999999889e-01
32 40 6.01562499999999889e-01
33 40 6.01562499999999889e-01
34 40 6.01562499999999889e-01
35 40 6.01562499999999889e-01
36 40 6.01562499999999889e-01
37 40 6.01562499999999889e-01
38 40 6.01562499999999889e-01
39 40 6.01562499999999889e-01
40 40 6.01562499999999889e-01
41 40 6.01562499999999889e-01
42 40 6.01562499999999889e-01
43 40 6.01562499999999889e-01
44 40 6.01562499999999889e-01
45 40 6.01562499999999889e-01
46 40 6.01562499999999889e-01
47 40 6.01562499999999889e-01
48 40 6.01562499999999889e-01
49 40 6.01562499999999889e-01
50 40 6.01562499999999889e-01
51 40 6.01562499999999889e-01
52 40 6.01562499999999889e-01
53 40 6.01562499999999889e-01
54 40 6.01562499999999889e-01
55 40 6.01562499999999889e-01
56 40 6.01562499999999889e-01
57 40 6.01562499999999889e-01
58 40 6.01562499999999889e-01
59 40 6.01562499999999889e-01
60 40 6.01562499999999889e-01
61 40 6.01562499999999889e-01
62 40 6.01562499999999889e-01
63 40 6.01562499999999889e-01
64 40 6.01562499999999889e-01
65 40 6.01562499999999889e-01
66 40 6.01562499999999889e-01
1 41 6.17187499999999889e-01
2 41 6.17187499999999889e-01
3 41 6.17187499999999889e-01
4 41 6.17187499999999889e-01
5 41 6.17187499999999889e-01
6 41 6.17187499999999889e-01
7 41 6.17187499999999889e-01
8 41 6.17187499999999889e-01
9 41 6.17187499999999889e-01
10 41 6.17187499999999889e-01
11 41 6.17187499999999889e-01
12 41 6.17187499999999889e-01
13 41 6.17187499999999889e-01
14 41 6.17187499999999889e-01
15 41 6.17187499999999889e-01
16 41 6.17187499999999889e-01
17 41 6.17187499999999889e-01
18 41 6.17187499999999889e-01
19 41 6.17187499999999889e-01
20 41 6.17187499999999889e-01
21 41 6.17187499999999889e-01
22 41 6.17187499999999889e-01
23 41 6.17187499999999889e-01
24 41 6.17187499999999889e-01
25 41 6.17187499999999889e-01
26 41 6.17187499999999889e-01
27 41 6.17187499999999889e-01
28 41 6.17187499999999889e-01
29 41 6.17187499999999889e-01
30 41 6.17187499999999889e-01
31 41 6.17187499999999889e-01
32 41 6.17187499999999889e-01
33 41 6.17187499999999889e-01
34 41 6.17187499999999889e-01
35 41 6.17187499999999889e-01
36 41 6.17187499999999889e-01
37 41 6.17187499999999889e-01
38 41 6.17187499999999889e-01
39 41 6.17187499999999889e-01
40 41 6.17187499999999889e-01
41 41 6.17187499999999889e-01
42 41 6.17187499999999889e-01
43 41 6.17187499999999889e-01
44 41 6.17187499999999889e-01
45 41 6.17187499999999889e-01
46 41 6.17187499999999889e-01
47 41 6.17187499999999889e-01
48 41 6.17187499999999889e-01
49 41 6.17187499999999889e-01
50 41 6.17187499999999889e-01
51 41 6.17187499999999889e-01
52 41 6.17187499999999889e-01
53 41 6.17187499999999889e-01
54 41 6.17187499999999889e-01
55 41 6.17187499999999889e-01
56 41 6.17187499999999889e-01
57 41 6.17187499999999889e-01
58 41 6.17187499999999889e-01
59 41 6.17187499999999889e-01
60 41 6.17187499999999889e-01
61 41 6.17187499999999889e-01
62 41 6.17187499999999889e-01
63 41 6.17187499999999889e-01
64 41 6.17187499999999889e-01
65 41 6.17187499999999889e-01
66 41 6.17187499999999889e-01
1 42 6.32812499999999889e-01
2 42 6.32812499999999889e-01
3 42 6.32812499999999889e-01
4 42 6.32812499999999889e-01
5 42 6.32812499999999889e-01
6 42 6.32812499999999889e-01
7 42 6.32812499999999889e-01
8 42 6.32812499999999889e-01
9 42 6.32812499999999889e-01
10 42 6.32812499999999889e-01
11 42 6.32812499999999889e-01
12 42 6.32812499999999889e-01
13 42 6.32812499999999889e-01
14 42 6.32812499999999889e-01
15 42 6.32812499999999889e-01
16 42 6.32812499999999889e-01
17 42 6.32812499999999889e-01
18 42 6.32812499999999889e-01
19 42 6.32812499999999889e-01
20 42 6.32812499999999889e-01
21 42 6.32812499999999889e-01
22 42 6.32812499999999889e-01
23 42 6.32812499999999889e-01
24 42 6.32812499999999889e-01
25 42 6.32812499999999889e-01
26 42 6.32812499999999889e-01
27 42 6.32812499999999889e-01
28 42 6.32812499999999889e-01
29 42 6.32812499999999889e-01
30 42 6.32812499999999889e-01
31 42 6.32812499999999889e-01
32 42 6.32812499999999889e-01
33 42 6.32812499999999889e-01
34 42 6.32812499999999889e-01
35 42 6.32812499999999889e-01
36 42 6.32812499999999889e-01
37 42 6.32812499999999889e-01
38 42 6.32812499999999889e-01
39 42 6.32812499999999889e-01
40 42 6.32812499999999889e-01
41 42 6.32812499999999889e-01
42 42 6.32812499999999889e-01
43 42 6.32812499999999889e-01
44 42 6.32812499999999889e-01
45 42 6.32812499999999889e-01
46 42 6.32812499999999889e-01
47 42 6.32812499999999889e-01
48 42 6.32812499999999889e-01
49 42 6.32812499999999889e-01
50 42 6.32812499999999889e-01
51 42 6.32812499999999889e-01
52 42 6.32812499999999889e-01
53 42 6.32812499999999889e-01
54 42 6.32812499999999889e-01
55 42 6.32812499999999889e-01
56 42 6.32812499999999889e-01
57 42 6.32812499999999889e-01
58 42 6.32812499999999889e-01
59 42 6.32812499999999889e-01
60 42 6.32812499999999889e-01
61 42 6.32812499999999889e-01
62 42 6.32812499999999889e-01
63 42 6.32812499999999889e-01
64 42 6.32812499999999889e-01
65 42 6.32812499999999889e-01
66 42 6.32812499999999889e-01
1 43 6.48437500000000000e-01
2 43 6.48437500000000000e-01
3 43 6.48437500000000000e-01
4 43 6.48437500000000000e-01
5 43 6.48437500000000000e-01
6 43 6.48437500000000000e-01
7 43 6.48437500000000000e-01
8 43 6.48437500000000000e-01
9 43 6.48437500000000000e-01
10 43 6.48437500000000000e-01
11 43 6.48437500000000000e-01
12 43 6.48437500000000000e-01
13 43 6.48437500000000000e-01
14 43 6.48437500000000000e-01
15 43 6.48437500000000000e-01
16 43 6.48437500000000000e-01
17 43 6.48437500000000000e-01
18 43 6.48437500000000000e-01
19 43 6.48437500000000000e-01
20 43 6.48437500000000000e-01
21 43 6.48437500000000000e-01
22 43 6.48437500000000000e-01
23 43 6.48437500000000000e-01
24 43 6.48437500000000000e-01
25 43 6.48437500000000000e-01
26 43 6.48437500000000000e-01
27 43 6.48437500000000000e-01
28 43 6.48437500000000000e-01
29 43 6.48437500000000000e-01
30 43 6.48437500000000000e-01
31 43 6.48437500000000000e-01
32 43 6.48437500000000000e-01
33 43 6.48437500000000000e-01
34 43 6.48437500000000000e-01
35 43 6.48437500000000000e-01
36 43 6.48437500000000000e-01
37 43 6.48437500000000000e-01
38 43 6.48437500000000000e-01
39 43 6.48437500000000000e-01
40 43 6.48437500000000000e-01
41 43 6.48437500000000000e-01
42 43 6.48437500000000000e-01
43 43 6.48437500000000000e-01
44 43 6.48437500000000000e-01
45 43 6.48437500000000000e-01
46 43 6.48437500000000000e-01
47 43 6.48437500000000000e-01
48 43 6.48437500000000000e-01
49 43 6.48437500000000000e-01
50 43 6.48437500000000000e-01
51 43 6.48437500000000000e-01
52 43 6.48437500000000000e-01
53 43 6.48437500000000000e-01
54 43 6.48437500000000000e-01
55 43 6.48437500000000000e-01
56 43 6.48437500000000000e-01
57 43 6.48437500000000000e-01
58 43 6.48437500000000000e-01
59 43 6.48437500000000000e-01
60 43 6.48437500000000000e-01
61 43 6.48437500000000000e-01
62 43 6.48437500000000000e-01
63 43 6.48437500000000000e-01
64 43 6.48437500000000000e-01
65 43 6.48437500000000000e-01
66 43 6.48437500000000000e-01
1 44 6.64062500000000000e-01
2 44 6.64062500000000000e-01
3 44 6.64062500000000000e-01
4 44 6.64062500000000000e-01
5 44 6.64062500000000000e-01
6 44 6.64062500000000000e-01
7 44 6.64062500000000000e-01
8 44 6.64062500000000000e-01
9 44 6.64062500000000000e-01
10 44 6.64062500000000000e-01
11 44 6.64062500000000000e-01
12 44 6.64062500000000000e-01
13 44 6.64062500000000000e-01
14 44 6.64062500000000000e-01
15 44 6.64062500000000000e-01
16 44 6.64062500000000000e-01
17 44 6.64062500000000000e-01
18 44 6.64062500000000000e-01
19 44 6.64062500000000000e-01
20 44 6.64062500000000000e-01
21 44 6.64062500000000000e-01
22 44 6.64062500000000000e-01
23 44 6.64062500000000000e-01
24 44 6.64062500000000000e-01
25 44 6.64062500000000000e-01
26 44 6.64062500000000000e-01
27 44 6.64062500000000000e-01
28 44 6.64062500000000000e-01
29 44 6.64062500000000000e-01
30 44 6.64062500000000000e-01
31 44 6.64062500000000000e-01
32 44 6.64062500000000000e-01
33 44 6.64062500000000000e-01
34 44 6.64062500000000000e-01
35 44 6.64062500000000000e-01
36 44 6.64062500000000000e-01
37 44 6.64062500000000000e-01
38 44 6.64062500000000000e-01
39 44 6.64062500000000000e-01
40 44 6.64062500000000000e-01
41 44 6.64062500000000000e-01
42 44 6.64062500000000000e-01
43 44 6.64062500000000000e-01
44 44 6.64062500000000000e-01
45 44 6.64062500000000000e-01
46 44 6.64062500000000000e-01
47 44 6.64062500000000000e-01
48 44 6.64062500000000000e-01
49 44 6.64062500000000000e-01
50 44 6.64062500000000000e-01
51 44 6.64062500000000000e-01
52 44 6.64062500000000000e-01
53 44 6.64062500000000000e-01
54 44 6.64062500000000000e-01
55 44 6.64062500000000000e-01
56 44 6.64062500000000000e-01
57 44 6.64062500000000000e-01
58 44 6.64062500000000000e-01
59 44 6.64062500000000000e-01
60 44 6.64062500000000000e-01
61 44 6.64062500000000000e-01
62 44 6.64062500000000000e-01
63 44 6.64062500000000000e-01
64 44 6.64062500000000000e-01
65 44 6.64062500000000000e-01
66 44 6.64062500000000000e-01
1 45 6.79687500000000000e-01
2 45 6.79687500000000000e-01
3 45 6.79687500000000000e-01
4 45 6.79687500000000000e-01
5 45 6.79687500000000000e-01
6 45 6.79687500000000000e-01
7 45 6.79687500000000000e-01
8 45 6.79687500000000000e-01
9 45 6.79687500000000000e-01
10 45 6.79687500000000000e-01
11 45 6.79687500000000000e-01
12 45 6.79687500000000000e-01
13 45 6.79687500000000000e-01
14 45 6.79687500000000000e-01
15 45 6.79687500000000000e-01
16 45 6.79687500000000000e-01
17 45 6.79687500000000000e-01
18 45 6.79687500000000000e-01
19 45 6.79687500000000000e-01
20 45 6.79687500000000000e-01
21 45 6.79687500000000000e-01
22 45 6.79687500000000000e-01
23 45 6.79687500000000000e-01
24 45 6.79687500000000000e-01
25 45 6.79687500000000000e-01
26 45 6.79687500000000000e-01
27 45 6.79687500000000000e-01
28 45 6.79687500000000000e-01
29 45 6.79687500000000000e-01
30 45 6.79687500000000000e-01
31 45 6.79687500000000000e-01
32 45 6.79687500000000000e-01
33 45 6.79687500000000000e-01
34 45 6.79687500000000000e-01
35 45 6.79687500000000000e-01
36 45 6.79687500000000000e-01
37 45 6.79687500000000000e-01
38 45 6.79687500000000000e-01
39 45 6.79687500000000000e-01
40 45 6.79687500000000000e-01
41 45 6.79687500000000000e-01
42 45 6.79687500000000000e-01
43 45 6.79687500000000000e-01
44 45 6.79687500000000000e-01
45 45 6.79687500000000000e-01
46 45 6.79687500000000000e-01
47 45 6.79687500000000000e-01
48 45 6.79687500000000000e-01
49 45 6.79687500000000000e-01
50 45 6.79687500000000000e-01
51 45 6.79687500000000000e-01
52 45 6.79687500000000000e-01
53 45 6.79687500000000000e-01
54 45 6.79687500000000000e-01
55 45 6.79687500000000000e-01
56 45 6.79687500000000000e-01
57 45 6.79687500000000000e-01
58 45 6.79687500000000000e-01
59 45 6.79687500000000000e-01
60 45 6.79687500000000000e-01
61 45 6.79687500000000000e-01
62 45 6.79687500000000000e-01
63 45 6.79687500000000000e-01
64 45 6.79687500000000000e-01
65 45 6.79687500000000000e-01
66 45 6.79687500000000000e-01
1 46 6.95312500000000000e-01
2 46 6.95312500000000000e-01
3 46 6.95312500000000000e-01
4 46 6.95312500000000000e-01
5 46 6.95312500000000000e-01
6 46 6.95312500000000000e-01
7 46 6.95312500000000000e-01
8 46 6.95312500000000000e-01
9 46 6.95312500000000000e-01
10 46 6.95312500000000000e-01
11 46 6.95312500000000000e-01
12 46 6.95312500000000000e-01
13 46 6.95312500000000000e-01
14 46 6.95312500000000000e-01
15 46 6.95312500000000000e-01
16 46 6.95312500000000000e-01
17 46 6.95312500000000000e-01
18 46 6.95312500000000000e-01
19 46 6.95312500000000000e-01
20 46 6.95312500000000000e-01
21 46 6.95312500000000000e-01
22 46 6.95312500000000000e-01
23 46 6.95312500000000000e-01
24 46 6.95312500000000000e-01
25 46 6.95312500000000000e-01
26 46 6.95312500000000000e-01
27 46 6.95312500000000000e-01
28 46 6.95312500000000000e-01
29 46 6.95312500000000000e-01
30 46 6.95312500000000000e-01
31 46 6.95312500000000000e-01
32 46 6.95312500000000000e-01
33 46 6.95312500000000000e-01
34 46 6.95312500000000000e-01
35 46 6.95312500000000000e-01
36 46 6.95312500000000000e-01
37 46 6.95312500000000000e-01
38 46 6.95312500000000000e-01
39 46 6.95312500000000000e-01
40 46 6.95312500000000000e-01
41 46 6.95312500000000000e-01
42 46 6.95312500000000000e-01
43 46 6.95312500000000000e-01
44 46 6.95312500000000000e-01
45 46 6.95312500000000000e-01
46 46 6.95312500000000000e-01
47 46 6.95312500000000000e-01
48 46 6.95312500000000000e-01
49 46 6.95312500000000000e-01
50 46 6.95312500000000000e-01
51 46 6.95312500000000000e-01
52 46 6.95312500000000000e-01
53 46 6.95312500000000000e-01
54 46 6.95312500000000000e-01
55 46 6.95312500000000000e-01
56 46 6.95312500000000000e-01
57 46 6.95312500000000000e-01
58 46 6.95312500000000000e-01
59 46 6.95312500000000000e-01
60 46 6.95312500000000000e-01
61 46 6.95312500000000000e-01
62 46 6.95312500000000000e-01
63 46 6.95312500000000000e-01
64 46 6.95312500000000000e-01
65 46 6.95312500000000000e-01
66 46 6.95312500000000000e-01
1 47 7.10937500000000000e-01
2 47 7.10937500000000000e-01
3 47 7.10937500000000000e-01
4 47 7.10937500000000000e-01
5 47 7.10937500000000000e-01
6 47 7.10937500000000000e-01
7 47 7.10937500000000000e-01
8 47 7.10937500000000000e-01
9 47 7.10937500000000000e-01
10 47 7.10937500000000000e-01
11 47 7.10937500000000000e-01
12 47 7.10937500000000000e-01
13 47 7.10937500000000000e-01
14 47 7.10937500000000000e-01
15 47 7.10937500000000000e-01
16 47 7.10937500000000000e-01
17 47 7.10937500000000000e-01
18 47 7.10937500000000000e-01
19 47 7.10937500000000000e-01
20 47 7.10937500000000000e-01
21 47 7.10937500000000000e-01
22 47 7.10937500000000000e-01
23 47 7.10937500000000000e-01
24 47 7.10937500000000000e-01
25 47 7.10937500000000000e-01
26 47 7.10937500000000000e-01
27 47 7.10937500000000000e-01
28 47 7.10937500000000000e-01
29 47 7.10937500000000000e-01
30 47 7.10937500000000000e-01
31 47 7.10937500000000000e-01
32 47 7.10937500000000000e-01
33 47 7.10937500000000000e-01
34 47 7.10937500000000000e-01
35 47 7.10937500000000000e-01
36 47 7.10937500000000000e-01
37 47 7.10937500000000000e-01
38 47 7.10937500000000000e-01
39 47 7.10937500000000000e-01
40 47 7.10937500000000000e-01
41 47 7.10937500000000000e-01
42 47 7.10937500000000000e-01
43 47 7.10937500000000000e-01
44 47 7.10937500000000000e-01
45 47 7.10937500000000000e-01
46 47 7.10937500000000000e-01
47 47 7.10937500000000000e-01
48 47 7.10937500000000000e-01
49 47 7.10937500000000000e-01
50 47 7.10937500000000000e-01
51 47 7.10937500000000000e-01
52 47 7.10937500000000000e-01
53 47 7.10937500000000000e-01
54 47 7.10937500000000000e-01
55 47 7.10937500000000000e-01
56 47 7.10937500000000000e-01
57 47 7.10937500000000000e-01
58 47 7.10937500000000000e-01
59 47 7.10937500000000000e-01
60 47 7.10937500000000000e-01
61 47 7.10937500000000000e-01
62 47 7.10937500000000000e-01
63 47 7.10937500000000000e-01
64 47 7.10937500000000000e-01
65 47 7.10937500000000000e-01
66 47 7.10937500000000000e-01
1 48 7.26562500000000000e-01
2 48 7.26562500000000000e-01
3 48 7.26562500000000000e-01
4 48 7.26562500000000000e-01
5 48 7.26562500000000000e-01
6 48 7.26562500000000000e-01
7 48 7.26562500000000000e-01
8 48 7.26562500000000000e-01
9 48 7.26562500000000000e-01
10 48 7.26562500000000000e-01
11 48 7.26562500000000000e-01
12 48 7.26562500000000000e-01
13 48 7.26562500000000000e-01
14 48 7.26562500000000000e-01
15 48 7.26562500000000000e-01
16 48 7.26562500000000000e-01
17 48 7.26562500000000000e-01
18 48 7.26562500000000000e-01
19 48 7.26562500000000000e-01
20 48 7.26562500000000000e-01
21 48 7.26562500000000000e-01
22 48 7.26562500000000000e-01
23 48 7.26562500000000000e-01
24 48 7.26562500000000000e-01
25 48 7.26562500000000000e-01
26 48 7.26562500000000000e-01
27 48 7.26562500000000000e-01
28 48 7.26562500000000000e-01
29 48 7.26562500000000000e-01
30 48 7.26562500000000000e-01
31 48 7.26562500000000000e-01
32 48 7.26562500000000000e-01
33 48 7.26562500000000000e-01
34 48 7.26562500000000000e-01
35 48 7.26562500000000000e-01
36 48 7.26562500000000000e-01
37 48 7.26562500000000000e-01
38 48 7.26562500000000000e-01
39 48 7.26562500000000000e-01
40 48 7.26562500000000000e-01
41 48 7.26562500000000000e-01
42 48 7.26562500000000000e-01
43 48 7.26562500000000000e-01
44 48 7.26562500000000000e-01
45 48 7.26562500000000000e-01
46 48 7.26562500000000000e-01
47 48 7.26562500000000000e-01
48 48 7.26562500000000000e-01
49 48 7.26562500000000000e-01
50 48 7.26562500000000000e-01
51 48 7.26562500000000000e-01
52 48 7.26562500000000000e-01
53 48 7.26562500000000000e-01
54 48 7.26562500000000000e-01
55 48 7.26562500000000000e-01
56 48 7.26562500000000000e-01
57 48 7.26562500000000000e-01
58 48 7.26562500000000000e-01
59 48 7.26562500000000000e-01
60 48 7.26562500000000000e-01
61 48 7.26562500000000000e-01
62 48 7.26562500000000000e-01
63 48 7.26562500000000000e-01
64 48 7.26562500000000000e-01
65 48 7.26562500000000000e-01
66 48 7.26562500000000000e-01
1 49 7.42187500000000000e-01
2 49 7.42187500000000000e-01
3 49 7.42187500000000000e-01
4 49 7.42187500000000000e-01
5 49 7.42187500000000000e-01
6 49 7.42187500000000000e-01
7 49 7.42187500000000000e-01
8 49 7.42187500000000000e-01
9 49 7.42187500000000000e-01
10 49 7.42187500000000000e-01
11 49 7.42187500000000000e-01
12 49 7.42187500000000000e-01
13 49 7.42187500000000000e-01
14 49 7.42187500000000000e-01
15 49 7.42187500000000000e-01
16 49 7.42187500000000000e-01
17 49 7.42187500000000000e-01
18 49 7.42187500000000000e-01
19 49 7.42187500000000000e-01
20 49 7.42187500000000000e-01
21 49 7.42187500000000000e-01
22 49 7.42187500000000000e-01
23 49 7.42187500000000000e-01
24 49 7.42187500000000000e-01
25 49 7.42187500000000000e-01
26 49 7.42187500000000000e-01
27 49 7.42187500000000000e-01
28 49 7.42187500000000000e-01
29 49 7.42187500000000000e-01
30 49 7.42187500000000000e-01
31 49 7.42187500000000000e-01
32 49 7.42187500000000000e-01
33 49 7.42187500000000000e-01
34 49 7.42187500000000000e-01
35 49 7.42187500000000000e-01
36 49 7.42187500000000000e-01
37 49 7.42187500000000000e-01
38 49 7.42187500000000000e-01
39 49 7.42187500000000000e-01
40 49 7.42187500000000000e-01
41 49 7.42187500000000000e-01
42 49 7.42187500000000000e-01
43 49 7.42187500000000000e-01
44 49 7.42187500000000000e-01
45 49 7.42187500000000000e-01
46 49 7.42187500000000000e-01
47 49 7.42187500000000000e-01
48 49 7.42187500000000000e-01
49 49 7.42187500000000000e-01
50 49 7.42187500000000000e-01
51 49 7.42187500000000000e-01
52 49 7.42187500000000000e-01
53 49 7.42187500000000000e-01
54 49 7.42187500000000000e-01
55 49 7.42187500000000000e-01
56 49 7.42187500000000000e-01
57 49 7.42187500000000000e-01
58 49 7.42187500000000000e-01
59 49 7.42187500000000000e-01
60 49 7.42187500000000000e-01
61 49 7.42187500000000000e-01
62 49 7.42187500000000000e-01
63 49 7.42187500000000000e-01
64 49 7.42187500000000000e-01
65 49 7.42187500000000000e-01
66 49 7.42187500000000000e-01
1 50 7.57812500000000111e-01
2 50 7.57812500000000111e-01
3 50 7.57812500000000111e-01
4 50 7.57812500000000111e-01
5 50 7.57812500000000111e-01
6 50 7.57812500000000111e-01
7 50 7.57812500000000111e-01
8 50 7.57812500000000111e-01
9 50 7.57812500000000111e-01
10 50 7.57812500000000111e-01
11 50 7.57812500000000111e-01
12 50 7.57812500000000111e-01
13 50 7.57812500000000111e-01
14 50 7.57812500000000111e-01
15 50 7.57812500000000111e-01
16 50 7.57812500000000111e-01
17 50 7.57812500000000111e-01
18 50 7.57812500000000111e-01
19 50 7.57812500000000111e-01
20 50 7.57812500000000111e-01
21 50 7.57812500000000111e-01
22 50 7.57812500000000111e-01
23 50 7.57812500000000111e-01
24 50 7.57812500000000111e-01
25 50 7.57812500000000111e-01
26 50 7.57812500000000111e-01
27 50 7.57812500000000111e-01
28 50 7.57812500000000111e-01
29 50 7.57812500000000111e-01
30 50 7.57812500000000111e-01
31 50 7.57812500000000111e-01
32 50 7.57812500000000111e-01
33 50 7.57812500000000111e-01
34 50 7.57812500000000111e-01
35 50 7.57812500000000111e-01
36 50 7.57812500000000111e-01
37 50 7.57812500000000111e-01
38 50 7.57812500000000111e-01
39 50 7.57812500000000111e-01
40 50 7.57812500000000111e-01
41 50 7.57812500000000111e-01
42 50 7.57812500000000111e-01
43 50 7.57812500000000111e-01
44 50 7.57812500000000111e-01
45 50 7.57812500000000111e-01
46 50 7.57812500000000111e-01
47 50 7.57812500000000111e-01
48 50 7.57812500000000111e-01
49 50 7.57812500000000111e-01
50 50 7.57812500000000111e-01
51 50 7.57812500000000111e-01
52 50 7.57812500000000111e-01
53 50 7.57812500000000111e-01
54 50 7.57812500000000111e-01
55 50 7.57812500000000111e-01
56 50 7.57812500000000111e-01
57 50 7.57812500000000111e-01
58 50 7.57812500000000111e-01
59 50 7.57812500000000111e-01
60 50 7.57812500000000111e-01
61 50 7.57812500000000111e-01
62 50 7.57812500000000111e-01
63 50 7.57812500000000111e-01
64 50 7.57812500000000111e-01
65 50 7.57812500000000111e-01
66 50 7.57812500000000111e-01
1 51 7.73437500000000222e-01
2 51 7.73437500000000222e-01
3 51 7.73437500000000222e-01
4 51 7.73437500000000222e-01
5 51 7.73437500000000222e-01
6 51 7.73437500000000222e-01
7 51 7.73437500000000222e-01
8 51 7.73437500000000222e-01
9 51 7.73437500000000222e-01
10 51 7.73437500000000222e-01
11 51 7.73437500000000222e-01
12 51 7.73437500000000222e-01
13 51 7.73437500000000222e-01
14 51 7.73437500000000222e-01
15 51 7.73437500000000222e-01
16 51 7.73437500000000222e-01
17 51 7.73437500000000222e-01
18 51 7.73437500000000222e-01
19 51 7.73437500000000222e-01
20 51 7.73437500000000222e-01
21 51 7.73437500000000222e-01
22 51 7.73437500000000222e-01
23 51 7.73437500000000222e-01
24 51 7.73437500000000222e-01
25 51 7.73437500000000222e-01
26 51 7.73437500000000222e-01
27 51 7.73437500000000222e-01
28 51 7.73437500000000222e-01
29 51 7.73437500000000222e-01
30 51 7.73437500000000222e-01
31 51 7.73437500000000222e-01
32 51 7.73437500000000222e-01
33 51 7.73437500000000222e-01
34 51 7.73437500000000222e-01
35 51 7.73437500000000222e-01
36 51 7.73437500000000222e-01
37 51 7.73437500000000222e-01
38 51 7.73437500000000222e-01
39 51 7.73437500000000222e-01
40 51 7.73437500000000222e-01
41 51 7.73437500000000222e-01
42 51 7.73437500000000222e-01
43 51 7.73437500000000222e-01
44 51 7.73437500000000222e-01
45 51 7.73437500000000222e-01
46 51 7.73437500000000222e-01
47 51 7.73437500000000222e-01
48 51 7.73437500000000222e-01
49 51 7.73437500000000222e-01
50 51 7.73437500000000222e-01
51 51 7.73437500000000222e-01
52 51 7.73437500000000222e-01
53 51 7.73437500000000222e-01
54 51 7.73437500000000222e-01
55 51 7.73437500000000222e-01
56 51 7.73437500000000222e-01
57 51 7.73437500000000222e-01
58 51 7.73437500000000222e-01
59 51 7.73437500000000222e-01
60 51 7.73437500000000222e-01
61 51 7.73437500000000222e-01
62 51 7.73437500000000222e-01
63 51 7.73437500000000222e-01
64 51 7.73437500000000222e-01
65 51 7.73437500000000222e-01
66 51 7.73437500000000222e-01
1 52 7.89062500000000222e-01
2 52 7.89062500000000222e-01
3 52 7.89062500000000222e-01
4 52 7.89062500000000222e-01
5 52 7.89062500000000222e-01
6 52 7.89062500000000222e-01
7 52 7.89062500000000222e-01
8 52 7.89062500000000222e-01
9 52 7.89062500000000222e-01
10 52 7.89062500000000222e-01
11 52 7.89062500000000222e-01
12 52 7.89062500000000222e-01
13 52 7.89062500000000222e-01
14 52 7.89062500000000222e-01
15 52 7.89062500000000222e-01
16 52 7.89062500000000222e-01
17 52 7.89062500000000222e-01
18 52 7.89062500000000222e-01
19 52 7.89062500000000222e-01
20 52 7.89062500000000222e-01
21 52 7.89062500000000222e-01
22 52 7.89062500000000222e-01
23 52 7.89062500000000222e-01
24 52 7.89062500000000222e-01
25 52 7.89062500000000222e-01
26 52 7.89062500000000222e-01
27 52 7.89062500000000222e-01
28 52 7.89062500000000222e-01
29 52 7.89062500000000222e-01
30 52 7.89062500000000222e-01
31 52 7.89062500000000222e-01
32 52 7.89062500000000222e-01
33 52 7.89062500000000222e-01
34 52 7.89062500000000222e-01
35 52 7.89062500000000222e-01
36 52 7.89062500000000222e-01
37 52 7.89062500000000222e-01
38 52 7.89062500000000222e-01
39 52 7.89062500000000222e-01
40 52 7.89062500000000222e-01
41 52 7.89062500000000222e-01
42 52 7.89062500000000222e-01
43 52 7.89062500000000222e-01
44 52 7.89062500000000222e-01
45 52 7.89062500000000222e-01
46 52 7.89062500000000222e-01
47 52 7.89062500000000222e-01
48 52 7.89062500000000222e-01
49 52 7.89062500000000222e-01
50 52 7.89062500000000222e-01
51 52 7.89062500000000222e-01
52 52 7.89062500000000222e-01
53 52 7.89062500000000222e-01
54 52 7.89062500000000222e-01
55 52 7.89062500000000222e-01
56 52 7.89062500000000222e-01
57 52 7.89062500000000222e-01
58 52 7.89062500000000222e-01
59 52 7.89062500000000222e-01
60 52 7.89062500000000222e-01
61 52 7.89062500000000222e-01
62 52 7.89062500000000222e-01
63 52 7.89062500000000222e-01
64 52 7.89062500000000222e-01
65 52 7.89062500000000222e-01
66 52 7.89062500000000222e-01
1 53 8.04687500000000111e-01
2 53 8.04687500000000111e-01
3 53 8.04687500000000111e-01
4 53 8.04687500000000111e-01
5 53 8.04687500000000111e-01
6 53 8.04687500000000111e-01
7 53 8.04687500000000111e-01
8 53 8.04687500000000111e-01
9 53 8.04687500000000111e-01
10 53 8.04687500000000111e-01
11 53 8.04687500000000111e-01
12 53 8.04687500000000111e-01
13 53 8.04687500000000111e-01
14 53 8.04687500000000111e-01
15 53 8.04687500000000111e-01
16 53 8.04687500000000111e-01
17 53 8.04687500000000111e-01
18 53 8.04687500000000111e-01
19 53 8.04687500000000111e-01
20 53 8.04687500000000111e-01
21 53 8.04687500000000111e-01
22 53 8.04687500000000111e-01
23 53 8.04687500000000111e-01
24 53 8.04687500000000111e-01
25 53 8.04687500000000111e-01
26 53 8.04687500000000111e-01
27 53 8.04687500000000111e-01
28 53 8.04687500000000111e-01
29 53 8.04687500000000111e-01
30 53 8.04687500000000111e-01
31 53 8.04687500000000111e-01
32 53 8.04687500000000111e-01
33 53 8.04687500000000111e-01
34 53 8.04687500000000111e-01
35 53 8.04687500000000111e-01
36 53 8.04687500000000111e-01
37 53 8.04687500000000111e-01
38 53 8.04687500000000111e-01
39 53 8.04687500000000111e-01
40 53 8.04687500000000111e-01
41 53 8.04687500000000111e-01
42 53 8.04687500000000111e-01
43 53 8.04687500000000111e-01
44 53 8.04687500000000111e-01
45 53 8.04687500000000111e-01
46 53 8.04687500000000111e-01
47 53 8.04687500000000111e-01
48 53 8.04687500000000111e-01
49 53 8.04687500000000111e-01
50 53 8.04687500000000111e-01
51 53 8.04687500000000111e-01
52 53 8.04687500000000111e-01
53 53 8.04687500000000111e-01
54 53 8.04687500000000111e-01
55 53 8.04687500000000111e-01
56 53 8.04687500000000111e-01
57 53 8.04687500000000111e-01
58 53 8.04687500000000111e-01
59 53 8.04687500000000111e-01
60 53 8.04687500000000111e-01
61 53 8.04687500000000111e-01
62 53 8.04687500000000111e-01
63 53 8.04687500000000111e-01
64 53 8.04687500000000111e-01
65 53 8.04687500000000111e-01
66 53 8.04687500000000111e-01
1 54 8.20312500000000111e-01
2 54 8.20312500000000111e-01
3 54 8.20312500000000111e-01
4 54 8.20312500000000111e-01
5 54 8.20312500000000111e-01
6 54 8.20312500000000111e-01
7 54 8.20312500000000111e-01
8 54 8.20312500000000111e-01
9 54 8.20312500000000111e-01
10 54 8.20312500000000111e-01
11 54 8.20312500000000111e-01
12 54 8.20312500000000111e-01
13 54 8.20312500000000111e-01
14 54 8.20312500000000111e-01
15 54 8.20312500000000111e-01
16 54 8.20312500000000111e-01
17 54 8.20312500000000111e-01
18 54 8.20312500000000111e-01
19 54 8.20312500000000111e-01
20 54 8.20312500000000111e-01
21 54 8.20312500000000111e-01
22 54 8.20312500000000111e-01
23 54 8.20312500000000111e-01
24 54 8.20312500000000111e-01
25 54 8.20312500000000111e-01
26 54 8.20312500000000111e-01
27 54 8.20312500000000111e-01
28 54 8.20312500000000111e-01
29 54 8.20312500000000111e-01
30 54 8.20312500000000111e-01
31 54 8.20312500000000111e-01
32 54 8.20312500000000111e-01
33 54 8.20312500000000111e-01
34 54 8.20312500000000111e-01
35 54 8.20312500000000111e-01
36 54 8.20312500000000111e-01
37 54 8.20312500000000111e-01
38 54 8.20312500000000111e-01
39 54 8.20312500000000111e-01
40 54 8.20312500000000111e-01
41 54 8.20312500000000111e-01
42 54 8.20312500000000111e-01
43 54 8.20312500000000111e-01
44 54 8.20312500000000111e-01
45 54 8.20312500000000111e-01
46 54 8.20312500000000111e-01
47 54 8.20312500000000111e-01
48 54 8.20312500000000111e-01
49 54 8.20312500000000111e-01
50 54 8.20312500000000111e-01
51 54 8.20312500000000111e-01
52 54 8.20312500000000111e-01
53 54 8.20312500000000111e-01
54 54 8.20312500000000111e-01
55 54 8.20312500000000111e-01
56 54 8.20312500000000111e-01
57 54 8.20312500000000111e-01
58 54 8.20312500000000111e-01
59 54 8.20312500000000111e-01
60 54 8.20312500000000111e-01
61 54 8.20312500000000111e-01
62 54 8.20312500000000111e-01
63 54 8.20312500000000111e-01
64 54 8.20312500000000111e-01
65 54 8.20312500000000111e-01
66 54 8.20312500000000111e-01
1 55 8.35937500000000111e-01
2 55 8.35937500000000111e-01
3 55 8.35937500000000111e-01
4 55 8.35937500000000111e-01
5 55 8.35937500000000111e-01
6 55 8.35937500000000111e-01
7 55 8.35937500000000111e-01
8 55 8.35937500000000111e-01
9 55 8.35937500000000111e-01
10 55 8.35937500000000111e-01
11 55 8.35937500000000111e-01
12 55 8.35937500000000111e-01
13 55 8.35937500000000111e-01
14 55 8.35937500000000111e-01
15 55 8.35937500000000111e-01
16 55 8.35937500000000111e-01
17 55 8.35937500000000111e-01
18 55 8.35937500000000111e-01
19 55 8.35937500000000111e-01
20 55 8.35937500000000111e-01
21 55 8.35937500000000111e-01
22 55 8.35937500000000111e-01
23 55 8.35937500000000111e-01
24 55 8.35937500000000111e-01
25 55 8.35937500000000111e-01
26 55 8.35937500000000111e-01
27 55 8.35937500000000111e-01
28 55 8.35937500000000111e-01
29 55 8.35937500000000111e-01
30 55 8.35937500000000111e-01
31 55 8.35937500000000111e-01
32 55 8.35937500000000111e-01
33 55 8.35937500000000111e-01
34 55 8.35937500000000111e-01
35 55 8.35937500000000111e-01
36 55 8.35937500000000111e-01
37 55 8.35937500000000111e-01
38 55 8.35937500000000111e-01
39 55 8.35937500000000111e-01
40 55 8.35937500000000111e-01
41 55 8.35937500000000111e-01
42 55 8.35937500000000111e-01
43 55 8.35937500000000111e-01
44 55 8.35937500000000111e-01
45 55 8.35937500000000111e-01
46 55 8.35937500000000111e-01
47 55 8.35937500000000111e-01
48 55 8.35937500000000111e-01
49 55 8.35937500000000111e-01
50 55 8.35937500000000111e-01
51 55 8.35937500000000111e-01
52 55 8.35937500000000111e-01
53 55 8.35937500000000111e-01
54 55 8.35937500000000111e-01
55 55 8.35937500000000111e-01
56 55 8.35937500000000111e-01
57 55 8.35937500000000111e-01
58 55 8.35937500000000111e-01
59 55 8.35937500000000111e-01
60 55 8.35937500000000111e-01
61 55 8.35937500000000111e-01
62 55 8.35937500000000111e-01
63 55 8.35937500000000111e-01
64 55 8.35937500000000111e-01
65 55 8.35937500000000111e-01
66 55 8.35937500000000111e-01
1 56 8.51562500000000111e-01
2 56 8.51562500000000111e-01
3 56 8.51562500000000111e-01
4 56 8.51562500000000111e-01
5 56 8.51562500000000111e-01
6 56 8.51562500000000111e-01
7 56 8.51562500000000111e-01
8 56 8.51562500000000111e-01
9 56 8.51562500000000111e-01
10 56 8.51562500000000111e-01
11 56 8.51562500000000111e-01
12 56 8.51562500000000111e-01
13 56 8.51562500000000111e-01
14 56 8.51562500000000111e-01
15 56 8.51562500000000111e-01
16 56 8.51562500000000111e-01
17 56 8.51562500000000111e-01
18 56 8.51562500000000111e-01
19 56 8.51562500000000111e-01
20 56 8.51562500000000111e-01
21 56 8.51562500000000111e-01
22 56 8.51562500000000111e-01
23 56 8.51562500000000111e-01
24 56 8.51562500000000111e-01
25 56 8.51562500000000111e-01
26 56 8.51562500000000111e-01
27 56 8.51562500000000111e-01
28 56 8.51562500000000111e-01
29 56 8.51562500000000111e-01
30 56 8.51562500000000111e-01
31 56 8.51562500000000111e-01
32 56 8.51562500000000111e-01
33 56 8.51562500000000111e-01
34 56 8.51562500000000111e-01
35 56 8.51562500000000111e-01
36 56 8.51562500000000111e-01
37 56 8.51562500000000111e-01
38 56 8.51562500000000111e-01
39 56 8.51562500000000111e-01
40 56 8.51562500000000111e-01
41 56 8.51562500000000111e-01
42 56 8.51562500000000111e-01
43 56 8.51562500000000111e-01
44 56 8.51562500000000111e-01
45 56 8.51562500000000111e-01
46 56 8.51562500000000111e-01
47 56 8.51562500000000111e-01
48 56 8.51562500000000111e-01
49 56 8.51562500000000111e-01
50 56 8.51562500000000111e-01
51 56 8.51562500000000111e-01
52 56 8.51562500000000111e-01
53 56 8.51562500000000111e-01
54 56 8.51562500000000111e-01
55 56 8.51562500000000111e-01
56 56 8.51562500000000111e-01
57 56 8.51562500000000111e-01
58 56 8.51562500000000111e-01
59 56 8.51562500000000111e-01
60 56 8.51562500000000111e-01
61 56 8.51562500000000111e-01
62 56 8.51562500000000111e-01
63 56 8.51562500000000111e-01
64 56 8.51562500000000111e-01
65 56 8.51562500000000111e-01
66 56 8.51562500000000111e-01
1 57 8.67187500000000111e-01
2 57 8.67187500000000111e-01
3 57 8.67187500000000111e-01
4 57 8.67187500000000111e-01
5 57 8.67187500000000111e-01
6 57 8.67187500000000111e-01
7 57 8.67187500000000111e-01
8 57 8.67187500000000111e-01
9 57 8.67187500000000111e-01
10 57 8.67187500000000111e-01
11 57 8.67187500000000111e-01
12 57 8.67187500000000111e-01
13 57 8.67187500000000111e-01
14 57 8.67187500000000111e-01
15 57 8.67187500000000111e-01
16 57 8.67187500000000111e-01
17 57 8.67187500000000111e-01
18 57 8.67187500000000111e-01
19 57 8.67187500000000111e-01
20 57 8.67187500000000111e-01
21 57 8.67187500000000111e-01
22 57 8.67187500000000111e-01
23 57 8.67187500000000111e-01
24 57 8.67187500000000111e-01
25 57 8.67187500000000111e-01
26 57 8.67187500000000111e-01
27 57 8.67187500000000111e-01
28 57 8.67187500000000111e-01
29 57 8.67187500000000111e-01
30 57 8.67187500000000111e-01
31 57 8.67187500000000111e-01
32 57 8.67187500000000111e-01
33 57 8.67187500000000111e-01
34 57 8.67187500000000111e-01
35 57 8.67187500000000111e-01
36 57 8.67187500000000111e-01
37 57 8.67187500000000111e-01
38 57 8.67187500000000111e-01
39 57 8.67187500000000111e-01
40 57 8.67187500000000111e-01
41 57 8.67187500000000111e-01
42 57 8.67187500000000111e-01
43 57 8.67187500000000111e-01
44 57 8.67187500000000111e-01
45 57 8.67187500000000111e-01
46 57 8.67187500000000111e-01
47 57 8.67187500000000111e-01
48 57 8.67187500000000111e-01
49 57 8.67187500000000111e-01
50 57 8.67187500000000111e-01
51 57 8.67187500000000111e-01
52 57 8.67187500000000111e-01
53 57 8.67187500000000111e-01
54 57 8.67187500000000111e-01
55 57 8.67187500000000111e-01
56 57 8.67187500000000111e-01
57 57 8.67187500000000111e-01
58 57 8.67187500000000111e-01
59 57 8.67187500000000111e-01
60 57 8.67187500000000111e-01
61 57 8.67187500000000111e-01
62 57 8.67187500000000111e-01
63 57 8.67187500000000111e-01
64 57 8.67187500000000111e-01
65 57 8.67187500000000111e-01
66 57 8.67187500000000111e-01
1 58 8.82812500000000111e-01
2 58 8.82812500000000111e-01
3 58 8.82812500000000111e-01
4 58 8.82812500000000111e-01
5 58 8.82812500000000111e-01
6 58 8.82812500000000111e-01
7 58 8.82812500000000111e-01
8 58 8.82812500000000111e-01
9 58 8.82812500000000111e-01
10 58 8.82812500000000111e-01
11 58 8.82812500000000111e-01
12 58 8.82812500000000111e-01
13 58 8.82812500000000111e-01
14 58 8.82812500000000111e-01
15 58 8.82812500000000111e-01
16 58 8.82812500000000111e-01
17 58 8.82812500000000111e-01
18 58 8.82812500000000111e-01
19 58 8.82812500000000111e-01
20 58 8.82812500000000111e-01
21 58 8.82812500000000111e-01
22 58 8.82812500000000111e-01
23 58 8.82812500000000111e-01
24 58 8.82812500000000111e-01
25 58 8.82812500000000111e-01
26 58 8.82812500000000111e-01
27 58 8.82812500000000111e-01
28 58 8.82812500000000111e-01
29 58 8.82812500000000111e-01
30 58 8.82812500000000111e-01
31 58 8.82812500000000111e-01
32 58 8.82812500000000111e-01
33 58 8.82812500000000111e-01
34 58 8.82812500000000111e-01
35 58 8.82812500000000111e-01
36 58 8.82812500000000111e-01
37 58 8.82812500000000111e-01
38 58 8.82812500000000111e-01
39 58 8.82812500000000111e-01
40 58 8.82812500000000111e-01
41 58 8.82812500000000111e-01
42 58 8.82812500000000111e-01
43 58 8.82812500000000111e-01
44 58 8.82812500000000111e-01
45 58 8.82812500000000111e-01
46 58 8.82812500000000111e-01
47 58 8.82812500000000111e-01
48 58 8.82812500000000111e-01
49 58 8.82812500000000111e-01
50 58 8.82812500000000111e-01
51 58 8.82812500000000111e-01
52 58 8.82812500000000111e-01
53 58 8.82812500000000111e-01
54 58 8.82812500000000111e-01
55 58 8.82812500000000111e-01
56 58 8.82812500000000111e-01
57 58 8.82812500000000111e-01
58 58 8.82812500000000111e-01
59 58 8.82812500000000111e-01
60 58 8.82812500000000111e-01
61 58 8.82812500000000111e-01
62 58 8.82812500000000111e-01
63 58 8.82812500000000111e-01
64 58 8.82812500000000111e-01
65 58 8.82812500000000111e-01
66 58 8.82812500000000111e-01
1 59 8.98437500000000000e-01
2 59 8.98437500000000000e-01
3 59 8.98437500000000000e-01
4 59 8.98437500000000000e-01
5 59 8.98437500000000000e-01
6 59 8.98437500000000000e-01
7 59 8.98437500000000000e-01
8 59 8.98437500000000000e-01
9 59 8.98437500000000000e-01
10 59 8.98437500000000000e-01
11 59 8.98437500000000000e-01
12 59 8.98437500000000000e-01
13 59 8.98437500000000000e-01
14 59 8.98437500000000000e-01
15 59 8.98437500000000000e-01
16 59 8.98437500000000000e-01
17 59 8.98437500000000000e-01
18 59 8.98437500000000000e-01
19 59 8.98437500000000000e-01
20 59 8.98437500000000000e-01
21 59 8.98437500000000000e-01
22 59 8.98437500000000000e-01
23 59 8.98437500000000000e-01
24 59 8.98437500000000000e-01
25 59 8.98437500000000000e-01
26 59 8.98437500000000000e-01
27 59 8.98437500000000000e-01
28 59 8.98437500000000000e-01
29 59 8.98437500000000000e-01
30 59 8.98437500000000000e-01
31 59 8.98437500000000000e-01
32 59 8.98437500000000000e-01
33 59 8.98437500000000000e-01
34 59 8.98437500000000000e-01
35 59 8.98437500000000000e-01
36 59 8.98437500000000000e-01
37 59 8.98437500000000000e-01
38 59 8.98437500000000000e-01
39 59 8.98437500000000000e-01
40 59 8.98437500000000000e-01
41 59 8.98437500000000000e-01
42 59 8.98437500000000000e-01
43 59 8.98437500000000000e-01
44 59 8.98437500000000000e-01
45 59 8.98437500000000000e-01
46 59 8.98437500000000000e-01
47 59 8.98437500000000000e-01
48 59 8.98437500000000000e-01
49 59 8.98437500000000000e-01
50 59 8.98437500000000000e-01
51 59 8.98437500000000000e-01
52 59 8.98437500000000000e-01
53 59 8.98437500000000000e-01
54 59 8.98437500000000000e-01
55 59 8.98437500000000000e-01
56 59 8.98437500000000000e-01
57 59 8.98437500000000000e-01
58 59 8.98437500000000000e-01
59 59 8.98437500000000000e-01
60 59 8.98437500000000000e-01
61 59 8.98437500000000000e-01
62 59 8.98437500000000000e-01
63 59 8.98437500000000000e-01
64 59 8.98437500000000000e-01
65 59 8.98437500000000000e-01
66 59 8.98437500000000000e-01
1 60 9.14062500000000000e-01
2 60 9.14062500000000000e-01
3 60 9.14062500000000000e-01
4 60 9.14062500000000000e-01
5 60 9.14062500000000000e-01
6 60 9.14062500000000000e-01
7 60 9.14062500000000000e-01
8 60 9.14062500000000000e-01
9 60 9.14062500000000000e-01
10 60 9.14062500000000000e-01
11 60 9.14062500000000000e-01
12 60 9.14062500000000000e-01
13 60 9.14062500000000000e-01
14 60 9.14062500000000000e-01
15 60 9.14062500000000000e-01
16 60 9.14062500000000000e-01
17 60 9.14062500000000000e-01
18 60 9.14062500000000000e-01
19 60 9.14062500000000000e-01
20 60 9.14062500000000000e-01
21 60 9.14062500000000000e-01
22 60 9.14062500000000000e-01
23 60 9.14062500000000000e-01
24 60 9.14062500000000000e-01
25 60 9.14062500000000000e-01
26 60 9.14062500000000000e-01
27 60 9.14062500000000000e-01
28 60 9.14062500000000000e-01
29 60 9.14062500000000000e-01
30 60 9.14062500000000000e-01
31 60 9.14062500000000000e-01
32 60 9.14062500000000000e-01
33 60 9.14062500000000000e-01
34 60 9.14062500000000000e-01
35 60 9.14062500000000000e-01
36 60 9.14062500000000000e-01
37 60 9.14062500000000000e-01
38 60 9.14062500000000000e-01
39 60 9.14062500000000000e-01
40 60 9.14062500000000000e-01
41 60 9.14062500000000000e-01
42 60 9.14062500000000000e-01
43 60 9.14062500000000000e-01
44 60 9.14062500000000000e-01
45 60 9.14062500000000000e-01
46 60 9.14062500000000000e-01
47 60 9.14062500000000000e-01
48 60 9.14062500000000000e-01
49 60 9.14062500000000000e-01
50 60 9.14062500000000000e-01
51 60 9.14062500000000000e-01
52 60 9.14062500000000000e-01
53 60 9.14062500000000000e-01
54 60 9.14062500000000000e-01
55 60 9.14062500000000000e-01
56 60 9.14062500000000000e-01
57 60 9.14062500000000000e-01
58 60 9.14062500000000000e-01
59 60 9.14062500000000000e-01
60 60 9.14062500000000000e-01
61 60 9.14062500000000000e-01
62 60 9.14062500000000000e-01
63 60 9.14062500000000000e-01
64 60 9.14062500000000000e-01
65 60 9.14062500000000000e-01
66 60 9.14062500000000000e-01
1 61 9.29687500000000000e-01
2 61 9.29687500000000000e-01
3 61 9.29687500000000000e-01
4 61 9.29687500000000000e-01
5 61 9.29687500000000000e-01
6 61 9.29687500000000000e-01
7 61 9.29687500000000000e-01
8 61 9.29687500000000000e-01
9 61 9.29687500000000000e-01
10 61 9.29687500000000000e-01
11 61 9.29687500000000000e-01
12 61 9.29687500000000000e-01
13 61 9.29687500000000000e-01
14 61 9.29687500000000000e-01
15 61 9.29687500000000000e-01
16 61 9.29687500000000000e-01
17 61 9.29687500000000000e-01
18 61 9.29687500000000000e-01
19 61 9.29687500000000000e-01
20 61 9.29687500000000000e-01
21 61 9.29687500000000000e-01
22 61 9.29687500000000000e-01
23 61 9.29687500000000000e-01
24 61 9.29687500000000000e-01
25 61 9.29687500000000000e-01
26 61 9.29687500000000000e-01
27 61 9.29687500000000000e-01
28 61 9.29687500000000000e-01
29 61 9.29687500000000000e-01
30 61 9.29687500000000000e-01
31 61 9.29687500000000000e-01
32 61 9.29687500000000000e-01
33 61 9.29687500000000000e-01
34 61 9.29687500000000000e-01
35 61 9.29687500000000000e-01
36 61 9.29687500000000000e-01
37 61 9.29687500000000000e-01
38 61 9.29687500000000000e-01
39 61 9.29687500000000000e-01
40 61 9.29687500000000000e-01
41 61 9.29687500000000000e-01
42 61 9.29687500000000000e-01
43 61 9.29687500000000000e-01
44 61 9.29687500000000000e-01
45 61 9.29687500000000000e-01
46 61 9.29687500000000000e-01
47 61 9.29687500000000000e-01
48 61 9.29687500000000000e-01
49 61 9.29687500000000000e-01
50 61 9.29687500000000000e-01
51 61 9.29687500000000000e-01
52 61 9.29687500000000000e-01
53 61 9.29687500000000000e-01
54 61 9.29687500000000000e-01
55 61 9.29687500000000000e-01
56 61 9.29687500000000000e-01
57 61 9.29687500000000000e-01
58 61 9.29687500000000000e-01
59 61 9.29687500000000000e-01
60 61 9.29687500000000000e-01
61 61 9.29687500000000000e-01
62 61 9.29687500000000000e-01
63 61 9.29687500000000000e-01
64 61 9.29687500000000000e-01
65 61 9.29687500000000000e-01
66 61 9.29687500000000000e-01
1 62 9.45312500000000000e-01
2 62 9.45312500000000000e-01
3 62 9.45312500000000000e-01
4 62 9.45312500000000000e-01
5 62 9.45312500000000000e-01
6 62 9.45312500000000000e-01
7 62 9.45312500000000000e-01
8 62 9.45312500000000000e-01
9 62 9.45312500000000000e-01
10 62 9.45312500000000000e-01
11 62 9.45312500000000000e-01
12 62 9.45312500000000000e-01
13 62 9.45312500000000000e-01
14 62 9.45312500000000000e-01
15 62 9.45312500000000000e-01
16 62 9.45312500000000000e-01
17 62 9.45312500000000000e-01
18 62 9.45312500000000000e-01
19 62 9.45312500000000000e-01
20 62 9.45312500000000000e-01
21 62 9.45312500000000000e-01
22 62 9.45312500000000000e-01
23 62 9.45312500000000000e-01
24 62 9.45312500000000000e-01
25 62 9.45312500000000000e-01
26 62 9.45312500000000000e-01
27 62 9.45312500000000000e-01
28 62 9.45312500000000000e-01
29 62 9.45312500000000000e-01
30 62 9.45312500000000000e-01
31 62 9.45312500000000000e-01
32 62 9.45312500000000000e-01
33 62 9.45312500000000000e-01
34 62 9.45312500000000000e-01
35 62 9.45312500000000000e-01
36 62 9.45312500000000000e-01
37 62 9.45312500000000000e-01
38 62 9.45312500000000000e-01
39 62 9.45312500000000000e-01
40 62 9.45312500000000000e-01
41 62 9.45312500000000000e-01
42 62 9.45312500000000000e-01
43 62 9.45312500000000000e-01
44 62 9.45312500000000000e-01
45 62 9.45312500000000000e-01
46 62 9.45312500000000000e-01
47 62 9.45312500000000000e-01
48 62 9.45312500000000000e-01
49 62 9.45312500000000000e-01
50 62 9.45312500000000000e-01
51 62 9.45312500000000000e-01
52 62 9.45312500000000000e-01
53 62 9.45312500000000000e-01
54 62 9.45312500000000000e-01
55 62 9.45312500000000000e-01
56 62 9.45312500000000000e-01
57 62 9.45312500000000000e-01
58 62 9.45312500000000000e-01
59 62 9.45312500000000000e-01
60 62 9.45312500000000000e-01
61 62 9.45312500000000000e-01
62 62 9.45312500000000000e-01
63 62 9.45312500000000000e-01
64 62 9.45312500000000000e-01
65 62 9.45312500000000000e-01
66 62 9.45312500000000000e-01
1 63 9.60937500000000000e-01
2 63 9.60937500000000000e-01
3 63 9.60937500000000000e-01
4 63 9.60937500000000000e-01
5 63 9.60937500000000000e-01
6 63 9.60937500000000000e-01
7 63 9.60937500000000000e-01
8 63 9.60937500000000000e-01
9 63 9.60937500000000000e-01
10 63 9.60937500000000000e-01
11 63 9.60937500000000000e-01
12 63 9.60937500000000000e-01
13 63 9.60937500000000000e-01
14 63 9.60937500000000000e-01
15 63 9.60937500000000000e-01
16 63 9.60937500000000000e-01
17 63 9.60937500000000000e-01
18 63 9.60937500000000000e-01
19 63 9.60937500000000000e-01
20 63 9.60937500000000000e-01
21 63 9.60937500000000000e-01
22 63 9.60937500000000000e-01
23 63 9.60937500000000000e-01
24 63 9.60937500000000000e-01
25 63 9.60937500000000000e-01
26 63 9.60937500000000000e-01
27 63 9.60937500000000000e-01
28 63 9.60937500000000000e-01
29 63 9.60937500000000000e-01
30 63 9.60937500000000000e-01
31 63 9.60937500000000000e-01
32 63 9.60937500000000000e-01
33 63 9.60937500000000000e-01
34 63 9.60937500000000000e-01
35 63 9.60937500000000000e-01
36 63 9.60937500000000000e-01
37 63 9.60937500000000000e-01
38 63 9.60937500000000000e-01
39 63 9.60937500000000000e-01
40 63 9.60937500000000000e-01
41 63 9.60937500000000000e-01
42 63 9.60937500000000000e-01
43 63 9.60937500000000000e-01
44 63 9.60937500000000000e-01
45 63 9.60937500000000000e-01
46 63 9.60937500000000000e-01
47 63 9.60937500000000000e-01
48 63 9.60937500000000000e-01
49 63 9.60937500000000000e-01
50 63 9.60937500000000000e-01
51 63 9.60937500000000000e-01
52 63 9.60937500000000000e-01
53 63 9.60937500000000000e-01
54 63 9.60937500000000000e-01
55 63 9.60937500000000000e-01
56 63 9.60937500000000000e-01
57 63 9.60937500000000000e-01
58 63 9.60937500000000000e-01
59 63 9.60937500000000000e-01
60 63 9.60937500000000000e-01
61 63 9.60937500000000000e-01
62 63 9.60937500000000000e-01
63 63 9.60937500000000000e-01
64 63 9.60937500000000000e-01
65 63 9.60937500000000000e-01
66 63 9.60937500000000000e-01
1 64 9.76562500000000000e-01
2 64 9.76562500000000000e-01
3 64 9.76562500000000000e-01
4 64 9.76562500000000000e-01
5 64 9.76562500000000000e-01
6 64 9.76562500000000000e-01
7 64 9.76562500000000000e-01
8 64 9.76562500000000000e-01
9 64 9.76562500000000000e-01
10 64 9.76562500000000000e-01
11 64 9.76562500000000000e-01
12 64 9.76562500000000000e-01
13 64 9.76562500000000000e-01
14 64 9.76562500000000000e-01
15 64 9.76562500000000000e-01
16 64 9.76562500000000000e-01
17 64 9.76562500000000000e-01
18 64 9.76562500000000000e-01
19 64 9.76562500000000000e-01
20 64 9.76562500000000000e-01
21 64 9.76562500000000000e-01
22 64 9.76562500000000000e-01
23 64 9.76562500000000000e-01
24 64 9.76562500000000000e-01
25 64 9.76562500000000000e-01
26 64 9.76562500000000000e-01
27 64 9.76562500000000000e-01
28 64 9.76562500000000000e-01
29 64 9.76562500000000000e-01
30 64 9.76562500000000000e-01
31 64 9.76562500000000000e-01
32 64 9.76562500000000000e-01
33 64 9.76562500000000000e-01
34 64 9.76562500000000000e-01
35 64 9.76562500000000000e-01
36 64 9.76562500000000000e-01
37 64 9.76562500000000000e-01
38 64 9.76562500000000000e-01
39 64 9.76562500000000000e-01
40 64 9.76562500000000000e-01
41 64 9.76562500000000000e-01
42 64 9.76562500000000000e-01
43 64 9.76562500000000000e-01
44 64 9.76562500000000000e-01
45 64 9.76562500000000000e-01
46 64 9.76562500000000000e-01
47 64 9.76562500000000000e-01
48 64 9.76562500000000000e-01
49 64 9.76562500000000000e-01
50 64 9.76562500000000000e-01
51 64 9.76562500000000000e-01
52 64 9.76562500000000000e-01
53 64 9.76562500000000000e-01
54 64 9.76562500000000000e-01
55 64 9.76562500000000000e-01
56 64 9.76562500000000000e-01
57 64 9.76562500000000000e-01
58 64 9.76562500000000000e-01
59 64 9.76562500000000000e-01
60 64 9.76562500000000000e-01
61 64 9.76562500000000000e-01
62 64 9.76562500000000000e-01
63 64 9.76562500000000000e-01
64 64 9.76562500000000000e-01
65 64 9.76562500000000000e-01
66 64 9.76562500000000000e-01
1 65 9.92187500000000000e-01
2 65 9.92187500000000000e-01
3 65 9.92187500000000000e-01
4 65 9.92187500000000000e-01
5 65 9.92187500000000000e-01
6 65 9.92187500000000000e-01
7 65 9.92187500000000000e-01
8 65 9.92187500000000000e-01
9 65 9.92187500000000000e-01
10 65 9.92187500000000000e-01
11 65 9.92187500000000000e-01
12 65 9.92187500000000000e-01
13 65 9.92187500000000000e-01
14 65 9.92187500000000000e-01
15 65 9.92187500000000000e-01
16 65 9.92187500000000000e-01
17 65 9.92187500000000000e-01
18 65 9.92187500000000000e-01
19 65 9.92187500000000000e-01
20 65 9.92187500000000000e-01
21 65 9.92187500000000000e-01
22 65 9.92187500000000000e-01
23 65 9.92187500000000000e-01
24 65 9.92187500000000000e-01
25 65 9.92187500000000000e-01
26 65 9.92187500000000000e-01
27 65 9.92187500000000000e-01
28 65 9.92187500000000000e-01
29 65 9.92187500000000000e-01
30 65 9.92187500000000000e-01
31 65 9.92187500000000000e-01
32 65 9.92187500000000000e-01
33 65 9.92187500000000000e-01
34 65 9.92187500000000000e-01
35 65 9.92187500000000000e-01
36 65 9.92187500000000000e-01
37 65 9.92187500000000000e-01
38 65 9.92187500000000000e-01
39 65 9.92187500000000000e-01
40 65 9.92187500000000000e-01
41 65 9.92187500000000000e-01
42 65 9.92187500000000000e-01
43 65 9.92187500000000000e-01
44 65 9.92187500000000000e-01
45 65 9.92187500000000000e-01
46 65 9.92187500000000000e-01
47 65 9.92187500000000000e-01
48 65 9.92187500000000000e-01
49 65 9.92187500000000000e-01
50 65 9.92187500000000000e-01
51 65 9.92187500000000000e-01
52 65 9.92187500000000000e-01
53 65 9.92187500000000000e-01
54 65 9.92187500000000000e-01
55 65 9.92187500000000000e-01
56 65 9.92187500000000000e-01
57 65 9.92187500000000000e-01
58 65 9.92187500000000000e-01
59 65 9.92187500000000000e-01
60 65 9.92187500000000000e-01
61 65 9.92187500000000000e-01
62 65 9.92187500000000000e-01
63 65 9.92187500000000000e-01
64 65 9.92187500000000000e-01
65 65 9.92187500000000000e-01
66 65 9.92187500000000000e-01
1 66 1.00000000000000000e+00
2 66 1.00000000000000000e+00
3 66 1.00000000000000000e+00
4 66 1.00000000000000000e+00
5 66 1.00000000000000000e+00
6 66 1.00000000000000000e+00
7 66 1.00000000000000000e+00
8 66 1.00000000000000000e+00
9 66 1.00000000000000000e+00
10 66 1.00000000000000000e+00
11 66 1.00000000000000000e+00
12 66 1.00000000000000000e+00
13 66 1.00000000000000000e+00
14 66 1.00000000000000000e+00
15 66 1.00000000000000000e+00
16 66 1.00000000000000000e+00
17 66 1.00000000000000000e+00
18 66 1.00000000000000000e+00
19 66 1.00000000000000000e+00
20 66 1.00000000000000000e+00
21 66 1.00000000000000000e+00
22 66 1.00000000000000000e+00
23 66 1.00000000000000000e+00
24 66 1.00000000000000000e+00
25 66 1.00000000000000000e+00
26 66 1.00000000000000000e+00
27 66 1.00000000000000000e+00
28 66 1.00000000000000000e+00
29 66 1.00000000000000000e+00
30 66 1.00000000000000000e+00
31 66 1.00000000000000000e+00
32 66 1.00000000000000000e+00
33 66 1.00000000000000000e+00
34 66 1.00000000000000000e+00
35 66 1.00000000000000000e+00
36 66 1.00000000000000000e+00
37 66 1.00000000000000000e+00
38 66 1.00000000000000000e+00
39 66 1.00000000000000000e+00
40 66 1.00000000000000000e+00
41 66 1.00000000000000000e+00
42 66 1.00000000000000000e+00
43 66 1.00000000000000000e+00
44 66 1.00000000000000000e+00
45 66 1.00000000000000000e+00
46 66 1.00000000000000000e+00
47 66 1.00000000000000000e+00
48 66 1.00000000000000000e+00
49 66 1.00000000000000000e+00
50 66 1.00000000000000000e+00
51 66 1.00000000000000000e+00
52 66 1.00000000000000000e+00
53 66 1.00000000000000000e+00
54 66 1.00000000000000000e+00
55 66 1.00000000000000000e+00
56 66 1.00000000000000000e+00
57 66 1.00000000000000000e+00
58 66 1.00000000000000000e+00
59 66 1.00000000000000000e+00
60 66 1.00000000000000000e+00
61 66 1.00000000000000000e+00
62 66 1.00000000000000000e+00
63 66 1.00000000000000000e+00
64 66 1.00000000000000000e+00
65 66 1.00000000000000000e+00
66 66 1.00000000000000000e+00
