%%MatrixMarket matrix coordinate  real general
66 66 4356
1 1 0.00000000000000000e+00
2 1 7.81250000000000000e-03
3 1 2.34375000000000000e-02
4 1 3.90625000000000000e-02
5 1 5.46875000000000000e-02
6 1 7.03125000000000000e-02
7 1 8.59375000000000000e-02
8 1 1.01562500000000000e-01
9 1 1.17187500000000000e-01
10 1 1.32812500000000000e-01
11 1 1.48437500000000000e-01
12 1 1.64062500000000000e-01
13 1 1.79687500000000000e-01
14 1 1.95312500000000000e-01
15 1 2.10937499999999972e-01
16 1 2.26562499999999944e-01
17 1 2.42187499999999944e-01
18 1 2.57812499999999944e-01
19 1 2.73437499999999944e-01
20 1 2.89062499999999944e-01
21 1 3.04687499999999944e-01
22 1 3.20312499999999944e-01
23 1 3.35937499999999944e-01
24 1 3.51562499999999944e-01
25 1 3.67187499999999944e-01
26 1 3.82812499999999889e-01
27 1 3.98437499999999889e-01
28 1 4.14062499999999889e-01
29 1 4.29687499999999833e-01
30 1 4.45312499999999833e-01
31 1 4.60937499999999833e-01
32 1 4.76562499999999778e-01
33 1 4.92187499999999778e-01
34 1 5.07812499999999778e-01
35 1 5.23437499999999778e-01
36 1 5.39062499999999778e-01
37 1 5.54687499999999778e-01
38 1 5.70312499999999778e-01
39 1 5.85937499999999778e-01
40 1 6.01562499999999889e-01
41 1 6.17187499999999889e-01
42 1 6.32812499999999889e-01
43 1 6.48437500000000000e-01
44 1 6.64062500000000000e-01
45 1 6.79687500000000000e-01
46 1 6.95312500000000000e-01
47 1 7.10937500000000000e-01
48 1 7.26562500000000000e-01
49 1 7.42187500000000000e-01
50 1 7.57812500000000111e-01
51 1 7.73437500000000222e-01
52 1 7.89062500000000222e-01
53 1 8.04687500000000111e-01
54 1 8.20312500000000111e-01
55 1 8.35937500000000111e-01
56 1 8.51562500000000111e-01
57 1 8.67187500000000111e-01
58 1 8.82812500000000111e-01
59 1 8.98437500000000000e-01
60 1 9.14062500000000000e-01
61 1 9.29687500000000000e-01
62 1 9.45312500000000000e-01
63 1 9.60937500000000000e-01
64 1 9.76562500000000000e-01
65 1 9.92187500000000000e-01
66 1 1.00000000000000000e+00
1 2 0.00000000000000000e+00
2 2 7.81250000000000000e-03
3 2 2.34375000000000000e-02
4 2 3.90625000000000000e-02
5 2 5.46875000000000000e-02
6 2 7.03125000000000000e-02
7 2 8.59375000000000139e-02
8 2 1.01562500000000014e-01
9 2 1.17187500000000000e-01
10 2 1.32812500000000000e-01
11 2 1.48437500000000000e-01
12 2 1.64062500000000028e-01
13 2 1.79687500000000000e-01
14 2 1.95312500000000000e-01
15 2 2.10937500000000000e-01
16 2 2.26562499999999944e-01
17 2 2.42187499999999944e-01
18 2 2.57812500000000000e-01
19 2 2.73437500000000000e-01
20 2 2.89062499999999944e-01
21 2 3.04687499999999944e-01
22 2 3.20312500000000000e-01
23 2 3.35937500000000000e-01
24 2 3.51562500000000000e-01
25 2 3.67187500000000000e-01
26 2 3.82812499999999889e-01
27 2 3.98437499999999889e-01
28 2 4.14062499999999889e-01
29 2 4.29687499999999889e-01
30 2 4.45312499999999889e-01
31 2 4.60937499999999833e-01
32 2 4.76562499999999778e-01
33 2 4.92187499999999833e-01
34 2 5.07812499999999778e-01
35 2 5.23437499999999778e-01
36 2 5.39062499999999778e-01
37 2 5.54687499999999889e-01
38 2 5.70312499999999778e-01
39 2 5.85937499999999778e-01
40 2 6.01562500000000000e-01
41 2 6.17187500000000000e-01
42 2 6.32812500000000000e-01
43 2 6.48437500000000111e-01
44 2 6.64062500000000000e-01
45 2 6.79687500000000000e-01
46 2 6.95312500000000000e-01
47 2 7.10937500000000000e-01
48 2 7.26562500000000000e-01
49 2 7.42187500000000000e-01
50 2 7.57812500000000222e-01
51 2 7.73437500000000222e-01
52 2 7.89062500000000222e-01
53 2 8.04687500000000222e-01
54 2 8.20312500000000222e-01
55 2 8.35937500000000222e-01
56 2 8.51562500000000222e-01
57 2 8.67187500000000111e-01
58 2 8.82812500000000222e-01
59 2 8.98437500000000000e-01
60 2 9.14062500000000000e-01
61 2 9.29687500000000111e-01
62 2 9.45312500000000111e-01
63 2 9.60937500000000111e-01
64 2 9.76562500000000000e-01
65 2 9.92187500000000000e-01
66 2 1.00000000000000000e+00
1 3 0.00000000000000000e+00
2 3 7.81250000000000000e-03
3 3 2.34375000000000000e-02
4 3 3.90625000000000139e-02
5 3 5.46875000000000069e-02
6 3 7.03125000000000000e-02
7 3 8.59375000000000278e-02
8 3 1.01562500000000028e-01
9 3 1.17187500000000000e-01
10 3 1.32812499999999972e-01
11 3 1.48437500000000000e-01
12 3 1.64062500000000056e-01
13 3 1.79687500000000028e-01
14 3 1.95312500000000000e-01
15 3 2.10937500000000000e-01
16 3 2.26562499999999944e-01
17 3 2.42187499999999944e-01
18 3 2.57812500000000000e-01
19 3 2.73437500000000000e-01
20 3 2.89062499999999944e-01
21 3 3.04687499999999889e-01
22 3 3.20312500000000000e-01
23 3 3.35937500000000000e-01
24 3 3.51562500000000000e-01
25 3 3.67187500000000000e-01
26 3 3.82812499999999889e-01
27 3 3.98437499999999889e-01
28 3 4.14062499999999889e-01
29 3 4.29687499999999889e-01
30 3 4.45312499999999889e-01
31 3 4.60937499999999833e-01
32 3 4.76562499999999778e-01
33 3 4.92187499999999889e-01
34 3 5.07812499999999778e-01
35 3 5.23437499999999778e-01
36 3 5.39062499999999778e-01
37 3 5.54687500000000000e-01
38 3 5.70312499999999778e-01
39 3 5.85937499999999778e-01
40 3 6.01562500000000000e-01
41 3 6.17187500000000000e-01
42 3 6.32812500000000000e-01
43 3 6.48437500000000222e-01
44 3 6.64062500000000111e-01
45 3 6.79687500000000111e-01
46 3 6.95312500000000000e-01
47 3 7.10937500000000000e-01
48 3 7.26562500000000000e-01
49 3 7.42187500000000000e-01
50 3 7.57812500000000222e-01
51 3 7.73437500000000222e-01
52 3 7.89062500000000222e-01
53 3 8.04687500000000222e-01
54 3 8.20312500000000222e-01
55 3 8.35937500000000222e-01
56 3 8.51562500000000222e-01
57 3 8.67187500000000000e-01
58 3 8.82812500000000111e-01
59 3 8.98437500000000000e-01
60 3 9.14062500000000000e-01
61 3 9.29687500000000222e-01
62 3 9.45312500000000222e-01
63 3 9.60937500000000222e-01
64 3 9.76562500000000000e-01
65 3 9.92187500000000111e-01
66 3 1.00000000000000000e+00
1 4 0.00000000000000000e+00
2 4 7.81250000000000000e-03
3 4 2.34375000000000000e-02
4 4 3.90625000000000139e-02
5 4 5.46875000000000069e-02
6 4 7.03125000000000000e-02
7 4 8.59375000000000278e-02
8 4 1.01562500000000014e-01
9 4 1.17187500000000000e-01
10 4 1.32812499999999944e-01
11 4 1.48437500000000000e-01
12 4 1.64062500000000056e-01
13 4 1.79687500000000000e-01
14 4 1.95312500000000000e-01
15 4 2.10937500000000000e-01
16 4 2.26562499999999944e-01
17 4 2.42187499999999944e-01
18 4 2.57812500000000000e-01
19 4 2.73437500000000000e-01
20 4 2.89062499999999889e-01
21 4 3.04687499999999889e-01
22 4 3.20312500000000000e-01
23 4 3.35937500000000000e-01
24 4 3.51562500000000000e-01
25 4 3.67187500000000000e-01
26 4 3.82812499999999889e-01
27 4 3.98437499999999889e-01
28 4 4.14062499999999889e-01
29 4 4.29687499999999778e-01
30 4 4.45312499999999889e-01
31 4 4.60937499999999889e-01
32 4 4.76562499999999778e-01
33 4 4.92187499999999889e-01
34 4 5.07812499999999778e-01
35 4 5.23437499999999778e-01
36 4 5.39062499999999778e-01
37 4 5.54687500000000000e-01
38 4 5.70312499999999778e-01
39 4 5.85937499999999778e-01
40 4 6.01562500000000000e-01
41 4 6.17187500000000000e-01
42 4 6.32812500000000000e-01
43 4 6.48437500000000222e-01
44 4 6.64062500000000222e-01
45 4 6.79687500000000111e-01
46 4 6.95312500000000000e-01
47 4 7.10937500000000000e-01
48 4 7.26562500000000000e-01
49 4 7.42187500000000000e-01
50 4 7.57812500000000222e-01
51 4 7.73437500000000222e-01
52 4 7.89062500000000222e-01
53 4 8.04687500000000222e-01
54 4 8.20312500000000222e-01
55 4 8.35937500000000111e-01
56 4 8.51562500000000222e-01
57 4 8.67187500000000111e-01
58 4 8.82812500000000000e-01
59 4 8.98437500000000000e-01
60 4 9.14062500000000111e-01
61 4 9.29687500000000222e-01
62 4 9.45312500000000222e-01
63 4 9.60937500000000222e-01
64 4 9.76562500000000000e-01
65 4 9.92187500000000111e-01
66 4 1.00000000000000000e+00
1 5 0.00000000000000000e+00
2 5 7.81250000000000000e-03
3 5 2.34375000000000000e-02
4 5 3.90625000000000139e-02
5 5 5.46875000000000069e-02
6 5 7.03125000000000000e-02
7 5 8.59375000000000278e-02
8 5 1.01562500000000014e-01
9 5 1.17187500000000000e-01
10 5 1.32812499999999944e-01
11 5 1.48437500000000000e-01
12 5 1.64062500000000056e-01
13 5 1.79687500000000000e-01
14 5 1.95312500000000000e-01
15 5 2.10937500000000000e-01
16 5 2.26562499999999917e-01
17 5 2.42187499999999944e-01
18 5 2.57812500000000000e-01
19 5 2.73437500000000000e-01
20 5 2.89062499999999889e-01
21 5 3.04687499999999889e-01
22 5 3.20312500000000000e-01
23 5 3.35937500000000000e-01
24 5 3.51562500000000000e-01
25 5 3.67187500000000000e-01
26 5 3.82812499999999944e-01
27 5 3.98437499999999944e-01
28 5 4.14062499999999889e-01
29 5 4.29687499999999778e-01
30 5 4.45312499999999944e-01
31 5 4.60937499999999889e-01
32 5 4.76562499999999778e-01
33 5 4.92187499999999889e-01
34 5 5.07812499999999778e-01
35 5 5.23437499999999667e-01
36 5 5.39062499999999778e-01
37 5 5.54687500000000000e-01
38 5 5.70312499999999778e-01
39 5 5.85937499999999778e-01
40 5 6.01562500000000000e-01
41 5 6.17187500000000000e-01
42 5 6.32812500000000000e-01
43 5 6.48437500000000111e-01
44 5 6.64062500000000222e-01
45 5 6.79687500000000111e-01
46 5 6.95312500000000000e-01
47 5 7.10937500000000000e-01
48 5 7.26562500000000000e-01
49 5 7.42187500000000000e-01
50 5 7.57812500000000222e-01
51 5 7.73437500000000222e-01
52 5 7.89062500000000333e-01
53 5 8.04687500000000111e-01
54 5 8.20312500000000222e-01
55 5 8.35937500000000111e-01
56 5 8.51562500000000222e-01
57 5 8.67187500000000111e-01
58 5 8.82812500000000000e-01
59 5 8.98437499999999889e-01
60 5 9.14062500000000111e-01
61 5 9.29687500000000222e-01
62 5 9.45312500000000222e-01
63 5 9.60937500000000222e-01
64 5 9.76562500000000000e-01
65 5 9.92187500000000111e-01
66 5 1.00000000000000000e+00
1 6 0.00000000000000000e+00
2 6 7.81250000000000000e-03
3 6 2.34375000000000000e-02
4 6 3.90625000000000139e-02
5 6 5.46875000000000000e-02
6 6 7.03125000000000000e-02
7 6 8.59375000000000278e-02
8 6 1.01562500000000014e-01
9 6 1.17187500000000000e-01
10 6 1.32812499999999944e-01
11 6 1.48437500000000000e-01
12 6 1.64062500000000056e-01
13 6 1.79687500000000000e-01
14 6 1.95312500000000000e-01
15 6 2.10937500000000000e-01
16 6 2.26562499999999889e-01
17 6 2.42187499999999944e-01
18 6 2.57812500000000000e-01
19 6 2.73437500000000000e-01
20 6 2.89062499999999889e-01
21 6 3.04687499999999889e-01
22 6 3.20312499999999944e-01
23 6 3.35937500000000000e-01
24 6 3.51562500000000000e-01
25 6 3.67187499999999944e-01
26 6 3.82812499999999944e-01
27 6 3.98437500000000000e-01
28 6 4.14062499999999889e-01
29 6 4.29687499999999778e-01
30 6 4.45312500000000000e-01
31 6 4.60937499999999889e-01
32 6 4.76562499999999778e-01
33 6 4.92187499999999889e-01
34 6 5.07812499999999778e-01
35 6 5.23437499999999667e-01
36 6 5.39062499999999778e-01
37 6 5.54687500000000000e-01
38 6 5.70312499999999778e-01
39 6 5.85937499999999778e-01
40 6 6.01562500000000000e-01
41 6 6.17187500000000000e-01
42 6 6.32812500000000000e-01
43 6 6.48437500000000111e-01
44 6 6.64062500000000222e-01
45 6 6.79687500000000111e-01
46 6 6.95312500000000000e-01
47 6 7.10937500000000000e-01
48 6 7.26562500000000000e-01
49 6 7.42187500000000000e-01
50 6 7.57812500000000222e-01
51 6 7.73437500000000222e-01
52 6 7.89062500000000444e-01
53 6 8.04687500000000000e-01
54 6 8.20312500000000222e-01
55 6 8.35937500000000000e-01
56 6 8.51562500000000222e-01
57 6 8.67187500000000111e-01
58 6 8.82812500000000000e-01
59 6 8.98437499999999889e-01
60 6 9.14062500000000111e-01
61 6 9.29687500000000222e-01
62 6 9.45312500000000333e-01
63 6 9.60937500000000222e-01
64 6 9.76562500000000000e-01
65 6 9.92187500000000000e-01
66 6 1.00000000000000000e+00
1 7 0.00000000000000000e+00
2 7 7.81250000000000000e-03
3 7 2.34375000000000000e-02
4 7 3.90625000000000069e-02
5 7 5.46875000000000000e-02
6 7 7.03125000000000000e-02
7 7 8.59375000000000139e-02
8 7 1.01562500000000000e-01
9 7 1.17187499999999986e-01
10 7 1.32812499999999944e-01
11 7 1.48437500000000000e-01
12 7 1.64062500000000056e-01
13 7 1.79687500000000000e-01
14 7 1.95312500000000000e-01
15 7 2.10937499999999972e-01
16 7 2.26562499999999889e-01
17 7 2.42187499999999917e-01
18 7 2.57812500000000000e-01
19 7 2.73437499999999944e-01
20 7 2.89062499999999889e-01
21 7 3.04687499999999889e-01
22 7 3.20312499999999889e-01
23 7 3.35937500000000000e-01
24 7 3.51562500000000000e-01
25 7 3.67187499999999889e-01
26 7 3.82812499999999889e-01
27 7 3.98437500000000000e-01
28 7 4.14062499999999833e-01
29 7 4.29687499999999778e-01
30 7 4.45312500000000000e-01
31 7 4.60937499999999889e-01
32 7 4.76562499999999778e-01
33 7 4.92187499999999889e-01
34 7 5.07812499999999778e-01
35 7 5.23437499999999667e-01
36 7 5.39062499999999778e-01
37 7 5.54687500000000000e-01
38 7 5.70312499999999778e-01
39 7 5.85937499999999778e-01
40 7 6.01562500000000000e-01
41 7 6.17187500000000000e-01
42 7 6.32812500000000000e-01
43 7 6.48437500000000000e-01
44 7 6.64062500000000222e-01
45 7 6.79687500000000111e-01
46 7 6.95312500000000000e-01
47 7 7.10937500000000000e-01
48 7 7.26562500000000000e-01
49 7 7.42187500000000000e-01
50 7 7.57812500000000222e-01
51 7 7.73437500000000222e-01
52 7 7.89062500000000444e-01
53 7 8.04687500000000000e-01
54 7 8.20312500000000222e-01
55 7 8.35937500000000000e-01
56 7 8.51562500000000222e-01
57 7 8.67187500000000000e-01
58 7 8.82812500000000000e-01
59 7 8.98437499999999778e-01
60 7 9.14062500000000000e-01
61 7 9.29687500000000222e-01
62 7 9.45312500000000222e-01
63 7 9.60937500000000222e-01
64 7 9.76562500000000000e-01
65 7 9.92187500000000000e-01
66 7 1.00000000000000000e+00
1 8 0.00000000000000000e+00
2 8 7.81250000000000000e-03
3 8 2.34375000000000000e-02
4 8 3.90625000000000069e-02
5 8 5.46875000000000000e-02
6 8 7.03125000000000000e-02
7 8 8.59375000000000278e-02
8 8 1.01562500000000014e-01
9 8 1.17187499999999986e-01
10 8 1.32812499999999944e-01
11 8 1.48437500000000000e-01
12 8 1.64062500000000056e-01
13 8 1.79687500000000028e-01
14 8 1.95312500000000000e-01
15 8 2.10937500000000000e-01
16 8 2.26562499999999889e-01
17 8 2.42187499999999917e-01
18 8 2.57812500000000000e-01
19 8 2.73437499999999944e-01
20 8 2.89062499999999889e-01
21 8 3.04687499999999889e-01
22 8 3.20312499999999889e-01
23 8 3.35937500000000000e-01
24 8 3.51562500000000056e-01
25 8 3.67187499999999889e-01
26 8 3.82812499999999889e-01
27 8 3.98437500000000000e-01
28 8 4.14062499999999833e-01
29 8 4.29687499999999778e-01
30 8 4.45312500000000000e-01
31 8 4.60937499999999889e-01
32 8 4.76562499999999778e-01
33 8 4.92187499999999889e-01
34 8 5.07812499999999778e-01
35 8 5.23437499999999667e-01
36 8 5.39062499999999778e-01
37 8 5.54687499999999889e-01
38 8 5.70312499999999778e-01
39 8 5.85937499999999778e-01
40 8 6.01562500000000000e-01
41 8 6.17187500000000000e-01
42 8 6.32812500000000000e-01
43 8 6.48437500000000000e-01
44 8 6.64062500000000222e-01
45 8 6.79687500000000111e-01
46 8 6.95312500000000000e-01
47 8 7.10937500000000000e-01
48 8 7.26562500000000000e-01
49 8 7.42187500000000000e-01
50 8 7.57812500000000222e-01
51 8 7.73437500000000222e-01
52 8 7.89062500000000444e-01
53 8 8.04687500000000000e-01
54 8 8.20312500000000222e-01
55 8 8.35937500000000000e-01
56 8 8.51562500000000111e-01
57 8 8.67187500000000000e-01
58 8 8.82812500000000000e-01
59 8 8.98437499999999778e-01
60 8 9.14062500000000111e-01
61 8 9.29687500000000222e-01
62 8 9.45312500000000111e-01
63 8 9.60937500000000222e-01
64 8 9.76562500000000000e-01
65 8 9.92187500000000000e-01
66 8 1.00000000000000000e+00
1 9 0.00000000000000000e+00
2 9 7.81250000000000000e-03
3 9 2.34375000000000000e-02
4 9 3.90625000000000069e-02
5 9 5.46875000000000000e-02
6 9 7.03125000000000000e-02
7 9 8.59375000000000278e-02
8 9 1.01562500000000014e-01
9 9 1.17187499999999986e-01
10 9 1.32812499999999944e-01
11 9 1.48437500000000000e-01
12 9 1.64062500000000083e-01
13 9 1.79687500000000028e-01
14 9 1.95312500000000000e-01
15 9 2.10937500000000000e-01
16 9 2.26562499999999889e-01
17 9 2.42187499999999944e-01
18 9 2.57812500000000000e-01
19 9 2.73437499999999944e-01
20 9 2.89062499999999889e-01
21 9 3.04687499999999889e-01
22 9 3.20312499999999889e-01
23 9 3.35937500000000000e-01
24 9 3.51562500000000056e-01
25 9 3.67187499999999889e-01
26 9 3.82812499999999944e-01
27 9 3.98437500000000000e-01
28 9 4.14062499999999889e-01
29 9 4.29687499999999778e-01
30 9 4.45312500000000000e-01
31 9 4.60937499999999944e-01
32 9 4.76562499999999778e-01
33 9 4.92187499999999889e-01
34 9 5.07812499999999778e-01
35 9 5.23437499999999667e-01
36 9 5.39062499999999778e-01
37 9 5.54687499999999889e-01
38 9 5.70312499999999778e-01
39 9 5.85937499999999778e-01
40 9 6.01562500000000000e-01
41 9 6.17187500000000000e-01
42 9 6.32812500000000000e-01
43 9 6.48437500000000000e-01
44 9 6.64062500000000222e-01
45 9 6.79687500000000111e-01
46 9 6.95312500000000000e-01
47 9 7.10937500000000000e-01
48 9 7.26562500000000000e-01
49 9 7.42187500000000000e-01
50 9 7.57812500000000222e-01
51 9 7.73437500000000333e-01
52 9 7.89062500000000444e-01
53 9 8.04687500000000000e-01
54 9 8.20312500000000222e-01
55 9 8.35937500000000000e-01
56 9 8.51562500000000111e-01
57 9 8.67187500000000000e-01
58 9 8.82812500000000000e-01
59 9 8.98437499999999889e-01
60 9 9.14062500000000111e-01
61 9 9.29687500000000222e-01
62 9 9.45312500000000111e-01
63 9 9.60937500000000222e-01
64 9 9.76562500000000000e-01
65 9 9.92187500000000000e-01
66 9 1.00000000000000000e+00
1 10 0.00000000000000000e+00
2 10 7.81250000000000000e-03
3 10 2.34375000000000000e-02
4 10 3.90625000000000069e-02
5 10 5.46875000000000000e-02
6 10 7.03125000000000000e-02
7 10 8.59375000000000278e-02
8 10 1.01562500000000014e-01
9 10 1.17187499999999986e-01
10 10 1.32812499999999944e-01
11 10 1.48437500000000000e-01
12 10 1.64062500000000083e-01
13 10 1.79687500000000028e-01
14 10 1.95312500000000000e-01
15 10 2.10937500000000000e-01
16 10 2.26562499999999917e-01
17 10 2.42187499999999972e-01
18 10 2.57812500000000000e-01
19 10 2.73437499999999944e-01
20 10 2.89062499999999944e-01
21 10 3.04687499999999889e-01
22 10 3.20312499999999889e-01
23 10 3.35937500000000000e-01
24 10 3.51562500000000056e-01
25 10 3.67187499999999889e-01
26 10 3.82812499999999944e-01
27 10 3.98437500000000056e-01
28 10 4.14062499999999889e-01
29 10 4.29687499999999778e-01
30 10 4.45312500000000000e-01
31 10 4.60937499999999944e-01
32 10 4.76562499999999833e-01
33 10 4.92187499999999944e-01
34 10 5.07812499999999778e-01
35 10 5.23437499999999667e-01
36 10 5.39062499999999778e-01
37 10 5.54687499999999889e-01
38 10 5.70312499999999889e-01
39 10 5.85937499999999778e-01
40 10 6.01562500000000000e-01
41 10 6.17187500000000000e-01
42 10 6.32812500000000000e-01
43 10 6.48437500000000000e-01
44 10 6.64062500000000333e-01
45 10 6.79687500000000111e-01
46 10 6.95312500000000000e-01
47 10 7.10937500000000000e-01
48 10 7.26562500000000111e-01
49 10 7.42187499999999889e-01
50 10 7.57812500000000222e-01
51 10 7.73437500000000444e-01
52 10 7.89062500000000444e-01
53 10 8.04687500000000000e-01
54 10 8.20312500000000222e-01
55 10 8.35937500000000000e-01
56 10 8.51562500000000000e-01
57 10 8.67187500000000111e-01
58 10 8.82812500000000000e-01
59 10 8.98437500000000000e-01
60 10 9.14062500000000111e-01
61 10 9.29687500000000222e-01
62 10 9.45312500000000111e-01
63 10 9.60937500000000333e-01
64 10 9.76562500000000000e-01
65 10 9.92187500000000111e-01
66 10 1.00000000000000000e+00
1 11 0.00000000000000000e+00
2 11 7.81250000000000000e-03
3 11 2.34374999999999965e-02
4 11 3.90625000000000069e-02
5 11 5.46874999999999931e-02
6 11 7.03125000000000000e-02
7 11 8.59375000000000139e-02
8 11 1.01562500000000014e-01
9 11 1.17187499999999972e-01
10 11 1.32812499999999944e-01
11 11 1.48437500000000000e-01
12 11 1.64062500000000056e-01
13 11 1.79687500000000000e-01
14 11 1.95312500000000000e-01
15 11 2.10937500000000000e-01
16 11 2.26562499999999917e-01
17 11 2.42187499999999944e-01
18 11 2.57812500000000000e-01
19 11 2.73437499999999944e-01
20 11 2.89062499999999944e-01
21 11 3.04687499999999889e-01
22 11 3.20312499999999889e-01
23 11 3.35937499999999944e-01
24 11 3.51562500000000056e-01
25 11 3.67187499999999889e-01
26 11 3.82812499999999944e-01
27 11 3.98437500000000000e-01
28 11 4.14062499999999833e-01
29 11 4.29687499999999778e-01
30 11 4.45312500000000000e-01
31 11 4.60937499999999944e-01
32 11 4.76562499999999833e-01
33 11 4.92187499999999889e-01
34 11 5.07812499999999778e-01
35 11 5.23437499999999667e-01
36 11 5.39062499999999778e-01
37 11 5.54687499999999889e-01
38 11 5.70312499999999889e-01
39 11 5.85937499999999778e-01
40 11 6.01562499999999889e-01
41 11 6.17187500000000000e-01
42 11 6.32812499999999889e-01
43 11 6.48437500000000000e-01
44 11 6.64062500000000333e-01
45 11 6.79687500000000111e-01
46 11 6.95312500000000000e-01
47 11 7.10937500000000000e-01
48 11 7.26562500000000000e-01
49 11 7.42187499999999778e-01
50 11 7.57812500000000111e-01
51 11 7.73437500000000444e-01
52 11 7.89062500000000444e-01
53 11 8.04687500000000000e-01
54 11 8.20312500000000222e-01
55 11 8.35937499999999889e-01
56 11 8.51562500000000000e-01
57 11 8.67187500000000000e-01
58 11 8.82812500000000000e-01
59 11 8.98437499999999889e-01
60 11 9.14062500000000000e-01
61 11 9.29687500000000111e-01
62 11 9.45312500000000111e-01
63 11 9.60937500000000222e-01
64 11 9.76562500000000000e-01
65 11 9.92187500000000000e-01
66 11 1.00000000000000000e+00
1 12 0.00000000000000000e+00
2 12 7.81250000000000000e-03
3 12 2.34375000000000000e-02
4 12 3.90625000000000069e-02
5 12 5.46875000000000000e-02
6 12 7.03125000000000000e-02
7 12 8.59375000000000278e-02
8 12 1.01562500000000028e-01
9 12 1.17187499999999986e-01
10 12 1.32812499999999944e-01
11 12 1.48437500000000000e-01
12 12 1.64062500000000056e-01
13 12 1.79687500000000000e-01
14 12 1.95312500000000000e-01
15 12 2.10937500000000000e-01
16 12 2.26562499999999944e-01
17 12 2.42187499999999944e-01
18 12 2.57812500000000000e-01
19 12 2.73437500000000000e-01
20 12 2.89062499999999944e-01
21 12 3.04687499999999889e-01
22 12 3.20312499999999889e-01
23 12 3.35937499999999944e-01
24 12 3.51562500000000111e-01
25 12 3.67187499999999944e-01
26 12 3.82812500000000000e-01
27 12 3.98437500000000000e-01
28 12 4.14062499999999889e-01
29 12 4.29687499999999833e-01
30 12 4.45312500000000000e-01
31 12 4.60937500000000000e-01
32 12 4.76562499999999889e-01
33 12 4.92187499999999944e-01
34 12 5.07812499999999778e-01
35 12 5.23437499999999667e-01
36 12 5.39062499999999778e-01
37 12 5.54687499999999889e-01
38 12 5.70312499999999889e-01
39 12 5.85937499999999778e-01
40 12 6.01562499999999889e-01
41 12 6.17187500000000111e-01
42 12 6.32812499999999889e-01
43 12 6.48437500000000000e-01
44 12 6.64062500000000444e-01
45 12 6.79687500000000222e-01
46 12 6.95312500000000000e-01
47 12 7.10937500000000000e-01
48 12 7.26562500000000000e-01
49 12 7.42187499999999889e-01
50 12 7.57812500000000222e-01
51 12 7.73437500000000444e-01
52 12 7.89062500000000444e-01
53 12 8.04687500000000111e-01
54 12 8.20312500000000333e-01
55 12 8.35937499999999889e-01
56 12 8.51562500000000000e-01
57 12 8.67187500000000000e-01
58 12 8.82812500000000000e-01
59 12 8.98437500000000000e-01
60 12 9.14062500000000000e-01
61 12 9.29687500000000222e-01
62 12 9.45312500000000222e-01
63 12 9.60937500000000222e-01
64 12 9.76562500000000000e-01
65 12 9.92187500000000000e-01
66 12 1.00000000000000000e+00
1 13 0.00000000000000000e+00
2 13 7.81250000000000000e-03
3 13 2.34375000000000000e-02
4 13 3.90625000000000069e-02
5 13 5.46875000000000000e-02
6 13 7.03125000000000000e-02
7 13 8.59375000000000278e-02
8 13 1.01562500000000028e-01
9 13 1.17187499999999986e-01
10 13 1.32812499999999944e-01
11 13 1.48437500000000000e-01
12 13 1.64062500000000056e-01
13 13 1.79687500000000000e-01
14 13 1.95312500000000000e-01
15 13 2.10937500000000000e-01
16 13 2.26562499999999972e-01
17 13 2.42187499999999944e-01
18 13 2.57812499999999944e-01
19 13 2.73437500000000000e-01
20 13 2.89062499999999944e-01
21 13 3.04687499999999833e-01
22 13 3.20312499999999889e-01
23 13 3.35937499999999944e-01
24 13 3.51562500000000111e-01
25 13 3.67187499999999944e-01
26 13 3.82812500000000000e-01
27 13 3.98437500000000000e-01
28 13 4.14062499999999889e-01
29 13 4.29687499999999833e-01
30 13 4.45312500000000000e-01
31 13 4.60937500000000000e-01
32 13 4.76562499999999889e-01
33 13 4.92187499999999944e-01
34 13 5.07812499999999778e-01
35 13 5.23437499999999667e-01
36 13 5.39062499999999778e-01
37 13 5.54687499999999889e-01
38 13 5.70312499999999889e-01
39 13 5.85937499999999778e-01
40 13 6.01562499999999889e-01
41 13 6.17187500000000000e-01
42 13 6.32812499999999889e-01
43 13 6.48437500000000000e-01
44 13 6.64062500000000444e-01
45 13 6.79687500000000222e-01
46 13 6.95312500000000000e-01
47 13 7.10937500000000000e-01
48 13 7.26562500000000000e-01
49 13 7.42187499999999889e-01
50 13 7.57812500000000222e-01
51 13 7.73437500000000333e-01
52 13 7.89062500000000444e-01
53 13 8.04687500000000111e-01
54 13 8.20312500000000333e-01
55 13 8.35937499999999889e-01
56 13 8.51562500000000111e-01
57 13 8.67187500000000000e-01
58 13 8.82812500000000000e-01
59 13 8.98437500000000000e-01
60 13 9.14062500000000000e-01
61 13 9.29687500000000111e-01
62 13 9.45312500000000222e-01
63 13 9.60937500000000222e-01
64 13 9.76562500000000000e-01
65 13 9.92187500000000000e-01
66 13 1.00000000000000000e+00
1 14 0.00000000000000000e+00
2 14 7.81250000000000000e-03
3 14 2.34375000000000000e-02
4 14 3.90625000000000069e-02
5 14 5.46875000000000000e-02
6 14 7.03125000000000000e-02
7 14 8.59375000000000278e-02
8 14 1.01562500000000028e-01
9 14 1.17187499999999986e-01
10 14 1.32812499999999944e-01
11 14 1.48437500000000000e-01
12 14 1.64062500000000056e-01
13 14 1.79687500000000000e-01
14 14 1.95312500000000000e-01
15 14 2.10937500000000000e-01
16 14 2.26562499999999972e-01
17 14 2.42187499999999944e-01
18 14 2.57812499999999944e-01
19 14 2.73437500000000000e-01
20 14 2.89062499999999944e-01
21 14 3.04687499999999833e-01
22 14 3.20312499999999889e-01
23 14 3.35937499999999944e-01
24 14 3.51562500000000111e-01
25 14 3.67187500000000000e-01
26 14 3.82812500000000000e-01
27 14 3.98437500000000000e-01
28 14 4.14062499999999889e-01
29 14 4.29687499999999833e-01
30 14 4.45312499999999944e-01
31 14 4.60937500000000000e-01
32 14 4.76562499999999889e-01
33 14 4.92187499999999944e-01
34 14 5.07812499999999778e-01
35 14 5.23437499999999667e-01
36 14 5.39062499999999778e-01
37 14 5.54687499999999889e-01
38 14 5.70312499999999889e-01
39 14 5.85937499999999778e-01
40 14 6.01562499999999889e-01
41 14 6.17187500000000000e-01
42 14 6.32812499999999889e-01
43 14 6.48437500000000000e-01
44 14 6.64062500000000444e-01
45 14 6.79687500000000222e-01
46 14 6.95312500000000000e-01
47 14 7.10937500000000000e-01
48 14 7.26562500000000000e-01
49 14 7.42187499999999889e-01
50 14 7.57812500000000222e-01
51 14 7.73437500000000333e-01
52 14 7.89062500000000444e-01
53 14 8.04687500000000111e-01
54 14 8.20312500000000333e-01
55 14 8.35937499999999778e-01
56 14 8.51562500000000111e-01
57 14 8.67187500000000000e-01
58 14 8.82812500000000000e-01
59 14 8.98437500000000000e-01
60 14 9.14062500000000000e-01
61 14 9.29687500000000111e-01
62 14 9.45312500000000333e-01
63 14 9.60937500000000222e-01
64 14 9.76562500000000000e-01
65 14 9.92187500000000111e-01
66 14 1.00000000000000000e+00
1 15 0.00000000000000000e+00
2 15 7.81250000000000000e-03
3 15 2.34375000000000000e-02
4 15 3.90625000000000000e-02
5 15 5.46875000000000000e-02
6 15 7.03125000000000000e-02
7 15 8.59375000000000278e-02
8 15 1.01562500000000014e-01
9 15 1.17187499999999986e-01
10 15 1.32812499999999944e-01
11 15 1.48437500000000000e-01
12 15 1.64062500000000056e-01
13 15 1.79687500000000000e-01
14 15 1.95312500000000000e-01
15 15 2.10937499999999972e-01
16 15 2.26562499999999944e-01
17 15 2.42187499999999917e-01
18 15 2.57812499999999944e-01
19 15 2.73437499999999944e-01
20 15 2.89062499999999944e-01
21 15 3.04687499999999833e-01
22 15 3.20312499999999889e-01
23 15 3.35937499999999944e-01
24 15 3.51562500000000056e-01
25 15 3.67187500000000000e-01
26 15 3.82812499999999944e-01
27 15 3.98437500000000000e-01
28 15 4.14062499999999833e-01
29 15 4.29687499999999833e-01
30 15 4.45312499999999944e-01
31 15 4.60937499999999944e-01
32 15 4.76562499999999889e-01
33 15 4.92187499999999889e-01
34 15 5.07812499999999778e-01
35 15 5.23437499999999667e-01
36 15 5.39062499999999778e-01
37 15 5.54687499999999778e-01
38 15 5.70312499999999778e-01
39 15 5.85937499999999778e-01
40 15 6.01562499999999778e-01
41 15 6.17187499999999889e-01
42 15 6.32812499999999889e-01
43 15 6.48437499999999889e-01
44 15 6.64062500000000333e-01
45 15 6.79687500000000222e-01
46 15 6.95312500000000000e-01
47 15 7.10937500000000000e-01
48 15 7.26562500000000000e-01
49 15 7.42187499999999889e-01
50 15 7.57812500000000222e-01
51 15 7.73437500000000222e-01
52 15 7.89062500000000444e-01
53 15 8.04687500000000000e-01
54 15 8.20312500000000333e-01
55 15 8.35937499999999778e-01
56 15 8.51562500000000111e-01
57 15 8.67187499999999889e-01
58 15 8.82812500000000000e-01
59 15 8.98437499999999889e-01
60 15 9.14062500000000000e-01
61 15 9.29687500000000000e-01
62 15 9.45312500000000222e-01
63 15 9.60937500000000222e-01
64 15 9.76562499999999889e-01
65 15 9.92187500000000111e-01
66 15 1.00000000000000000e+00
1 16 0.00000000000000000e+00
2 16 7.81250000000000000e-03
3 16 2.34375000000000000e-02
4 16 3.90624999999999931e-02
5 16 5.46874999999999931e-02
6 16 7.03125000000000000e-02
7 16 8.59375000000000278e-02
8 16 1.01562500000000014e-01
9 16 1.17187499999999972e-01
10 16 1.32812499999999944e-01
11 16 1.48437500000000000e-01
12 16 1.64062500000000056e-01
13 16 1.79687500000000000e-01
14 16 1.95312500000000000e-01
15 16 2.10937499999999972e-01
16 16 2.26562499999999917e-01
17 16 2.42187499999999889e-01
18 16 2.57812499999999944e-01
19 16 2.73437499999999944e-01
20 16 2.89062499999999944e-01
21 16 3.04687499999999833e-01
22 16 3.20312499999999889e-01
23 16 3.35937499999999944e-01
24 16 3.51562500000000056e-01
25 16 3.67187500000000000e-01
26 16 3.82812499999999944e-01
27 16 3.98437500000000000e-01
28 16 4.14062499999999833e-01
29 16 4.29687499999999833e-01
30 16 4.45312499999999889e-01
31 16 4.60937499999999889e-01
32 16 4.76562499999999833e-01
33 16 4.92187499999999889e-01
34 16 5.07812499999999778e-01
35 16 5.23437499999999667e-01
36 16 5.39062499999999778e-01
37 16 5.54687499999999778e-01
38 16 5.70312499999999778e-01
39 16 5.85937499999999667e-01
40 16 6.01562499999999778e-01
41 16 6.17187499999999889e-01
42 16 6.32812499999999889e-01
43 16 6.48437499999999889e-01
44 16 6.64062500000000222e-01
45 16 6.79687500000000222e-01
46 16 6.95312499999999889e-01
47 16 7.10937500000000000e-01
48 16 7.26562499999999889e-01
49 16 7.42187499999999889e-01
50 16 7.57812500000000222e-01
51 16 7.73437500000000222e-01
52 16 7.89062500000000444e-01
53 16 8.04687500000000000e-01
54 16 8.20312500000000333e-01
55 16 8.35937499999999778e-01
56 16 8.51562500000000111e-01
57 16 8.67187499999999889e-01
58 16 8.82812500000000000e-01
59 16 8.98437499999999889e-01
60 16 9.14062500000000000e-01
61 16 9.29687500000000000e-01
62 16 9.45312500000000111e-01
63 16 9.60937500000000111e-01
64 16 9.76562499999999778e-01
65 16 9.92187500000000000e-01
66 16 1.00000000000000000e+00
1 17 0.00000000000000000e+00
2 17 7.81250000000000000e-03
3 17 2.34375000000000000e-02
4 17 3.90624999999999931e-02
5 17 5.46874999999999931e-02
6 17 7.03125000000000000e-02
7 17 8.59375000000000278e-02
8 17 1.01562500000000014e-01
9 17 1.17187499999999972e-01
10 17 1.32812499999999944e-01
11 17 1.48437500000000000e-01
12 17 1.64062500000000056e-01
13 17 1.79687500000000000e-01
14 17 1.95312500000000000e-01
15 17 2.10937499999999972e-01
16 17 2.26562499999999917e-01
17 17 2.42187499999999889e-01
18 17 2.57812499999999944e-01
19 17 2.73437499999999944e-01
20 17 2.89062499999999944e-01
21 17 3.04687499999999833e-01
22 17 3.20312499999999889e-01
23 17 3.35937499999999944e-01
24 17 3.51562500000000056e-01
25 17 3.67187500000000000e-01
26 17 3.82812499999999944e-01
27 17 3.98437500000000000e-01
28 17 4.14062499999999833e-01
29 17 4.29687499999999833e-01
30 17 4.45312499999999889e-01
31 17 4.60937499999999889e-01
32 17 4.76562499999999833e-01
33 17 4.92187499999999889e-01
34 17 5.07812499999999778e-01
35 17 5.23437499999999667e-01
36 17 5.39062499999999778e-01
37 17 5.54687499999999778e-01
38 17 5.70312499999999778e-01
39 17 5.85937499999999667e-01
40 17 6.01562499999999778e-01
41 17 6.17187499999999889e-01
42 17 6.32812499999999889e-01
43 17 6.48437499999999889e-01
44 17 6.64062500000000222e-01
45 17 6.79687500000000222e-01
46 17 6.95312499999999889e-01
47 17 7.10937500000000000e-01
48 17 7.26562499999999889e-01
49 17 7.42187499999999889e-01
50 17 7.57812500000000222e-01
51 17 7.73437500000000222e-01
52 17 7.89062500000000444e-01
53 17 8.04687500000000000e-01
54 17 8.20312500000000333e-01
55 17 8.35937499999999778e-01
56 17 8.51562500000000111e-01
57 17 8.67187499999999889e-01
58 17 8.82812500000000000e-01
59 17 8.98437499999999889e-01
60 17 9.14062500000000000e-01
61 17 9.29687500000000000e-01
62 17 9.45312500000000111e-01
63 17 9.60937500000000111e-01
64 17 9.76562499999999778e-01
65 17 9.92187500000000000e-01
66 17 1.00000000000000000e+00
1 18 0.00000000000000000e+00
2 18 7.81250000000000000e-03
3 18 2.34375000000000000e-02
4 18 3.90624999999999931e-02
5 18 5.46874999999999931e-02
6 18 7.03125000000000139e-02
7 18 8.59375000000000278e-02
8 18 1.01562500000000014e-01
9 18 1.17187499999999986e-01
10 18 1.32812499999999944e-01
11 18 1.48437500000000000e-01
12 18 1.64062500000000056e-01
13 18 1.79687500000000000e-01
14 18 1.95312500000000000e-01
15 18 2.10937499999999972e-01
16 18 2.26562499999999917e-01
17 18 2.42187499999999917e-01
18 18 2.57812499999999944e-01
19 18 2.73437499999999944e-01
20 18 2.89062499999999944e-01
21 18 3.04687499999999833e-01
22 18 3.20312499999999889e-01
23 18 3.35937500000000000e-01
24 18 3.51562500000000056e-01
25 18 3.67187500000000000e-01
26 18 3.82812499999999944e-01
27 18 3.98437500000000000e-01
28 18 4.14062499999999833e-01
29 18 4.29687499999999833e-01
30 18 4.45312499999999889e-01
31 18 4.60937499999999944e-01
32 18 4.76562499999999889e-01
33 18 4.92187499999999889e-01
34 18 5.07812499999999778e-01
35 18 5.23437499999999667e-01
36 18 5.39062499999999778e-01
37 18 5.54687499999999778e-01
38 18 5.70312499999999778e-01
39 18 5.85937499999999778e-01
40 18 6.01562499999999889e-01
41 18 6.17187499999999889e-01
42 18 6.32812499999999889e-01
43 18 6.48437499999999889e-01
44 18 6.64062500000000222e-01
45 18 6.79687500000000222e-01
46 18 6.95312499999999889e-01
47 18 7.10937500000000000e-01
48 18 7.26562499999999889e-01
49 18 7.42187499999999889e-01
50 18 7.57812500000000222e-01
51 18 7.73437500000000222e-01
52 18 7.89062500000000444e-01
53 18 8.04687500000000000e-01
54 18 8.20312500000000333e-01
55 18 8.35937499999999889e-01
56 18 8.51562500000000111e-01
57 18 8.67187499999999889e-01
58 18 8.82812500000000000e-01
59 18 8.98437499999999889e-01
60 18 9.14062500000000000e-01
61 18 9.29687500000000000e-01
62 18 9.45312500000000222e-01
63 18 9.60937500000000222e-01
64 18 9.76562499999999778e-01
65 18 9.92187500000000000e-01
66 18 1.00000000000000000e+00
1 19 0.00000000000000000e+00
2 19 7.81250000000000000e-03
3 19 2.34375000000000000e-02
4 19 3.90624999999999931e-02
5 19 5.46874999999999931e-02
6 19 7.03125000000000139e-02
7 19 8.59375000000000278e-02
8 19 1.01562500000000014e-01
9 19 1.17187500000000000e-01
10 19 1.32812499999999944e-01
11 19 1.48437500000000000e-01
12 19 1.64062500000000056e-01
13 19 1.79687500000000000e-01
14 19 1.95312500000000000e-01
15 19 2.10937499999999972e-01
16 19 2.26562499999999917e-01
17 19 2.42187499999999944e-01
18 19 2.57812499999999944e-01
19 19 2.73437499999999944e-01
20 19 2.89062500000000000e-01
21 19 3.04687499999999889e-01
22 19 3.20312499999999889e-01
23 19 3.35937500000000000e-01
24 19 3.51562500000000056e-01
25 19 3.67187500000000000e-01
26 19 3.82812500000000000e-01
27 19 3.98437500000000056e-01
28 19 4.14062499999999889e-01
29 19 4.29687499999999889e-01
30 19 4.45312499999999889e-01
31 19 4.60937499999999944e-01
32 19 4.76562499999999889e-01
33 19 4.92187499999999889e-01
34 19 5.07812499999999778e-01
35 19 5.23437499999999667e-01
36 19 5.39062499999999889e-01
37 19 5.54687499999999778e-01
38 19 5.70312499999999778e-01
39 19 5.85937499999999778e-01
40 19 6.01562499999999889e-01
41 19 6.17187500000000000e-01
42 19 6.32812499999999889e-01
43 19 6.48437500000000000e-01
44 19 6.64062500000000333e-01
45 19 6.79687500000000222e-01
46 19 6.95312500000000000e-01
47 19 7.10937500000000000e-01
48 19 7.26562500000000000e-01
49 19 7.42187499999999889e-01
50 19 7.57812500000000222e-01
51 19 7.73437500000000333e-01
52 19 7.89062500000000444e-01
53 19 8.04687500000000000e-01
54 19 8.20312500000000333e-01
55 19 8.35937500000000000e-01
56 19 8.51562500000000111e-01
57 19 8.67187500000000000e-01
58 19 8.82812500000000000e-01
59 19 8.98437500000000000e-01
60 19 9.14062500000000111e-01
61 19 9.29687500000000111e-01
62 19 9.45312500000000333e-01
63 19 9.60937500000000222e-01
64 19 9.76562499999999889e-01
65 19 9.92187500000000000e-01
66 19 1.00000000000000000e+00
1 20 0.00000000000000000e+00
2 20 7.81250000000000000e-03
3 20 2.34375000000000000e-02
4 20 3.90624999999999931e-02
5 20 5.46874999999999931e-02
6 20 7.03125000000000139e-02
7 20 8.59375000000000278e-02
8 20 1.01562500000000014e-01
9 20 1.17187500000000000e-01
10 20 1.32812499999999944e-01
11 20 1.48437500000000000e-01
12 20 1.64062500000000028e-01
13 20 1.79687500000000000e-01
14 20 1.95312500000000000e-01
15 20 2.10937499999999972e-01
16 20 2.26562499999999917e-01
17 20 2.42187499999999944e-01
18 20 2.57812499999999944e-01
19 20 2.73437499999999944e-01
20 20 2.89062500000000000e-01
21 20 3.04687499999999889e-01
22 20 3.20312499999999944e-01
23 20 3.35937500000000000e-01
24 20 3.51562500000000056e-01
25 20 3.67187500000000000e-01
26 20 3.82812500000000000e-01
27 20 3.98437500000000056e-01
28 20 4.14062499999999944e-01
29 20 4.29687499999999833e-01
30 20 4.45312499999999889e-01
31 20 4.60937499999999944e-01
32 20 4.76562499999999889e-01
33 20 4.92187499999999889e-01
34 20 5.07812499999999778e-01
35 20 5.23437499999999667e-01
36 20 5.39062499999999889e-01
37 20 5.54687499999999778e-01
38 20 5.70312499999999667e-01
39 20 5.85937499999999778e-01
40 20 6.01562499999999889e-01
41 20 6.17187500000000000e-01
42 20 6.32812499999999889e-01
43 20 6.48437500000000000e-01
44 20 6.64062500000000333e-01
45 20 6.79687500000000222e-01
46 20 6.95312500000000000e-01
47 20 7.10937500000000000e-01
48 20 7.26562500000000000e-01
49 20 7.42187499999999889e-01
50 20 7.57812500000000222e-01
51 20 7.73437500000000333e-01
52 20 7.89062500000000444e-01
53 20 8.04687500000000000e-01
54 20 8.20312500000000333e-01
55 20 8.35937500000000000e-01
56 20 8.51562500000000111e-01
57 20 8.67187499999999889e-01
58 20 8.82812500000000000e-01
59 20 8.98437500000000000e-01
60 20 9.14062500000000222e-01
61 20 9.29687500000000111e-01
62 20 9.45312500000000333e-01
63 20 9.60937500000000222e-01
64 20 9.76562499999999889e-01
65 20 9.92187500000000000e-01
66 20 1.00000000000000000e+00
1 21 0.00000000000000000e+00
2 21 7.81250000000000000e-03
3 21 2.34375000000000000e-02
4 21 3.90624999999999931e-02
5 21 5.46874999999999861e-02
6 21 7.03125000000000139e-02
7 21 8.59375000000000278e-02
8 21 1.01562500000000000e-01
9 21 1.17187500000000000e-01
10 21 1.32812499999999944e-01
11 21 1.48437500000000000e-01
12 21 1.64062500000000028e-01
13 21 1.79687500000000000e-01
14 21 1.95312500000000000e-01
15 21 2.10937499999999972e-01
16 21 2.26562499999999917e-01
17 21 2.42187499999999944e-01
18 21 2.57812499999999944e-01
19 21 2.73437499999999944e-01
20 21 2.89062500000000000e-01
21 21 3.04687499999999889e-01
22 21 3.20312499999999944e-01
23 21 3.35937500000000000e-01
24 21 3.51562500000000056e-01
25 21 3.67187499999999944e-01
26 21 3.82812500000000000e-01
27 21 3.98437500000000056e-01
28 21 4.14062499999999944e-01
29 21 4.29687499999999833e-01
30 21 4.45312499999999889e-01
31 21 4.60937499999999944e-01
32 21 4.76562499999999833e-01
33 21 4.92187499999999889e-01
34 21 5.07812499999999778e-01
35 21 5.23437499999999667e-01
36 21 5.39062499999999889e-01
37 21 5.54687499999999778e-01
38 21 5.70312499999999667e-01
39 21 5.85937499999999778e-01
40 21 6.01562499999999889e-01
41 21 6.17187499999999889e-01
42 21 6.32812499999999889e-01
43 21 6.48437500000000000e-01
44 21 6.64062500000000333e-01
45 21 6.79687500000000222e-01
46 21 6.95312500000000000e-01
47 21 7.10937500000000000e-01
48 21 7.26562500000000000e-01
49 21 7.42187499999999889e-01
50 21 7.57812500000000222e-01
51 21 7.73437500000000333e-01
52 21 7.89062500000000444e-01
53 21 8.04687500000000000e-01
54 21 8.20312500000000333e-01
55 21 8.35937500000000000e-01
56 21 8.51562500000000000e-01
57 21 8.67187499999999889e-01
58 21 8.82812500000000000e-01
59 21 8.98437500000000000e-01
60 21 9.14062500000000222e-01
61 21 9.29687500000000111e-01
62 21 9.45312500000000333e-01
63 21 9.60937500000000222e-01
64 21 9.76562499999999889e-01
65 21 9.92187500000000000e-01
66 21 1.00000000000000000e+00
1 22 0.00000000000000000e+00
2 22 7.81250000000000000e-03
3 22 2.34375000000000000e-02
4 22 3.90624999999999931e-02
5 22 5.46874999999999861e-02
6 22 7.03125000000000139e-02
7 22 8.59375000000000278e-02
8 22 1.01562500000000000e-01
9 22 1.17187500000000000e-01
10 22 1.32812499999999944e-01
11 22 1.48437500000000000e-01
12 22 1.64062500000000028e-01
13 22 1.79687500000000000e-01
14 22 1.95312500000000000e-01
15 22 2.10937499999999972e-01
16 22 2.26562499999999944e-01
17 22 2.42187499999999944e-01
18 22 2.57812499999999944e-01
19 22 2.73437499999999944e-01
20 22 2.89062500000000000e-01
21 22 3.04687499999999889e-01
22 22 3.20312499999999944e-01
23 22 3.35937500000000000e-01
24 22 3.51562500000000056e-01
25 22 3.67187499999999944e-01
26 22 3.82812500000000000e-01
27 22 3.98437500000000000e-01
28 22 4.14062499999999944e-01
29 22 4.29687499999999833e-01
30 22 4.45312499999999889e-01
31 22 4.60937499999999944e-01
32 22 4.76562499999999778e-01
33 22 4.92187499999999889e-01
34 22 5.07812499999999778e-01
35 22 5.23437499999999667e-01
36 22 5.39062499999999889e-01
37 22 5.54687499999999778e-01
38 22 5.70312499999999667e-01
39 22 5.85937499999999778e-01
40 22 6.01562499999999889e-01
41 22 6.17187499999999889e-01
42 22 6.32812499999999889e-01
43 22 6.48437500000000000e-01
44 22 6.64062500000000333e-01
45 22 6.79687500000000222e-01
46 22 6.95312500000000111e-01
47 22 7.10937500000000000e-01
48 22 7.26562500000000000e-01
49 22 7.42187499999999889e-01
50 22 7.57812500000000222e-01
51 22 7.73437500000000333e-01
52 22 7.89062500000000444e-01
53 22 8.04687500000000000e-01
54 22 8.20312500000000333e-01
55 22 8.35937500000000000e-01
56 22 8.51562500000000000e-01
57 22 8.67187499999999889e-01
58 22 8.82812500000000000e-01
59 22 8.98437500000000000e-01
60 22 9.14062500000000222e-01
61 22 9.29687500000000111e-01
62 22 9.45312500000000333e-01
63 22 9.60937500000000333e-01
64 22 9.76562499999999889e-01
65 22 9.92187499999999889e-01
66 22 1.00000000000000000e+00
1 23 0.00000000000000000e+00
2 23 7.81250000000000000e-03
3 23 2.34375000000000000e-02
4 23 3.90625000000000000e-02
5 23 5.46874999999999861e-02
6 23 7.03125000000000139e-02
7 23 8.59375000000000278e-02
8 23 1.01562500000000000e-01
9 23 1.17187500000000014e-01
10 23 1.32812499999999944e-01
11 23 1.48437500000000000e-01
12 23 1.64062500000000028e-01
13 23 1.79687500000000028e-01
14 23 1.95312500000000000e-01
15 23 2.10937500000000000e-01
16 23 2.26562499999999944e-01
17 23 2.42187499999999972e-01
18 23 2.57812499999999944e-01
19 23 2.73437499999999944e-01
20 23 2.89062500000000056e-01
21 23 3.04687499999999889e-01
22 23 3.20312499999999944e-01
23 23 3.35937500000000056e-01
24 23 3.51562500000000056e-01
25 23 3.67187499999999944e-01
26 23 3.82812500000000000e-01
27 23 3.98437500000000000e-01
28 23 4.14062499999999944e-01
29 23 4.29687499999999833e-01
30 23 4.45312499999999889e-01
31 23 4.60937499999999944e-01
32 23 4.76562499999999778e-01
33 23 4.92187499999999889e-01
34 23 5.07812499999999778e-01
35 23 5.23437499999999667e-01
36 23 5.39062499999999889e-01
37 23 5.54687499999999778e-01
38 23 5.70312499999999667e-01
39 23 5.85937499999999778e-01
40 23 6.01562499999999889e-01
41 23 6.17187499999999889e-01
42 23 6.32812499999999889e-01
43 23 6.48437500000000000e-01
44 23 6.64062500000000333e-01
45 23 6.79687500000000222e-01
46 23 6.95312500000000111e-01
47 23 7.10937500000000000e-01
48 23 7.26562500000000000e-01
49 23 7.42187499999999889e-01
50 23 7.57812500000000222e-01
51 23 7.73437500000000333e-01
52 23 7.89062500000000444e-01
53 23 8.04687499999999889e-01
54 23 8.20312500000000333e-01
55 23 8.35937500000000000e-01
56 23 8.51562500000000111e-01
57 23 8.67187499999999889e-01
58 23 8.82812500000000000e-01
59 23 8.98437500000000000e-01
60 23 9.14062500000000222e-01
61 23 9.29687500000000222e-01
62 23 9.45312500000000444e-01
63 23 9.60937500000000333e-01
64 23 9.76562500000000000e-01
65 23 9.92187499999999889e-01
66 23 1.00000000000000000e+00
1 24 0.00000000000000000e+00
2 24 7.81250000000000000e-03
3 24 2.34375000000000000e-02
4 24 3.90624999999999931e-02
5 24 5.46874999999999792e-02
6 24 7.03125000000000139e-02
7 24 8.59375000000000139e-02
8 24 1.01562500000000000e-01
9 24 1.17187500000000000e-01
10 24 1.32812499999999944e-01
11 24 1.48437500000000000e-01
12 24 1.64062500000000028e-01
13 24 1.79687500000000028e-01
14 24 1.95312499999999972e-01
15 24 2.10937499999999972e-01
16 24 2.26562499999999944e-01
17 24 2.42187499999999944e-01
18 24 2.57812499999999944e-01
19 24 2.73437499999999944e-01
20 24 2.89062500000000000e-01
21 24 3.04687499999999889e-01
22 24 3.20312499999999944e-01
23 24 3.35937500000000056e-01
24 24 3.51562500000000056e-01
25 24 3.67187499999999889e-01
26 24 3.82812500000000000e-01
27 24 3.98437500000000000e-01
28 24 4.14062499999999889e-01
29 24 4.29687499999999778e-01
30 24 4.45312499999999889e-01
31 24 4.60937499999999889e-01
32 24 4.76562499999999778e-01
33 24 4.92187499999999889e-01
34 24 5.07812499999999778e-01
35 24 5.23437499999999556e-01
36 24 5.39062499999999889e-01
37 24 5.54687499999999667e-01
38 24 5.70312499999999667e-01
39 24 5.85937499999999778e-01
40 24 6.01562499999999778e-01
41 24 6.17187499999999889e-01
42 24 6.32812499999999889e-01
43 24 6.48437500000000000e-01
44 24 6.64062500000000222e-01
45 24 6.79687500000000222e-01
46 24 6.95312500000000111e-01
47 24 7.10937499999999889e-01
48 24 7.26562500000000000e-01
49 24 7.42187499999999778e-01
50 24 7.57812500000000222e-01
51 24 7.73437500000000222e-01
52 24 7.89062500000000444e-01
53 24 8.04687499999999778e-01
54 24 8.20312500000000222e-01
55 24 8.35937500000000000e-01
56 24 8.51562500000000111e-01
57 24 8.67187499999999778e-01
58 24 8.82812500000000000e-01
59 24 8.98437500000000000e-01
60 24 9.14062500000000111e-01
61 24 9.29687500000000222e-01
62 24 9.45312500000000444e-01
63 24 9.60937500000000222e-01
64 24 9.76562500000000000e-01
65 24 9.92187499999999778e-01
66 24 1.00000000000000000e+00
1 25 0.00000000000000000e+00
2 25 7.81250000000000000e-03
3 25 2.34375000000000000e-02
4 25 3.90625000000000000e-02
5 25 5.46874999999999792e-02
6 25 7.03125000000000139e-02
7 25 8.59375000000000278e-02
8 25 1.01562500000000000e-01
9 25 1.17187500000000000e-01
10 25 1.32812499999999944e-01
11 25 1.48437500000000028e-01
12 25 1.64062500000000028e-01
13 25 1.79687500000000028e-01
14 25 1.95312500000000000e-01
15 25 2.10937499999999972e-01
16 25 2.26562499999999972e-01
17 25 2.42187499999999972e-01
18 25 2.57812499999999944e-01
19 25 2.73437499999999944e-01
20 25 2.89062500000000000e-01
21 25 3.04687499999999889e-01
22 25 3.20312499999999944e-01
23 25 3.35937500000000056e-01
24 25 3.51562500000000056e-01
25 25 3.67187499999999889e-01
26 25 3.82812500000000000e-01
27 25 3.98437500000000000e-01
28 25 4.14062499999999889e-01
29 25 4.29687499999999778e-01
30 25 4.45312499999999889e-01
31 25 4.60937499999999944e-01
32 25 4.76562499999999833e-01
33 25 4.92187499999999889e-01
34 25 5.07812499999999778e-01
35 25 5.23437499999999667e-01
36 25 5.39062499999999889e-01
37 25 5.54687499999999667e-01
38 25 5.70312499999999667e-01
39 25 5.85937499999999778e-01
40 25 6.01562499999999778e-01
41 25 6.17187500000000000e-01
42 25 6.32812499999999889e-01
43 25 6.48437500000000000e-01
44 25 6.64062500000000333e-01
45 25 6.79687500000000222e-01
46 25 6.95312500000000111e-01
47 25 7.10937500000000000e-01
48 25 7.26562500000000000e-01
49 25 7.42187499999999778e-01
50 25 7.57812500000000333e-01
51 25 7.73437500000000222e-01
52 25 7.89062500000000444e-01
53 25 8.04687499999999778e-01
54 25 8.20312500000000333e-01
55 25 8.35937500000000111e-01
56 25 8.51562500000000222e-01
57 25 8.67187499999999778e-01
58 25 8.82812500000000000e-01
59 25 8.98437500000000111e-01
60 25 9.14062500000000111e-01
61 25 9.29687500000000222e-01
62 25 9.45312500000000444e-01
63 25 9.60937500000000222e-01
64 25 9.76562500000000000e-01
65 25 9.92187499999999778e-01
66 25 1.00000000000000000e+00
1 26 0.00000000000000000e+00
2 26 7.81250000000000000e-03
3 26 2.34375000000000000e-02
4 26 3.90625000000000000e-02
5 26 5.46874999999999792e-02
6 26 7.03125000000000000e-02
7 26 8.59375000000000278e-02
8 26 1.01562500000000000e-01
9 26 1.17187500000000000e-01
10 26 1.32812499999999944e-01
11 26 1.48437500000000028e-01
12 26 1.64062500000000028e-01
13 26 1.79687500000000028e-01
14 26 1.95312500000000000e-01
15 26 2.10937499999999944e-01
16 26 2.26562499999999944e-01
17 26 2.42187499999999944e-01
18 26 2.57812499999999944e-01
19 26 2.73437499999999944e-01
20 26 2.89062500000000000e-01
21 26 3.04687499999999889e-01
22 26 3.20312499999999889e-01
23 26 3.35937500000000056e-01
24 26 3.51562500000000056e-01
25 26 3.67187499999999889e-01
26 26 3.82812499999999944e-01
27 26 3.98437500000000000e-01
28 26 4.14062499999999889e-01
29 26 4.29687499999999778e-01
30 26 4.45312499999999889e-01
31 26 4.60937499999999944e-01
32 26 4.76562499999999833e-01
33 26 4.92187499999999889e-01
34 26 5.07812499999999778e-01
35 26 5.23437499999999667e-01
36 26 5.39062499999999889e-01
37 26 5.54687499999999667e-01
38 26 5.70312499999999556e-01
39 26 5.85937499999999778e-01
40 26 6.01562499999999778e-01
41 26 6.17187500000000000e-01
42 26 6.32812499999999778e-01
43 26 6.48437500000000000e-01
44 26 6.64062500000000333e-01
45 26 6.79687500000000111e-01
46 26 6.95312500000000000e-01
47 26 7.10937500000000000e-01
48 26 7.26562500000000000e-01
49 26 7.42187499999999778e-01
50 26 7.57812500000000333e-01
51 26 7.73437500000000222e-01
52 26 7.89062500000000444e-01
53 26 8.04687499999999778e-01
54 26 8.20312500000000222e-01
55 26 8.35937500000000111e-01
56 26 8.51562500000000222e-01
57 26 8.67187499999999778e-01
58 26 8.82812500000000000e-01
59 26 8.98437500000000111e-01
60 26 9.14062500000000111e-01
61 26 9.29687500000000222e-01
62 26 9.45312500000000333e-01
63 26 9.60937500000000111e-01
64 26 9.76562500000000000e-01
65 26 9.92187499999999778e-01
66 26 1.00000000000000000e+00
1 27 0.00000000000000000e+00
2 27 7.81250000000000000e-03
3 27 2.34375000000000000e-02
4 27 3.90625000000000000e-02
5 27 5.46874999999999792e-02
6 27 7.03124999999999861e-02
7 27 8.59375000000000278e-02
8 27 1.01562500000000000e-01
9 27 1.17187500000000000e-01
10 27 1.32812499999999944e-01
11 27 1.48437500000000028e-01
12 27 1.64062500000000000e-01
13 27 1.79687500000000000e-01
14 27 1.95312500000000000e-01
15 27 2.10937499999999944e-01
16 27 2.26562499999999944e-01
17 27 2.42187499999999944e-01
18 27 2.57812499999999944e-01
19 27 2.73437499999999944e-01
20 27 2.89062500000000000e-01
21 27 3.04687499999999833e-01
22 27 3.20312499999999889e-01
23 27 3.35937500000000056e-01
24 27 3.51562500000000056e-01
25 27 3.67187499999999889e-01
26 27 3.82812499999999944e-01
27 27 3.98437499999999944e-01
28 27 4.14062499999999889e-01
29 27 4.29687499999999778e-01
30 27 4.45312499999999833e-01
31 27 4.60937499999999889e-01
32 27 4.76562499999999778e-01
33 27 4.92187499999999833e-01
34 27 5.07812499999999778e-01
35 27 5.23437499999999667e-01
36 27 5.39062499999999889e-01
37 27 5.54687499999999556e-01
38 27 5.70312499999999556e-01
39 27 5.85937499999999778e-01
40 27 6.01562499999999778e-01
41 27 6.17187499999999889e-01
42 27 6.32812499999999778e-01
43 27 6.48437500000000000e-01
44 27 6.64062500000000222e-01
45 27 6.79687500000000111e-01
46 27 6.95312500000000000e-01
47 27 7.10937500000000000e-01
48 27 7.26562499999999889e-01
49 27 7.42187499999999778e-01
50 27 7.57812500000000222e-01
51 27 7.73437500000000222e-01
52 27 7.89062500000000444e-01
53 27 8.04687499999999778e-01
54 27 8.20312500000000222e-01
55 27 8.35937500000000111e-01
56 27 8.51562500000000222e-01
57 27 8.67187499999999778e-01
58 27 8.82812499999999889e-01
59 27 8.98437500000000111e-01
60 27 9.14062500000000111e-01
61 27 9.29687500000000111e-01
62 27 9.45312500000000333e-01
63 27 9.60937500000000000e-01
64 27 9.76562500000000000e-01
65 27 9.92187499999999667e-01
66 27 1.00000000000000000e+00
1 28 0.00000000000000000e+00
2 28 7.81250000000000000e-03
3 28 2.34375000000000000e-02
4 28 3.90625000000000000e-02
5 28 5.46874999999999792e-02
6 28 7.03124999999999861e-02
7 28 8.59375000000000278e-02
8 28 1.01562499999999986e-01
9 28 1.17187500000000000e-01
10 28 1.32812499999999944e-01
11 28 1.48437500000000028e-01
12 28 1.64062500000000000e-01
13 28 1.79687500000000000e-01
14 28 1.95312500000000000e-01
15 28 2.10937499999999944e-01
16 28 2.26562499999999944e-01
17 28 2.42187499999999944e-01
18 28 2.57812499999999944e-01
19 28 2.73437499999999889e-01
20 28 2.89062500000000000e-01
21 28 3.04687499999999833e-01
22 28 3.20312499999999889e-01
23 28 3.35937500000000056e-01
24 28 3.51562500000000056e-01
25 28 3.67187499999999889e-01
26 28 3.82812499999999944e-01
27 28 3.98437499999999944e-01
28 28 4.14062499999999889e-01
29 28 4.29687499999999778e-01
30 28 4.45312499999999833e-01
31 28 4.60937499999999889e-01
32 28 4.76562499999999778e-01
33 28 4.92187499999999833e-01
34 28 5.07812499999999778e-01
35 28 5.23437499999999667e-01
36 28 5.39062499999999889e-01
37 28 5.54687499999999556e-01
38 28 5.70312499999999556e-01
39 28 5.85937499999999778e-01
40 28 6.01562499999999778e-01
41 28 6.17187499999999889e-01
42 28 6.32812499999999778e-01
43 28 6.48437500000000000e-01
44 28 6.64062500000000222e-01
45 28 6.79687500000000111e-01
46 28 6.95312500000000000e-01
47 28 7.10937500000000111e-01
48 28 7.26562499999999889e-01
49 28 7.42187499999999778e-01
50 28 7.57812500000000222e-01
51 28 7.73437500000000222e-01
52 28 7.89062500000000444e-01
53 28 8.04687499999999778e-01
54 28 8.20312500000000222e-01
55 28 8.35937500000000111e-01
56 28 8.51562500000000222e-01
57 28 8.67187499999999778e-01
58 28 8.82812499999999889e-01
59 28 8.98437500000000111e-01
60 28 9.14062500000000111e-01
61 28 9.29687500000000111e-01
62 28 9.45312500000000333e-01
63 28 9.60937500000000000e-01
64 28 9.76562500000000000e-01
65 28 9.92187499999999667e-01
66 28 1.00000000000000000e+00
1 29 0.00000000000000000e+00
2 29 7.81250000000000000e-03
3 29 2.34374999999999965e-02
4 29 3.90625000000000000e-02
5 29 5.46874999999999792e-02
6 29 7.03124999999999861e-02
7 29 8.59375000000000139e-02
8 29 1.01562499999999972e-01
9 29 1.17187500000000000e-01
10 29 1.32812499999999944e-01
11 29 1.48437500000000028e-01
12 29 1.64062500000000000e-01
13 29 1.79687500000000000e-01
14 29 1.95312500000000000e-01
15 29 2.10937499999999944e-01
16 29 2.26562499999999944e-01
17 29 2.42187499999999944e-01
18 29 2.57812499999999944e-01
19 29 2.73437499999999889e-01
20 29 2.89062499999999944e-01
21 29 3.04687499999999833e-01
22 29 3.20312499999999833e-01
23 29 3.35937500000000056e-01
24 29 3.51562500000000056e-01
25 29 3.67187499999999889e-01
26 29 3.82812499999999944e-01
27 29 3.98437499999999889e-01
28 29 4.14062499999999889e-01
29 29 4.29687499999999722e-01
30 29 4.45312499999999833e-01
31 29 4.60937499999999833e-01
32 29 4.76562499999999778e-01
33 29 4.92187499999999833e-01
34 29 5.07812499999999778e-01
35 29 5.23437499999999667e-01
36 29 5.39062499999999889e-01
37 29 5.54687499999999556e-01
38 29 5.70312499999999556e-01
39 29 5.85937499999999667e-01
40 29 6.01562499999999778e-01
41 29 6.17187499999999889e-01
42 29 6.32812499999999778e-01
43 29 6.48437500000000000e-01
44 29 6.64062500000000222e-01
45 29 6.79687500000000000e-01
46 29 6.95312500000000000e-01
47 29 7.10937500000000111e-01
48 29 7.26562499999999889e-01
49 29 7.42187499999999778e-01
50 29 7.57812500000000222e-01
51 29 7.73437500000000222e-01
52 29 7.89062500000000333e-01
53 29 8.04687499999999667e-01
54 29 8.20312500000000222e-01
55 29 8.35937500000000111e-01
56 29 8.51562500000000222e-01
57 29 8.67187499999999667e-01
58 29 8.82812499999999889e-01
59 29 8.98437500000000111e-01
60 29 9.14062500000000111e-01
61 29 9.29687500000000111e-01
62 29 9.45312500000000333e-01
63 29 9.60937499999999889e-01
64 29 9.76562500000000000e-01
65 29 9.92187499999999667e-01
66 29 1.00000000000000000e+00
1 30 0.00000000000000000e+00
2 30 7.81250000000000000e-03
3 30 2.34374999999999965e-02
4 30 3.90625000000000069e-02
5 30 5.46874999999999792e-02
6 30 7.03124999999999861e-02
7 30 8.59375000000000139e-02
8 30 1.01562499999999972e-01
9 30 1.17187500000000000e-01
10 30 1.32812499999999944e-01
11 30 1.48437500000000028e-01
12 30 1.64062500000000028e-01
13 30 1.79687500000000000e-01
14 30 1.95312500000000000e-01
15 30 2.10937499999999944e-01
16 30 2.26562499999999944e-01
17 30 2.42187499999999944e-01
18 30 2.57812499999999944e-01
19 30 2.73437499999999889e-01
20 30 2.89062499999999944e-01
21 30 3.04687499999999833e-01
22 30 3.20312499999999833e-01
23 30 3.35937500000000056e-01
24 30 3.51562500000000056e-01
25 30 3.67187499999999889e-01
26 30 3.82812499999999944e-01
27 30 3.98437499999999944e-01
28 30 4.14062499999999889e-01
29 30 4.29687499999999778e-01
30 30 4.45312499999999833e-01
31 30 4.60937499999999833e-01
32 30 4.76562499999999778e-01
33 30 4.92187499999999833e-01
34 30 5.07812499999999778e-01
35 30 5.23437499999999667e-01
36 30 5.39062499999999889e-01
37 30 5.54687499999999667e-01
38 30 5.70312499999999556e-01
39 30 5.85937499999999667e-01
40 30 6.01562499999999778e-01
41 30 6.17187499999999889e-01
42 30 6.32812499999999778e-01
43 30 6.48437500000000111e-01
44 30 6.64062500000000333e-01
45 30 6.79687500000000000e-01
46 30 6.95312500000000000e-01
47 30 7.10937500000000111e-01
48 30 7.26562499999999889e-01
49 30 7.42187499999999778e-01
50 30 7.57812500000000222e-01
51 30 7.73437500000000222e-01
52 30 7.89062500000000333e-01
53 30 8.04687499999999667e-01
54 30 8.20312500000000222e-01
55 30 8.35937500000000111e-01
56 30 8.51562500000000222e-01
57 30 8.67187499999999778e-01
58 30 8.82812500000000000e-01
59 30 8.98437500000000111e-01
60 30 9.14062500000000111e-01
61 30 9.29687500000000111e-01
62 30 9.45312500000000333e-01
63 30 9.60937500000000000e-01
64 30 9.76562500000000000e-01
65 30 9.92187499999999667e-01
66 30 1.00000000000000000e+00
1 31 0.00000000000000000e+00
2 31 7.81250000000000000e-03
3 31 2.34374999999999965e-02
4 31 3.90625000000000069e-02
5 31 5.46874999999999722e-02
6 31 7.03124999999999861e-02
7 31 8.59375000000000139e-02
8 31 1.01562499999999958e-01
9 31 1.17187500000000000e-01
10 31 1.32812499999999944e-01
11 31 1.48437500000000028e-01
12 31 1.64062500000000028e-01
13 31 1.79687500000000000e-01
14 31 1.95312500000000000e-01
15 31 2.10937499999999944e-01
16 31 2.26562499999999944e-01
17 31 2.42187499999999944e-01
18 31 2.57812499999999944e-01
19 31 2.73437499999999944e-01
20 31 2.89062499999999944e-01
21 31 3.04687499999999833e-01
22 31 3.20312499999999833e-01
23 31 3.35937500000000056e-01
24 31 3.51562500000000056e-01
25 31 3.67187499999999889e-01
26 31 3.82812499999999944e-01
27 31 3.98437499999999944e-01
28 31 4.14062499999999889e-01
29 31 4.29687499999999778e-01
30 31 4.45312499999999833e-01
31 31 4.60937499999999833e-01
32 31 4.76562499999999778e-01
33 31 4.92187499999999833e-01
34 31 5.07812499999999778e-01
35 31 5.23437499999999667e-01
36 31 5.39062499999999889e-01
37 31 5.54687499999999667e-01
38 31 5.70312499999999556e-01
39 31 5.85937499999999667e-01
40 31 6.01562499999999778e-01
41 31 6.17187499999999889e-01
42 31 6.32812499999999778e-01
43 31 6.48437500000000111e-01
44 31 6.64062500000000333e-01
45 31 6.79687500000000000e-01
46 31 6.95312500000000000e-01
47 31 7.10937500000000111e-01
48 31 7.26562499999999889e-01
49 31 7.42187499999999778e-01
50 31 7.57812500000000222e-01
51 31 7.73437500000000222e-01
52 31 7.89062500000000333e-01
53 31 8.04687499999999667e-01
54 31 8.20312500000000222e-01
55 31 8.35937500000000111e-01
56 31 8.51562500000000222e-01
57 31 8.67187499999999778e-01
58 31 8.82812500000000000e-01
59 31 8.98437500000000222e-01
60 31 9.14062500000000111e-01
61 31 9.29687500000000111e-01
62 31 9.45312500000000333e-01
63 31 9.60937500000000000e-01
64 31 9.76562500000000000e-01
65 31 9.92187499999999667e-01
66 31 1.00000000000000000e+00
1 32 0.00000000000000000e+00
2 32 7.81250000000000000e-03
3 32 2.34374999999999965e-02
4 32 3.90625000000000069e-02
5 32 5.46874999999999722e-02
6 32 7.03124999999999861e-02
7 32 8.59375000000000139e-02
8 32 1.01562499999999958e-01
9 32 1.17187499999999986e-01
10 32 1.32812499999999944e-01
11 32 1.48437500000000028e-01
12 32 1.64062500000000000e-01
13 32 1.79687500000000000e-01
14 32 1.95312499999999972e-01
15 32 2.10937499999999917e-01
16 32 2.26562499999999917e-01
17 32 2.42187499999999917e-01
18 32 2.57812499999999944e-01
19 32 2.73437499999999944e-01
20 32 2.89062499999999889e-01
21 32 3.04687499999999778e-01
22 32 3.20312499999999833e-01
23 32 3.35937500000000056e-01
24 32 3.51562500000000000e-01
25 32 3.67187499999999889e-01
26 32 3.82812499999999944e-01
27 32 3.98437499999999944e-01
28 32 4.14062499999999833e-01
29 32 4.29687499999999722e-01
30 32 4.45312499999999833e-01
31 32 4.60937499999999833e-01
32 32 4.76562499999999778e-01
33 32 4.92187499999999778e-01
34 32 5.07812499999999778e-01
35 32 5.23437499999999667e-01
36 32 5.39062499999999778e-01
37 32 5.54687499999999667e-01
38 32 5.70312499999999556e-01
39 32 5.85937499999999667e-01
40 32 6.01562499999999667e-01
41 32 6.17187499999999889e-01
42 32 6.32812499999999778e-01
43 32 6.48437500000000000e-01
44 32 6.64062500000000333e-01
45 32 6.79687500000000000e-01
46 32 6.95312500000000000e-01
47 32 7.10937500000000000e-01
48 32 7.26562499999999889e-01
49 32 7.42187499999999778e-01
50 32 7.57812500000000222e-01
51 32 7.73437500000000222e-01
52 32 7.89062500000000333e-01
53 32 8.04687499999999667e-01
54 32 8.20312500000000111e-01
55 32 8.35937500000000000e-01
56 32 8.51562500000000222e-01
57 32 8.67187499999999778e-01
58 32 8.82812500000000000e-01
59 32 8.98437500000000111e-01
60 32 9.14062500000000111e-01
61 32 9.29687500000000111e-01
62 32 9.45312500000000222e-01
63 32 9.60937499999999889e-01
64 32 9.76562500000000000e-01
65 32 9.92187499999999667e-01
66 32 1.00000000000000000e+00
1 33 0.00000000000000000e+00
2 33 7.81250000000000000e-03
3 33 2.34374999999999965e-02
4 33 3.90625000000000069e-02
5 33 5.46874999999999722e-02
6 33 7.03124999999999861e-02
7 33 8.59375000000000139e-02
8 33 1.01562499999999958e-01
9 33 1.17187499999999986e-01
10 33 1.32812499999999944e-01
11 33 1.48437500000000028e-01
12 33 1.64062500000000000e-01
13 33 1.79687500000000000e-01
14 33 1.95312499999999972e-01
15 33 2.10937499999999917e-01
16 33 2.26562499999999917e-01
17 33 2.42187499999999917e-01
18 33 2.57812499999999944e-01
19 33 2.73437499999999944e-01
20 33 2.89062499999999889e-01
21 33 3.04687499999999778e-01
22 33 3.20312499999999833e-01
23 33 3.35937500000000056e-01
24 33 3.51562500000000000e-01
25 33 3.67187499999999889e-01
26 33 3.82812499999999944e-01
27 33 3.98437499999999944e-01
28 33 4.14062499999999833e-01
29 33 4.29687499999999722e-01
30 33 4.45312499999999833e-01
31 33 4.60937499999999833e-01
32 33 4.76562499999999778e-01
33 33 4.92187499999999778e-01
34 33 5.07812499999999778e-01
35 33 5.23437499999999667e-01
36 33 5.39062499999999778e-01
37 33 5.54687499999999667e-01
38 33 5.70312499999999556e-01
39 33 5.85937499999999667e-01
40 33 6.01562499999999667e-01
41 33 6.17187499999999889e-01
42 33 6.32812499999999778e-01
43 33 6.48437500000000000e-01
44 33 6.64062500000000333e-01
45 33 6.79687500000000000e-01
46 33 6.95312500000000000e-01
47 33 7.10937500000000000e-01
48 33 7.26562499999999889e-01
49 33 7.42187499999999778e-01
50 33 7.57812500000000222e-01
51 33 7.73437500000000222e-01
52 33 7.89062500000000333e-01
53 33 8.04687499999999667e-01
54 33 8.20312500000000111e-01
55 33 8.35937500000000000e-01
56 33 8.51562500000000222e-01
57 33 8.67187499999999778e-01
58 33 8.82812500000000000e-01
59 33 8.98437500000000111e-01
60 33 9.14062500000000111e-01
61 33 9.29687500000000111e-01
62 33 9.45312500000000222e-01
63 33 9.60937499999999889e-01
64 33 9.76562500000000000e-01
65 33 9.92187499999999667e-01
66 33 1.00000000000000000e+00
1 34 0.00000000000000000e+00
2 34 7.81250000000000000e-03
3 34 2.34374999999999965e-02
4 34 3.90625000000000069e-02
5 34 5.46874999999999722e-02
6 34 7.03124999999999861e-02
7 34 8.59375000000000139e-02
8 34 1.01562499999999958e-01
9 34 1.17187499999999972e-01
10 34 1.32812499999999944e-01
11 34 1.48437500000000000e-01
12 34 1.64062500000000000e-01
13 34 1.79687499999999972e-01
14 34 1.95312499999999944e-01
15 34 2.10937499999999889e-01
16 34 2.26562499999999889e-01
17 34 2.42187499999999889e-01
18 34 2.57812499999999944e-01
19 34 2.73437499999999944e-01
20 34 2.89062499999999889e-01
21 34 3.04687499999999778e-01
22 34 3.20312499999999833e-01
23 34 3.35937500000000000e-01
24 34 3.51562500000000000e-01
25 34 3.67187499999999889e-01
26 34 3.82812499999999944e-01
27 34 3.98437499999999889e-01
28 34 4.14062499999999833e-01
29 34 4.29687499999999722e-01
30 34 4.45312499999999833e-01
31 34 4.60937499999999778e-01
32 34 4.76562499999999722e-01
33 34 4.92187499999999778e-01
34 34 5.07812499999999778e-01
35 34 5.23437499999999667e-01
36 34 5.39062499999999778e-01
37 34 5.54687499999999667e-01
38 34 5.70312499999999556e-01
39 34 5.85937499999999556e-01
40 34 6.01562499999999556e-01
41 34 6.17187499999999889e-01
42 34 6.32812499999999778e-01
43 34 6.48437500000000000e-01
44 34 6.64062500000000222e-01
45 34 6.79687500000000000e-01
46 34 6.95312500000000000e-01
47 34 7.10937500000000000e-01
48 34 7.26562499999999778e-01
49 34 7.42187499999999778e-01
50 34 7.57812500000000222e-01
51 34 7.73437500000000222e-01
52 34 7.89062500000000222e-01
53 34 8.04687499999999667e-01
54 34 8.20312500000000111e-01
55 34 8.35937500000000000e-01
56 34 8.51562500000000111e-01
57 34 8.67187499999999778e-01
58 34 8.82812500000000000e-01
59 34 8.98437500000000111e-01
60 34 9.14062500000000000e-01
61 34 9.29687500000000111e-01
62 34 9.45312500000000111e-01
63 34 9.60937499999999889e-01
64 34 9.76562499999999889e-01
65 34 9.92187499999999667e-01
66 34 1.00000000000000000e+00
1 35 0.00000000000000000e+00
2 35 7.81250000000000000e-03
3 35 2.34374999999999965e-02
4 35 3.90625000000000069e-02
5 35 5.46874999999999722e-02
6 35 7.03124999999999861e-02
7 35 8.59375000000000139e-02
8 35 1.01562499999999958e-01
9 35 1.17187499999999972e-01
10 35 1.32812499999999944e-01
11 35 1.48437500000000000e-01
12 35 1.64062500000000000e-01
13 35 1.79687499999999972e-01
14 35 1.95312499999999944e-01
15 35 2.10937499999999917e-01
16 35 2.26562499999999917e-01
17 35 2.42187499999999889e-01
18 35 2.57812499999999944e-01
19 35 2.73437500000000000e-01
20 35 2.89062499999999889e-01
21 35 3.04687499999999778e-01
22 35 3.20312499999999889e-01
23 35 3.35937500000000000e-01
24 35 3.51562500000000000e-01
25 35 3.67187499999999889e-01
26 35 3.82812499999999944e-01
27 35 3.98437499999999889e-01
28 35 4.14062499999999833e-01
29 35 4.29687499999999722e-01
30 35 4.45312499999999833e-01
31 35 4.60937499999999778e-01
32 35 4.76562499999999722e-01
33 35 4.92187499999999778e-01
34 35 5.07812499999999778e-01
35 35 5.23437499999999667e-01
36 35 5.39062499999999778e-01
37 35 5.54687499999999667e-01
38 35 5.70312499999999556e-01
39 35 5.85937499999999556e-01
40 35 6.01562499999999556e-01
41 35 6.17187499999999889e-01
42 35 6.32812499999999778e-01
43 35 6.48437500000000000e-01
44 35 6.64062500000000222e-01
45 35 6.79687500000000000e-01
46 35 6.95312500000000000e-01
47 35 7.10937500000000000e-01
48 35 7.26562499999999778e-01
49 35 7.42187499999999889e-01
50 35 7.57812500000000222e-01
51 35 7.73437500000000222e-01
52 35 7.89062500000000222e-01
53 35 8.04687499999999667e-01
54 35 8.20312500000000111e-01
55 35 8.35937500000000000e-01
56 35 8.51562500000000222e-01
57 35 8.67187499999999778e-01
58 35 8.82812500000000111e-01
59 35 8.98437500000000111e-01
60 35 9.14062500000000111e-01
61 35 9.29687500000000111e-01
62 35 9.45312500000000111e-01
63 35 9.60937499999999889e-01
64 35 9.76562500000000000e-01
65 35 9.92187499999999667e-01
66 35 1.00000000000000000e+00
1 36 0.00000000000000000e+00
2 36 7.81250000000000000e-03
3 36 2.34374999999999965e-02
4 36 3.90625000000000069e-02
5 36 5.46874999999999792e-02
6 36 7.03124999999999861e-02
7 36 8.59375000000000139e-02
8 36 1.01562499999999958e-01
9 36 1.17187499999999972e-01
10 36 1.32812499999999944e-01
11 36 1.48437500000000000e-01
12 36 1.64062500000000000e-01
13 36 1.79687499999999972e-01
14 36 1.95312499999999944e-01
15 36 2.10937499999999944e-01
16 36 2.26562499999999944e-01
17 36 2.42187499999999917e-01
18 36 2.57812499999999944e-01
19 36 2.73437500000000000e-01
20 36 2.89062499999999889e-01
21 36 3.04687499999999778e-01
22 36 3.20312499999999889e-01
23 36 3.35937500000000000e-01
24 36 3.51562500000000000e-01
25 36 3.67187499999999889e-01
26 36 3.82812500000000000e-01
27 36 3.98437499999999889e-01
28 36 4.14062499999999889e-01
29 36 4.29687499999999722e-01
30 36 4.45312499999999889e-01
31 36 4.60937499999999778e-01
32 36 4.76562499999999778e-01
33 36 4.92187499999999778e-01
34 36 5.07812499999999778e-01
35 36 5.23437499999999667e-01
36 36 5.39062499999999778e-01
37 36 5.54687499999999667e-01
38 36 5.70312499999999556e-01
39 36 5.85937499999999556e-01
40 36 6.01562499999999667e-01
41 36 6.17187500000000000e-01
42 36 6.32812499999999778e-01
43 36 6.48437500000000000e-01
44 36 6.64062500000000222e-01
45 36 6.79687500000000000e-01
46 36 6.95312500000000000e-01
47 36 7.10937500000000000e-01
48 36 7.26562499999999778e-01
49 36 7.42187499999999889e-01
50 36 7.57812500000000222e-01
51 36 7.73437500000000222e-01
52 36 7.89062500000000222e-01
53 36 8.04687499999999667e-01
54 36 8.20312500000000111e-01
55 36 8.35937500000000000e-01
56 36 8.51562500000000222e-01
57 36 8.67187499999999778e-01
58 36 8.82812500000000111e-01
59 36 8.98437500000000111e-01
60 36 9.14062500000000111e-01
61 36 9.29687500000000111e-01
62 36 9.45312500000000111e-01
63 36 9.60937499999999889e-01
64 36 9.76562500000000111e-01
65 36 9.92187499999999667e-01
66 36 1.00000000000000000e+00
1 37 0.00000000000000000e+00
2 37 7.81250000000000000e-03
3 37 2.34375000000000000e-02
4 37 3.90625000000000069e-02
5 37 5.46874999999999861e-02
6 37 7.03124999999999861e-02
7 37 8.59375000000000139e-02
8 37 1.01562499999999972e-01
9 37 1.17187499999999972e-01
10 37 1.32812499999999972e-01
11 37 1.48437500000000028e-01
12 37 1.64062500000000000e-01
13 37 1.79687499999999972e-01
14 37 1.95312499999999944e-01
15 37 2.10937499999999944e-01
16 37 2.26562499999999944e-01
17 37 2.42187499999999917e-01
18 37 2.57812499999999944e-01
19 37 2.73437500000000000e-01
20 37 2.89062499999999889e-01
21 37 3.04687499999999778e-01
22 37 3.20312499999999889e-01
23 37 3.35937500000000056e-01
24 37 3.51562500000000000e-01
25 37 3.67187499999999944e-01
26 37 3.82812500000000000e-01
27 37 3.98437499999999889e-01
28 37 4.14062499999999889e-01
29 37 4.29687499999999722e-01
30 37 4.45312499999999889e-01
31 37 4.60937499999999778e-01
32 37 4.76562499999999778e-01
33 37 4.92187499999999778e-01
34 37 5.07812499999999778e-01
35 37 5.23437499999999667e-01
36 37 5.39062499999999778e-01
37 37 5.54687499999999667e-01
38 37 5.70312499999999556e-01
39 37 5.85937499999999667e-01
40 37 6.01562499999999667e-01
41 37 6.17187500000000000e-01
42 37 6.32812499999999778e-01
43 37 6.48437500000000000e-01
44 37 6.64062500000000222e-01
45 37 6.79687500000000000e-01
46 37 6.95312500000000000e-01
47 37 7.10937500000000000e-01
48 37 7.26562499999999778e-01
49 37 7.42187500000000000e-01
50 37 7.57812500000000333e-01
51 37 7.73437500000000222e-01
52 37 7.89062500000000222e-01
53 37 8.04687499999999778e-01
54 37 8.20312500000000222e-01
55 37 8.35937500000000000e-01
56 37 8.51562500000000222e-01
57 37 8.67187499999999889e-01
58 37 8.82812500000000222e-01
59 37 8.98437500000000111e-01
60 37 9.14062500000000111e-01
61 37 9.29687500000000111e-01
62 37 9.45312500000000111e-01
63 37 9.60937500000000000e-01
64 37 9.76562500000000111e-01
65 37 9.92187499999999667e-01
66 37 1.00000000000000000e+00
1 38 0.00000000000000000e+00
2 38 7.81250000000000000e-03
3 38 2.34375000000000000e-02
4 38 3.90625000000000069e-02
5 38 5.46874999999999861e-02
6 38 7.03124999999999861e-02
7 38 8.59375000000000139e-02
8 38 1.01562499999999986e-01
9 38 1.17187499999999972e-01
10 38 1.32812499999999972e-01
11 38 1.48437500000000028e-01
12 38 1.64062500000000000e-01
13 38 1.79687499999999972e-01
14 38 1.95312499999999944e-01
15 38 2.10937499999999944e-01
16 38 2.26562499999999944e-01
17 38 2.42187499999999917e-01
18 38 2.57812499999999944e-01
19 38 2.73437500000000000e-01
20 38 2.89062499999999889e-01
21 38 3.04687499999999778e-01
22 38 3.20312499999999889e-01
23 38 3.35937500000000056e-01
24 38 3.51562500000000000e-01
25 38 3.67187499999999944e-01
26 38 3.82812500000000000e-01
27 38 3.98437499999999889e-01
28 38 4.14062499999999889e-01
29 38 4.29687499999999722e-01
30 38 4.45312499999999889e-01
31 38 4.60937499999999778e-01
32 38 4.76562499999999833e-01
33 38 4.92187499999999778e-01
34 38 5.07812499999999778e-01
35 38 5.23437499999999667e-01
36 38 5.39062499999999778e-01
37 38 5.54687499999999667e-01
38 38 5.70312499999999667e-01
39 38 5.85937499999999667e-01
40 38 6.01562499999999667e-01
41 38 6.17187500000000000e-01
42 38 6.32812499999999778e-01
43 38 6.48437500000000000e-01
44 38 6.64062500000000222e-01
45 38 6.79687500000000000e-01
46 38 6.95312500000000000e-01
47 38 7.10937500000000000e-01
48 38 7.26562499999999778e-01
49 38 7.42187500000000000e-01
50 38 7.57812500000000333e-01
51 38 7.73437500000000222e-01
52 38 7.89062500000000222e-01
53 38 8.04687499999999778e-01
54 38 8.20312500000000222e-01
55 38 8.35937500000000111e-01
56 38 8.51562500000000222e-01
57 38 8.67187499999999889e-01
58 38 8.82812500000000222e-01
59 38 8.98437500000000222e-01
60 38 9.14062500000000111e-01
61 38 9.29687500000000111e-01
62 38 9.45312500000000111e-01
63 38 9.60937500000000000e-01
64 38 9.76562500000000111e-01
65 38 9.92187499999999778e-01
66 38 1.00000000000000000e+00
1 39 0.00000000000000000e+00
2 39 7.81250000000000000e-03
3 39 2.34374999999999965e-02
4 39 3.90625000000000069e-02
5 39 5.46874999999999861e-02
6 39 7.03124999999999861e-02
7 39 8.59375000000000000e-02
8 39 1.01562499999999986e-01
9 39 1.17187499999999972e-01
10 39 1.32812499999999972e-01
11 39 1.48437500000000028e-01
12 39 1.64062500000000000e-01
13 39 1.79687499999999972e-01
14 39 1.95312499999999944e-01
15 39 2.10937499999999917e-01
16 39 2.26562499999999917e-01
17 39 2.42187499999999889e-01
18 39 2.57812499999999944e-01
19 39 2.73437500000000000e-01
20 39 2.89062499999999889e-01
21 39 3.04687499999999722e-01
22 39 3.20312499999999889e-01
23 39 3.35937500000000056e-01
24 39 3.51562500000000000e-01
25 39 3.67187499999999944e-01
26 39 3.82812499999999944e-01
27 39 3.98437499999999889e-01
28 39 4.14062499999999833e-01
29 39 4.29687499999999722e-01
30 39 4.45312499999999833e-01
31 39 4.60937499999999778e-01
32 39 4.76562499999999778e-01
33 39 4.92187499999999778e-01
34 39 5.07812499999999778e-01
35 39 5.23437499999999667e-01
36 39 5.39062499999999667e-01
37 39 5.54687499999999667e-01
38 39 5.70312499999999667e-01
39 39 5.85937499999999667e-01
40 39 6.01562499999999556e-01
41 39 6.17187499999999889e-01
42 39 6.32812499999999778e-01
43 39 6.48437500000000000e-01
44 39 6.64062500000000222e-01
45 39 6.79687499999999889e-01
46 39 6.95312500000000000e-01
47 39 7.10937500000000000e-01
48 39 7.26562499999999778e-01
49 39 7.42187500000000000e-01
50 39 7.57812500000000333e-01
51 39 7.73437500000000222e-01
52 39 7.89062500000000222e-01
53 39 8.04687499999999778e-01
54 39 8.20312500000000222e-01
55 39 8.35937500000000000e-01
56 39 8.51562500000000222e-01
57 39 8.67187499999999889e-01
58 39 8.82812500000000222e-01
59 39 8.98437500000000111e-01
60 39 9.14062500000000000e-01
61 39 9.29687500000000111e-01
62 39 9.45312500000000111e-01
63 39 9.60937500000000000e-01
64 39 9.76562500000000000e-01
65 39 9.92187499999999778e-01
66 39 1.00000000000000000e+00
1 40 0.00000000000000000e+00
2 40 7.81250000000000000e-03
3 40 2.34374999999999965e-02
4 40 3.90625000000000069e-02
5 40 5.46874999999999931e-02
6 40 7.03124999999999861e-02
7 40 8.59375000000000000e-02
8 40 1.01562500000000000e-01
9 40 1.17187499999999972e-01
10 40 1.32812499999999972e-01
11 40 1.48437500000000028e-01
12 40 1.64062500000000000e-01
13 40 1.79687499999999972e-01
14 40 1.95312499999999972e-01
15 40 2.10937499999999944e-01
16 40 2.26562499999999944e-01
17 40 2.42187499999999917e-01
18 40 2.57812499999999944e-01
19 40 2.73437500000000000e-01
20 40 2.89062499999999889e-01
21 40 3.04687499999999722e-01
22 40 3.20312499999999889e-01
23 40 3.35937500000000056e-01
24 40 3.51562500000000000e-01
25 40 3.67187499999999944e-01
26 40 3.82812500000000000e-01
27 40 3.98437499999999944e-01
28 40 4.14062499999999889e-01
29 40 4.29687499999999778e-01
30 40 4.45312499999999889e-01
31 40 4.60937499999999833e-01
32 40 4.76562499999999833e-01
33 40 4.92187499999999833e-01
34 40 5.07812499999999778e-01
35 40 5.23437499999999667e-01
36 40 5.39062499999999667e-01
37 40 5.54687499999999667e-01
38 40 5.70312499999999778e-01
39 40 5.85937499999999778e-01
40 40 6.01562499999999667e-01
41 40 6.17187500000000000e-01
42 40 6.32812499999999889e-01
43 40 6.48437500000000000e-01
44 40 6.64062500000000222e-01
45 40 6.79687499999999889e-01
46 40 6.95312500000000000e-01
47 40 7.10937500000000000e-01
48 40 7.26562499999999778e-01
49 40 7.42187500000000000e-01
50 40 7.57812500000000333e-01
51 40 7.73437500000000222e-01
52 40 7.89062500000000222e-01
53 40 8.04687499999999778e-01
54 40 8.20312500000000222e-01
55 40 8.35937500000000000e-01
56 40 8.51562500000000222e-01
57 40 8.67187499999999889e-01
58 40 8.82812500000000222e-01
59 40 8.98437500000000111e-01
60 40 9.14062500000000000e-01
61 40 9.29687500000000111e-01
62 40 9.45312500000000111e-01
63 40 9.60937500000000000e-01
64 40 9.76562500000000000e-01
65 40 9.92187499999999778e-01
66 40 1.00000000000000000e+00
1 41 0.00000000000000000e+00
2 41 7.81250000000000000e-03
3 41 2.34374999999999965e-02
4 41 3.90625000000000069e-02
5 41 5.46875000000000000e-02
6 41 7.03125000000000000e-02
7 41 8.59375000000000000e-02
8 41 1.01562500000000000e-01
9 41 1.17187499999999972e-01
10 41 1.32812500000000000e-01
11 41 1.48437500000000028e-01
12 41 1.64062500000000000e-01
13 41 1.79687500000000000e-01
14 41 1.95312499999999972e-01
15 41 2.10937499999999944e-01
16 41 2.26562499999999944e-01
17 41 2.42187499999999917e-01
18 41 2.57812499999999944e-01
19 41 2.73437500000000000e-01
20 41 2.89062499999999889e-01
21 41 3.04687499999999778e-01
22 41 3.20312499999999944e-01
23 41 3.35937500000000111e-01
24 41 3.51562500000000000e-01
25 41 3.67187499999999944e-01
26 41 3.82812500000000000e-01
27 41 3.98437500000000000e-01
28 41 4.14062499999999889e-01
29 41 4.29687499999999778e-01
30 41 4.45312499999999889e-01
31 41 4.60937499999999889e-01
32 41 4.76562499999999889e-01
33 41 4.92187499999999833e-01
34 41 5.07812499999999778e-01
35 41 5.23437499999999667e-01
36 41 5.39062499999999667e-01
37 41 5.54687499999999667e-01
38 41 5.70312499999999889e-01
39 41 5.85937499999999778e-01
40 41 6.01562499999999778e-01
41 41 6.17187500000000000e-01
42 41 6.32812499999999889e-01
43 41 6.48437500000000000e-01
44 41 6.64062500000000222e-01
45 41 6.79687500000000000e-01
46 41 6.95312500000000000e-01
47 41 7.10937500000000000e-01
48 41 7.26562499999999889e-01
49 41 7.42187500000000000e-01
50 41 7.57812500000000444e-01
51 41 7.73437500000000222e-01
52 41 7.89062500000000333e-01
53 41 8.04687499999999889e-01
54 41 8.20312500000000222e-01
55 41 8.35937500000000111e-01
56 41 8.51562500000000222e-01
57 41 8.67187500000000000e-01
58 41 8.82812500000000222e-01
59 41 8.98437500000000111e-01
60 41 9.14062500000000000e-01
61 41 9.29687500000000111e-01
62 41 9.45312500000000222e-01
63 41 9.60937500000000111e-01
64 41 9.76562500000000000e-01
65 41 9.92187499999999889e-01
66 41 1.00000000000000000e+00
1 42 0.00000000000000000e+00
2 42 7.81250000000000000e-03
3 42 2.34374999999999965e-02
4 42 3.90625000000000069e-02
5 42 5.46875000000000000e-02
6 42 7.03125000000000000e-02
7 42 8.59375000000000000e-02
8 42 1.01562500000000000e-01
9 42 1.17187499999999972e-01
10 42 1.32812500000000000e-01
11 42 1.48437500000000056e-01
12 42 1.64062500000000000e-01
13 42 1.79687500000000028e-01
14 42 1.95312499999999972e-01
15 42 2.10937499999999944e-01
16 42 2.26562499999999944e-01
17 42 2.42187499999999917e-01
18 42 2.57812499999999944e-01
19 42 2.73437500000000056e-01
20 42 2.89062499999999889e-01
21 42 3.04687499999999833e-01
22 42 3.20312499999999944e-01
23 42 3.35937500000000111e-01
24 42 3.51562500000000000e-01
25 42 3.67187500000000000e-01
26 42 3.82812500000000000e-01
27 42 3.98437500000000056e-01
28 42 4.14062499999999889e-01
29 42 4.29687499999999833e-01
30 42 4.45312499999999889e-01
31 42 4.60937499999999944e-01
32 42 4.76562499999999889e-01
33 42 4.92187499999999889e-01
34 42 5.07812499999999778e-01
35 42 5.23437499999999778e-01
36 42 5.39062499999999778e-01
37 42 5.54687499999999778e-01
38 42 5.70312499999999889e-01
39 42 5.85937499999999778e-01
40 42 6.01562499999999889e-01
41 42 6.17187500000000000e-01
42 42 6.32812499999999889e-01
43 42 6.48437500000000000e-01
44 42 6.64062500000000333e-01
45 42 6.79687500000000000e-01
46 42 6.95312500000000000e-01
47 42 7.10937500000000000e-01
48 42 7.26562500000000000e-01
49 42 7.42187500000000111e-01
50 42 7.57812500000000444e-01
51 42 7.73437500000000222e-01
52 42 7.89062500000000444e-01
53 42 8.04687500000000000e-01
54 42 8.20312500000000222e-01
55 42 8.35937500000000111e-01
56 42 8.51562500000000333e-01
57 42 8.67187500000000111e-01
58 42 8.82812500000000222e-01
59 42 8.98437500000000111e-01
60 42 9.14062500000000111e-01
61 42 9.29687500000000222e-01
62 42 9.45312500000000222e-01
63 42 9.60937500000000111e-01
64 42 9.76562500000000111e-01
65 42 9.92187500000000000e-01
66 42 1.00000000000000000e+00
1 43 0.00000000000000000e+00
2 43 7.81250000000000000e-03
3 43 2.34375000000000000e-02
4 43 3.90625000000000069e-02
5 43 5.46875000000000069e-02
6 43 7.03125000000000000e-02
7 43 8.59375000000000000e-02
8 43 1.01562500000000014e-01
9 43 1.17187499999999986e-01
10 43 1.32812500000000000e-01
11 43 1.48437500000000056e-01
12 43 1.64062500000000000e-01
13 43 1.79687500000000056e-01
14 43 1.95312500000000000e-01
15 43 2.10937499999999972e-01
16 43 2.26562499999999972e-01
17 43 2.42187499999999944e-01
18 43 2.57812499999999944e-01
19 43 2.73437500000000111e-01
20 43 2.89062499999999944e-01
21 43 3.04687499999999889e-01
22 43 3.20312500000000000e-01
23 43 3.35937500000000111e-01
24 43 3.51562500000000056e-01
25 43 3.67187500000000000e-01
26 43 3.82812500000000000e-01
27 43 3.98437500000000056e-01
28 43 4.14062499999999889e-01
29 43 4.29687499999999833e-01
30 43 4.45312499999999889e-01
31 43 4.60937499999999944e-01
32 43 4.76562499999999889e-01
33 43 4.92187499999999889e-01
34 43 5.07812499999999778e-01
35 43 5.23437499999999778e-01
36 43 5.39062499999999889e-01
37 43 5.54687499999999778e-01
38 43 5.70312500000000000e-01
39 43 5.85937499999999778e-01
40 43 6.01562499999999889e-01
41 43 6.17187500000000111e-01
42 43 6.32812499999999889e-01
43 43 6.48437500000000111e-01
44 43 6.64062500000000333e-01
45 43 6.79687500000000111e-01
46 43 6.95312500000000000e-01
47 43 7.10937500000000111e-01
48 43 7.26562500000000000e-01
49 43 7.42187500000000222e-01
50 43 7.57812500000000444e-01
51 43 7.73437500000000333e-01
52 43 7.89062500000000555e-01
53 43 8.04687500000000111e-01
54 43 8.20312500000000222e-01
55 43 8.35937500000000222e-01
56 43 8.51562500000000444e-01
57 43 8.67187500000000222e-01
58 43 8.82812500000000333e-01
59 43 8.98437500000000222e-01
60 43 9.14062500000000222e-01
61 43 9.29687500000000222e-01
62 43 9.45312500000000333e-01
63 43 9.60937500000000111e-01
64 43 9.76562500000000222e-01
65 43 9.92187500000000111e-01
66 43 1.00000000000000000e+00
1 44 0.00000000000000000e+00
2 44 7.81250000000000000e-03
3 44 2.34375000000000000e-02
4 44 3.90625000000000069e-02
5 44 5.46875000000000069e-02
6 44 7.03125000000000000e-02
7 44 8.59375000000000000e-02
8 44 1.01562500000000014e-01
9 44 1.17187499999999986e-01
10 44 1.32812500000000000e-01
11 44 1.48437500000000028e-01
12 44 1.64062500000000000e-01
13 44 1.79687500000000056e-01
14 44 1.95312500000000000e-01
15 44 2.10937499999999972e-01
16 44 2.26562499999999972e-01
17 44 2.42187499999999944e-01
18 44 2.57812499999999944e-01
19 44 2.73437500000000111e-01
20 44 2.89062499999999944e-01
21 44 3.04687499999999889e-01
22 44 3.20312500000000000e-01
23 44 3.35937500000000111e-01
24 44 3.51562500000000056e-01
25 44 3.67187500000000000e-01
26 44 3.82812500000000000e-01
27 44 3.98437500000000056e-01
28 44 4.14062499999999889e-01
29 44 4.29687499999999833e-01
30 44 4.45312499999999889e-01
31 44 4.60937499999999889e-01
32 44 4.76562499999999889e-01
33 44 4.92187499999999833e-01
34 44 5.07812499999999778e-01
35 44 5.23437499999999778e-01
36 44 5.39062499999999889e-01
37 44 5.54687499999999778e-01
38 44 5.70312500000000000e-01
39 44 5.85937499999999778e-01
40 44 6.01562499999999889e-01
41 44 6.17187500000000111e-01
42 44 6.32812499999999889e-01
43 44 6.48437500000000111e-01
44 44 6.64062500000000333e-01
45 44 6.79687500000000111e-01
46 44 6.95312500000000000e-01
47 44 7.10937500000000111e-01
48 44 7.26562500000000000e-01
49 44 7.42187500000000222e-01
50 44 7.57812500000000444e-01
51 44 7.73437500000000333e-01
52 44 7.89062500000000555e-01
53 44 8.04687500000000222e-01
54 44 8.20312500000000222e-01
55 44 8.35937500000000111e-01
56 44 8.51562500000000444e-01
57 44 8.67187500000000222e-01
58 44 8.82812500000000333e-01
59 44 8.98437500000000222e-01
60 44 9.14062500000000222e-01
61 44 9.29687500000000222e-01
62 44 9.45312500000000333e-01
63 44 9.60937500000000111e-01
64 44 9.76562500000000222e-01
65 44 9.92187500000000111e-01
66 44 1.00000000000000000e+00
1 45 0.00000000000000000e+00
2 45 7.81250000000000000e-03
3 45 2.34375000000000000e-02
4 45 3.90625000000000000e-02
5 45 5.46875000000000069e-02
6 45 7.03125000000000000e-02
7 45 8.59375000000000000e-02
8 45 1.01562500000000014e-01
9 45 1.17187499999999986e-01
10 45 1.32812500000000000e-01
11 45 1.48437500000000028e-01
12 45 1.64062500000000000e-01
13 45 1.79687500000000028e-01
14 45 1.95312500000000000e-01
15 45 2.10937499999999972e-01
16 45 2.26562499999999972e-01
17 45 2.42187499999999944e-01
18 45 2.57812499999999944e-01
19 45 2.73437500000000056e-01
20 45 2.89062499999999944e-01
21 45 3.04687499999999889e-01
22 45 3.20312500000000000e-01
23 45 3.35937500000000111e-01
24 45 3.51562500000000056e-01
25 45 3.67187500000000000e-01
26 45 3.82812500000000000e-01
27 45 3.98437500000000000e-01
28 45 4.14062499999999889e-01
29 45 4.29687499999999833e-01
30 45 4.45312499999999889e-01
31 45 4.60937499999999889e-01
32 45 4.76562499999999833e-01
33 45 4.92187499999999833e-01
34 45 5.07812499999999778e-01
35 45 5.23437499999999778e-01
36 45 5.39062499999999778e-01
37 45 5.54687499999999778e-01
38 45 5.70312500000000000e-01
39 45 5.85937499999999778e-01
40 45 6.01562499999999889e-01
41 45 6.17187500000000111e-01
42 45 6.32812499999999778e-01
43 45 6.48437500000000111e-01
44 45 6.64062500000000333e-01
45 45 6.79687500000000111e-01
46 45 6.95312500000000000e-01
47 45 7.10937500000000000e-01
48 45 7.26562500000000000e-01
49 45 7.42187500000000222e-01
50 45 7.57812500000000444e-01
51 45 7.73437500000000333e-01
52 45 7.89062500000000555e-01
53 45 8.04687500000000222e-01
54 45 8.20312500000000222e-01
55 45 8.35937500000000111e-01
56 45 8.51562500000000444e-01
57 45 8.67187500000000222e-01
58 45 8.82812500000000333e-01
59 45 8.98437500000000222e-01
60 45 9.14062500000000222e-01
61 45 9.29687500000000222e-01
62 45 9.45312500000000333e-01
63 45 9.60937500000000111e-01
64 45 9.76562500000000111e-01
65 45 9.92187500000000111e-01
66 45 1.00000000000000000e+00
1 46 0.00000000000000000e+00
2 46 7.81250000000000000e-03
3 46 2.34375000000000000e-02
4 46 3.90625000000000000e-02
5 46 5.46875000000000069e-02
6 46 7.03125000000000000e-02
7 46 8.59375000000000000e-02
8 46 1.01562500000000014e-01
9 46 1.17187499999999986e-01
10 46 1.32812499999999972e-01
11 46 1.48437500000000028e-01
12 46 1.64062500000000000e-01
13 46 1.79687500000000028e-01
14 46 1.95312500000000000e-01
15 46 2.10937499999999972e-01
16 46 2.26562499999999972e-01
17 46 2.42187499999999944e-01
18 46 2.57812499999999944e-01
19 46 2.73437500000000056e-01
20 46 2.89062499999999889e-01
21 46 3.04687499999999889e-01
22 46 3.20312500000000000e-01
23 46 3.35937500000000111e-01
24 46 3.51562500000000056e-01
25 46 3.67187500000000000e-01
26 46 3.82812500000000000e-01
27 46 3.98437500000000000e-01
28 46 4.14062499999999889e-01
29 46 4.29687499999999833e-01
30 46 4.45312499999999889e-01
31 46 4.60937499999999889e-01
32 46 4.76562499999999833e-01
33 46 4.92187499999999833e-01
34 46 5.07812499999999778e-01
35 46 5.23437499999999778e-01
36 46 5.39062499999999778e-01
37 46 5.54687499999999778e-01
38 46 5.70312500000000000e-01
39 46 5.85937499999999778e-01
40 46 6.01562499999999889e-01
41 46 6.17187500000000111e-01
42 46 6.32812499999999778e-01
43 46 6.48437500000000111e-01
44 46 6.64062500000000333e-01
45 46 6.79687500000000111e-01
46 46 6.95312500000000000e-01
47 46 7.10937500000000000e-01
48 46 7.26562500000000000e-01
49 46 7.42187500000000222e-01
50 46 7.57812500000000333e-01
51 46 7.73437500000000222e-01
52 46 7.89062500000000555e-01
53 46 8.04687500000000222e-01
54 46 8.20312500000000111e-01
55 46 8.35937500000000000e-01
56 46 8.51562500000000333e-01
57 46 8.67187500000000111e-01
58 46 8.82812500000000333e-01
59 46 8.98437500000000111e-01
60 46 9.14062500000000222e-01
61 46 9.29687500000000222e-01
62 46 9.45312500000000333e-01
63 46 9.60937500000000000e-01
64 46 9.76562500000000111e-01
65 46 9.92187500000000111e-01
66 46 1.00000000000000000e+00
1 47 0.00000000000000000e+00
2 47 7.81250000000000000e-03
3 47 2.34375000000000000e-02
4 47 3.90625000000000000e-02
5 47 5.46875000000000069e-02
6 47 7.03125000000000000e-02
7 47 8.59375000000000000e-02
8 47 1.01562500000000014e-01
9 47 1.17187499999999986e-01
10 47 1.32812499999999972e-01
11 47 1.48437500000000028e-01
12 47 1.64062500000000000e-01
13 47 1.79687500000000028e-01
14 47 1.95312500000000000e-01
15 47 2.10937499999999944e-01
16 47 2.26562499999999972e-01
17 47 2.42187499999999944e-01
18 47 2.57812499999999944e-01
19 47 2.73437500000000056e-01
20 47 2.89062499999999889e-01
21 47 3.04687499999999889e-01
22 47 3.20312500000000000e-01
23 47 3.35937500000000111e-01
24 47 3.51562500000000000e-01
25 47 3.67187500000000000e-01
26 47 3.82812500000000000e-01
27 47 3.98437500000000000e-01
28 47 4.14062499999999889e-01
29 47 4.29687499999999833e-01
30 47 4.45312499999999833e-01
31 47 4.60937499999999889e-01
32 47 4.76562499999999833e-01
33 47 4.92187499999999778e-01
34 47 5.07812499999999778e-01
35 47 5.23437499999999778e-01
36 47 5.39062499999999778e-01
37 47 5.54687499999999778e-01
38 47 5.70312500000000000e-01
39 47 5.85937499999999778e-01
40 47 6.01562499999999889e-01
41 47 6.17187500000000111e-01
42 47 6.32812499999999778e-01
43 47 6.48437500000000111e-01
44 47 6.64062500000000333e-01
45 47 6.79687500000000111e-01
46 47 6.95312500000000000e-01
47 47 7.10937500000000000e-01
48 47 7.26562500000000000e-01
49 47 7.42187500000000111e-01
50 47 7.57812500000000333e-01
51 47 7.73437500000000222e-01
52 47 7.89062500000000555e-01
53 47 8.04687500000000222e-01
54 47 8.20312500000000111e-01
55 47 8.35937500000000000e-01
56 47 8.51562500000000333e-01
57 47 8.67187500000000111e-01
58 47 8.82812500000000333e-01
59 47 8.98437500000000111e-01
60 47 9.14062500000000222e-01
61 47 9.29687500000000111e-01
62 47 9.45312500000000333e-01
63 47 9.60937500000000000e-01
64 47 9.76562500000000111e-01
65 47 9.92187500000000111e-01
66 47 1.00000000000000000e+00
1 48 0.00000000000000000e+00
2 48 7.81250000000000000e-03
3 48 2.34375000000000000e-02
4 48 3.90625000000000000e-02
5 48 5.46875000000000000e-02
6 48 7.03125000000000000e-02
7 48 8.59374999999999861e-02
8 48 1.01562500000000014e-01
9 48 1.17187499999999986e-01
10 48 1.32812499999999972e-01
11 48 1.48437500000000028e-01
12 48 1.64062500000000000e-01
13 48 1.79687500000000028e-01
14 48 1.95312500000000000e-01
15 48 2.10937499999999944e-01
16 48 2.26562499999999944e-01
17 48 2.42187499999999944e-01
18 48 2.57812499999999944e-01
19 48 2.73437500000000056e-01
20 48 2.89062499999999889e-01
21 48 3.04687499999999889e-01
22 48 3.20312500000000000e-01
23 48 3.35937500000000056e-01
24 48 3.51562500000000000e-01
25 48 3.67187500000000000e-01
26 48 3.82812500000000000e-01
27 48 3.98437500000000000e-01
28 48 4.14062499999999889e-01
29 48 4.29687499999999833e-01
30 48 4.45312499999999778e-01
31 48 4.60937499999999889e-01
32 48 4.76562499999999833e-01
33 48 4.92187499999999778e-01
34 48 5.07812499999999778e-01
35 48 5.23437499999999667e-01
36 48 5.39062499999999778e-01
37 48 5.54687499999999778e-01
38 48 5.70312500000000000e-01
39 48 5.85937499999999778e-01
40 48 6.01562499999999889e-01
41 48 6.17187500000000111e-01
42 48 6.32812499999999778e-01
43 48 6.48437500000000000e-01
44 48 6.64062500000000222e-01
45 48 6.79687500000000000e-01
46 48 6.95312499999999889e-01
47 48 7.10937500000000000e-01
48 48 7.26562500000000000e-01
49 48 7.42187500000000111e-01
50 48 7.57812500000000333e-01
51 48 7.73437500000000222e-01
52 48 7.89062500000000555e-01
53 48 8.04687500000000222e-01
54 48 8.20312500000000111e-01
55 48 8.35937500000000000e-01
56 48 8.51562500000000222e-01
57 48 8.67187500000000000e-01
58 48 8.82812500000000222e-01
59 48 8.98437500000000111e-01
60 48 9.14062500000000222e-01
61 48 9.29687500000000111e-01
62 48 9.45312500000000333e-01
63 48 9.60937500000000000e-01
64 48 9.76562500000000111e-01
65 48 9.92187500000000111e-01
66 48 1.00000000000000000e+00
1 49 0.00000000000000000e+00
2 49 7.81250000000000000e-03
3 49 2.34375000000000000e-02
4 49 3.90625000000000000e-02
5 49 5.46874999999999931e-02
6 49 7.03125000000000000e-02
7 49 8.59374999999999722e-02
8 49 1.01562500000000014e-01
9 49 1.17187499999999986e-01
10 49 1.32812499999999972e-01
11 49 1.48437500000000000e-01
12 49 1.64062500000000000e-01
13 49 1.79687500000000028e-01
14 49 1.95312499999999972e-01
15 49 2.10937499999999944e-01
16 49 2.26562499999999944e-01
17 49 2.42187499999999944e-01
18 49 2.57812499999999944e-01
19 49 2.73437500000000000e-01
20 49 2.89062499999999889e-01
21 49 3.04687499999999889e-01
22 49 3.20312499999999944e-01
23 49 3.35937500000000056e-01
24 49 3.51562500000000000e-01
25 49 3.67187499999999944e-01
26 49 3.82812500000000000e-01
27 49 3.98437500000000000e-01
28 49 4.14062499999999833e-01
29 49 4.29687499999999833e-01
30 49 4.45312499999999778e-01
31 49 4.60937499999999889e-01
32 49 4.76562499999999833e-01
33 49 4.92187499999999722e-01
34 49 5.07812499999999778e-01
35 49 5.23437499999999667e-01
36 49 5.39062499999999778e-01
37 49 5.54687499999999778e-01
38 49 5.70312500000000000e-01
39 49 5.85937499999999778e-01
40 49 6.01562499999999889e-01
41 49 6.17187500000000000e-01
42 49 6.32812499999999778e-01
43 49 6.48437500000000000e-01
44 49 6.64062500000000222e-01
45 49 6.79687500000000000e-01
46 49 6.95312499999999889e-01
47 49 7.10937499999999889e-01
48 49 7.26562500000000000e-01
49 49 7.42187500000000111e-01
50 49 7.57812500000000222e-01
51 49 7.73437500000000222e-01
52 49 7.89062500000000555e-01
53 49 8.04687500000000111e-01
54 49 8.20312500000000111e-01
55 49 8.35937500000000000e-01
56 49 8.51562500000000111e-01
57 49 8.67187500000000000e-01
58 49 8.82812500000000222e-01
59 49 8.98437500000000000e-01
60 49 9.14062500000000222e-01
61 49 9.29687500000000111e-01
62 49 9.45312500000000222e-01
63 49 9.60937500000000000e-01
64 49 9.76562500000000111e-01
65 49 9.92187500000000111e-01
66 49 1.00000000000000000e+00
1 50 0.00000000000000000e+00
2 50 7.81250000000000000e-03
3 50 2.34375000000000000e-02
4 50 3.90625000000000000e-02
5 50 5.46875000000000000e-02
6 50 7.03125000000000000e-02
7 50 8.59374999999999861e-02
8 50 1.01562500000000014e-01
9 50 1.17187500000000000e-01
10 50 1.32812500000000000e-01
11 50 1.48437500000000000e-01
12 50 1.64062500000000000e-01
13 50 1.79687500000000028e-01
14 50 1.95312500000000000e-01
15 50 2.10937499999999972e-01
16 50 2.26562499999999944e-01
17 50 2.42187499999999944e-01
18 50 2.57812499999999944e-01
19 50 2.73437500000000000e-01
20 50 2.89062499999999944e-01
21 50 3.04687499999999889e-01
22 50 3.20312500000000000e-01
23 50 3.35937500000000111e-01
24 50 3.51562500000000000e-01
25 50 3.67187500000000000e-01
26 50 3.82812500000000000e-01
27 50 3.98437500000000000e-01
28 50 4.14062499999999833e-01
29 50 4.29687499999999833e-01
30 50 4.45312499999999833e-01
31 50 4.60937499999999889e-01
32 50 4.76562499999999889e-01
33 50 4.92187499999999722e-01
34 50 5.07812499999999778e-01
35 50 5.23437499999999667e-01
36 50 5.39062499999999778e-01
37 50 5.54687499999999889e-01
38 50 5.70312500000000000e-01
39 50 5.85937499999999778e-01
40 50 6.01562499999999889e-01
41 50 6.17187500000000000e-01
42 50 6.32812499999999778e-01
43 50 6.48437500000000000e-01
44 50 6.64062500000000222e-01
45 50 6.79687500000000000e-01
46 50 6.95312499999999889e-01
47 50 7.10937500000000000e-01
48 50 7.26562500000000000e-01
49 50 7.42187500000000111e-01
50 50 7.57812500000000333e-01
51 50 7.73437500000000222e-01
52 50 7.89062500000000555e-01
53 50 8.04687500000000222e-01
54 50 8.20312500000000111e-01
55 50 8.35937500000000000e-01
56 50 8.51562500000000222e-01
57 50 8.67187500000000111e-01
58 50 8.82812500000000222e-01
59 50 8.98437500000000000e-01
60 50 9.14062500000000333e-01
61 50 9.29687500000000111e-01
62 50 9.45312500000000222e-01
63 50 9.60937500000000111e-01
64 50 9.76562500000000111e-01
65 50 9.92187500000000111e-01
66 50 1.00000000000000000e+00
1 51 0.00000000000000000e+00
2 51 7.81250000000000000e-03
3 51 2.34375000000000000e-02
4 51 3.90625000000000000e-02
5 51 5.46875000000000000e-02
6 51 7.03125000000000139e-02
7 51 8.59375000000000000e-02
8 51 1.01562500000000028e-01
9 51 1.17187500000000014e-01
10 51 1.32812500000000000e-01
11 51 1.48437500000000000e-01
12 51 1.64062500000000000e-01
13 51 1.79687500000000028e-01
14 51 1.95312500000000000e-01
15 51 2.10937500000000000e-01
16 51 2.26562499999999944e-01
17 51 2.42187499999999972e-01
18 51 2.57812499999999944e-01
19 51 2.73437500000000000e-01
20 51 2.89062500000000000e-01
21 51 3.04687499999999889e-01
22 51 3.20312500000000000e-01
23 51 3.35937500000000111e-01
24 51 3.51562500000000056e-01
25 51 3.67187500000000000e-01
26 51 3.82812500000000000e-01
27 51 3.98437500000000000e-01
28 51 4.14062499999999889e-01
29 51 4.29687499999999889e-01
30 51 4.45312499999999833e-01
31 51 4.60937499999999889e-01
32 51 4.76562499999999944e-01
33 51 4.92187499999999778e-01
34 51 5.07812499999999778e-01
35 51 5.23437499999999778e-01
36 51 5.39062499999999778e-01
37 51 5.54687499999999889e-01
38 51 5.70312500000000000e-01
39 51 5.85937499999999778e-01
40 51 6.01562499999999889e-01
41 51 6.17187500000000000e-01
42 51 6.32812499999999778e-01
43 51 6.48437500000000000e-01
44 51 6.64062500000000222e-01
45 51 6.79687500000000000e-01
46 51 6.95312499999999889e-01
47 51 7.10937500000000000e-01
48 51 7.26562500000000000e-01
49 51 7.42187500000000222e-01
50 51 7.57812500000000444e-01
51 51 7.73437500000000222e-01
52 51 7.89062500000000555e-01
53 51 8.04687500000000222e-01
54 51 8.20312500000000111e-01
55 51 8.35937500000000000e-01
56 51 8.51562500000000222e-01
57 51 8.67187500000000222e-01
58 51 8.82812500000000333e-01
59 51 8.98437500000000111e-01
60 51 9.14062500000000333e-01
61 51 9.29687500000000111e-01
62 51 9.45312500000000222e-01
63 51 9.60937500000000111e-01
64 51 9.76562500000000111e-01
65 51 9.92187500000000111e-01
66 51 1.00000000000000000e+00
1 52 0.00000000000000000e+00
2 52 7.81250000000000000e-03
3 52 2.34375000000000000e-02
4 52 3.90625000000000000e-02
5 52 5.46875000000000000e-02
6 52 7.03125000000000139e-02
7 52 8.59375000000000000e-02
8 52 1.01562500000000028e-01
9 52 1.17187500000000014e-01
10 52 1.32812500000000000e-01
11 52 1.48437500000000000e-01
12 52 1.64062500000000000e-01
13 52 1.79687500000000028e-01
14 52 1.95312500000000000e-01
15 52 2.10937500000000000e-01
16 52 2.26562499999999944e-01
17 52 2.42187499999999972e-01
18 52 2.57812499999999944e-01
19 52 2.73437500000000000e-01
20 52 2.89062500000000000e-01
21 52 3.04687499999999889e-01
22 52 3.20312500000000000e-01
23 52 3.35937500000000111e-01
24 52 3.51562500000000056e-01
25 52 3.67187500000000000e-01
26 52 3.82812500000000000e-01
27 52 3.98437500000000000e-01
28 52 4.14062499999999889e-01
29 52 4.29687499999999889e-01
30 52 4.45312499999999833e-01
31 52 4.60937499999999889e-01
32 52 4.76562499999999944e-01
33 52 4.92187499999999778e-01
34 52 5.07812499999999778e-01
35 52 5.23437499999999778e-01
36 52 5.39062499999999778e-01
37 52 5.54687499999999889e-01
38 52 5.70312500000000000e-01
39 52 5.85937499999999778e-01
40 52 6.01562499999999889e-01
41 52 6.17187500000000000e-01
42 52 6.32812499999999778e-01
43 52 6.48437500000000000e-01
44 52 6.64062500000000222e-01
45 52 6.79687500000000000e-01
46 52 6.95312499999999889e-01
47 52 7.10937500000000000e-01
48 52 7.26562500000000000e-01
49 52 7.42187500000000222e-01
50 52 7.57812500000000333e-01
51 52 7.73437500000000222e-01
52 52 7.89062500000000444e-01
53 52 8.04687500000000222e-01
54 52 8.20312500000000000e-01
55 52 8.35937500000000000e-01
56 52 8.51562500000000111e-01
57 52 8.67187500000000222e-01
58 52 8.82812500000000333e-01
59 52 8.98437500000000000e-01
60 52 9.14062500000000222e-01
61 52 9.29687500000000000e-01
62 52 9.45312500000000111e-01
63 52 9.60937500000000000e-01
64 52 9.76562500000000111e-01
65 52 9.92187500000000000e-01
66 52 1.00000000000000000e+00
1 53 0.00000000000000000e+00
2 53 7.81250000000000000e-03
3 53 2.34375000000000000e-02
4 53 3.90625000000000000e-02
5 53 5.46875000000000000e-02
6 53 7.03125000000000139e-02
7 53 8.59375000000000000e-02
8 53 1.01562500000000028e-01
9 53 1.17187500000000014e-01
10 53 1.32812500000000000e-01
11 53 1.48437500000000000e-01
12 53 1.64062500000000000e-01
13 53 1.79687500000000028e-01
14 53 1.95312500000000000e-01
15 53 2.10937499999999972e-01
16 53 2.26562499999999917e-01
17 53 2.42187499999999944e-01
18 53 2.57812499999999944e-01
19 53 2.73437500000000000e-01
20 53 2.89062500000000000e-01
21 53 3.04687499999999889e-01
22 53 3.20312500000000000e-01
23 53 3.35937500000000111e-01
24 53 3.51562500000000000e-01
25 53 3.67187500000000000e-01
26 53 3.82812499999999944e-01
27 53 3.98437500000000000e-01
28 53 4.14062499999999889e-01
29 53 4.29687499999999889e-01
30 53 4.45312499999999778e-01
31 53 4.60937499999999889e-01
32 53 4.76562499999999944e-01
33 53 4.92187499999999778e-01
34 53 5.07812499999999778e-01
35 53 5.23437499999999778e-01
36 53 5.39062499999999778e-01
37 53 5.54687499999999889e-01
38 53 5.70312500000000000e-01
39 53 5.85937499999999778e-01
40 53 6.01562499999999778e-01
41 53 6.17187500000000000e-01
42 53 6.32812499999999778e-01
43 53 6.48437500000000000e-01
44 53 6.64062500000000222e-01
45 53 6.79687500000000000e-01
46 53 6.95312499999999889e-01
47 53 7.10937500000000000e-01
48 53 7.26562500000000000e-01
49 53 7.42187500000000111e-01
50 53 7.57812500000000333e-01
51 53 7.73437500000000222e-01
52 53 7.89062500000000444e-01
53 53 8.04687500000000222e-01
54 53 8.20312500000000000e-01
55 53 8.35937500000000000e-01
56 53 8.51562500000000111e-01
57 53 8.67187500000000222e-01
58 53 8.82812500000000333e-01
59 53 8.98437500000000000e-01
60 53 9.14062500000000222e-01
61 53 9.29687500000000000e-01
62 53 9.45312500000000000e-01
63 53 9.60937500000000000e-01
64 53 9.76562500000000111e-01
65 53 9.92187500000000000e-01
66 53 1.00000000000000000e+00
1 54 0.00000000000000000e+00
2 54 7.81250000000000000e-03
3 54 2.34375000000000000e-02
4 54 3.90625000000000000e-02
5 54 5.46875000000000000e-02
6 54 7.03125000000000139e-02
7 54 8.59375000000000000e-02
8 54 1.01562500000000028e-01
9 54 1.17187500000000014e-01
10 54 1.32812500000000000e-01
11 54 1.48437500000000000e-01
12 54 1.64062500000000000e-01
13 54 1.79687500000000028e-01
14 54 1.95312500000000000e-01
15 54 2.10937499999999972e-01
16 54 2.26562499999999917e-01
17 54 2.42187499999999944e-01
18 54 2.57812499999999944e-01
19 54 2.73437500000000000e-01
20 54 2.89062500000000000e-01
21 54 3.04687499999999889e-01
22 54 3.20312500000000000e-01
23 54 3.35937500000000111e-01
24 54 3.51562499999999944e-01
25 54 3.67187500000000000e-01
26 54 3.82812499999999944e-01
27 54 3.98437500000000000e-01
28 54 4.14062499999999889e-01
29 54 4.29687499999999889e-01
30 54 4.45312499999999778e-01
31 54 4.60937499999999889e-01
32 54 4.76562499999999944e-01
33 54 4.92187499999999778e-01
34 54 5.07812499999999778e-01
35 54 5.23437499999999778e-01
36 54 5.39062499999999778e-01
37 54 5.54687499999999889e-01
38 54 5.70312500000000000e-01
39 54 5.85937499999999778e-01
40 54 6.01562499999999778e-01
41 54 6.17187500000000000e-01
42 54 6.32812499999999778e-01
43 54 6.48437500000000000e-01
44 54 6.64062500000000222e-01
45 54 6.79687500000000000e-01
46 54 6.95312499999999889e-01
47 54 7.10937500000000000e-01
48 54 7.26562500000000000e-01
49 54 7.42187500000000111e-01
50 54 7.57812500000000333e-01
51 54 7.73437500000000222e-01
52 54 7.89062500000000444e-01
53 54 8.04687500000000222e-01
54 54 8.20312500000000000e-01
55 54 8.35937500000000000e-01
56 54 8.51562500000000111e-01
57 54 8.67187500000000333e-01
58 54 8.82812500000000333e-01
59 54 8.98437500000000000e-01
60 54 9.14062500000000222e-01
61 54 9.29687500000000000e-01
62 54 9.45312500000000000e-01
63 54 9.60937499999999889e-01
64 54 9.76562500000000111e-01
65 54 9.92187500000000000e-01
66 54 1.00000000000000000e+00
1 55 0.00000000000000000e+00
2 55 7.81250000000000000e-03
3 55 2.34374999999999965e-02
4 55 3.90625000000000000e-02
5 55 5.46874999999999931e-02
6 55 7.03125000000000000e-02
7 55 8.59375000000000000e-02
8 55 1.01562500000000028e-01
9 55 1.17187500000000014e-01
10 55 1.32812500000000000e-01
11 55 1.48437500000000000e-01
12 55 1.64062499999999972e-01
13 55 1.79687500000000028e-01
14 55 1.95312500000000000e-01
15 55 2.10937499999999972e-01
16 55 2.26562499999999917e-01
17 55 2.42187499999999917e-01
18 55 2.57812499999999944e-01
19 55 2.73437500000000000e-01
20 55 2.89062499999999944e-01
21 55 3.04687499999999889e-01
22 55 3.20312500000000000e-01
23 55 3.35937500000000056e-01
24 55 3.51562499999999944e-01
25 55 3.67187500000000000e-01
26 55 3.82812499999999889e-01
27 55 3.98437500000000000e-01
28 55 4.14062499999999889e-01
29 55 4.29687499999999833e-01
30 55 4.45312499999999778e-01
31 55 4.60937499999999889e-01
32 55 4.76562499999999889e-01
33 55 4.92187499999999778e-01
34 55 5.07812499999999778e-01
35 55 5.23437499999999778e-01
36 55 5.39062499999999778e-01
37 55 5.54687499999999778e-01
38 55 5.70312500000000000e-01
39 55 5.85937499999999778e-01
40 55 6.01562499999999778e-01
41 55 6.17187500000000000e-01
42 55 6.32812499999999778e-01
43 55 6.48437500000000000e-01
44 55 6.64062500000000111e-01
45 55 6.79687499999999889e-01
46 55 6.95312499999999889e-01
47 55 7.10937500000000000e-01
48 55 7.26562500000000000e-01
49 55 7.42187500000000111e-01
50 55 7.57812500000000222e-01
51 55 7.73437500000000111e-01
52 55 7.89062500000000333e-01
53 55 8.04687500000000222e-01
54 55 8.20312500000000000e-01
55 55 8.35937500000000000e-01
56 55 8.51562500000000111e-01
57 55 8.67187500000000222e-01
58 55 8.82812500000000222e-01
59 55 8.98437500000000000e-01
60 55 9.14062500000000222e-01
61 55 9.29687500000000000e-01
62 55 9.45312500000000000e-01
63 55 9.60937499999999778e-01
64 55 9.76562500000000000e-01
65 55 9.92187500000000000e-01
66 55 1.00000000000000000e+00
1 56 0.00000000000000000e+00
2 56 7.81250000000000000e-03
3 56 2.34375000000000000e-02
4 56 3.90625000000000000e-02
5 56 5.46874999999999931e-02
6 56 7.03125000000000000e-02
7 56 8.59375000000000000e-02
8 56 1.01562500000000028e-01
9 56 1.17187500000000014e-01
10 56 1.32812500000000000e-01
11 56 1.48437500000000000e-01
12 56 1.64062500000000000e-01
13 56 1.79687500000000028e-01
14 56 1.95312500000000000e-01
15 56 2.10937499999999972e-01
16 56 2.26562499999999917e-01
17 56 2.42187499999999944e-01
18 56 2.57812499999999944e-01
19 56 2.73437500000000000e-01
20 56 2.89062499999999944e-01
21 56 3.04687499999999944e-01
22 56 3.20312500000000000e-01
23 56 3.35937500000000056e-01
24 56 3.51562499999999944e-01
25 56 3.67187500000000000e-01
26 56 3.82812499999999889e-01
27 56 3.98437500000000000e-01
28 56 4.14062499999999889e-01
29 56 4.29687499999999833e-01
30 56 4.45312499999999778e-01
31 56 4.60937499999999944e-01
32 56 4.76562499999999889e-01
33 56 4.92187499999999778e-01
34 56 5.07812499999999778e-01
35 56 5.23437499999999778e-01
36 56 5.39062499999999778e-01
37 56 5.54687499999999778e-01
38 56 5.70312500000000000e-01
39 56 5.85937499999999889e-01
40 56 6.01562499999999778e-01
41 56 6.17187500000000000e-01
42 56 6.32812499999999889e-01
43 56 6.48437500000000000e-01
44 56 6.64062500000000111e-01
45 56 6.79687500000000000e-01
46 56 6.95312499999999889e-01
47 56 7.10937500000000000e-01
48 56 7.26562500000000111e-01
49 56 7.42187500000000111e-01
50 56 7.57812500000000222e-01
51 56 7.73437500000000222e-01
52 56 7.89062500000000333e-01
53 56 8.04687500000000222e-01
54 56 8.20312500000000000e-01
55 56 8.35937500000000000e-01
56 56 8.51562500000000111e-01
57 56 8.67187500000000222e-01
58 56 8.82812500000000222e-01
59 56 8.98437500000000000e-01
60 56 9.14062500000000222e-01
61 56 9.29687500000000000e-01
62 56 9.45312500000000000e-01
63 56 9.60937499999999778e-01
64 56 9.76562500000000000e-01
65 56 9.92187500000000000e-01
66 56 1.00000000000000000e+00
1 57 0.00000000000000000e+00
2 57 7.81250000000000000e-03
3 57 2.34375000000000000e-02
4 57 3.90625000000000000e-02
5 57 5.46874999999999931e-02
6 57 7.03125000000000000e-02
7 57 8.59375000000000000e-02
8 57 1.01562500000000028e-01
9 57 1.17187500000000000e-01
10 57 1.32812500000000000e-01
11 57 1.48437500000000000e-01
12 57 1.64062500000000000e-01
13 57 1.79687500000000000e-01
14 57 1.95312500000000000e-01
15 57 2.10937499999999972e-01
16 57 2.26562499999999917e-01
17 57 2.42187499999999944e-01
18 57 2.57812499999999944e-01
19 57 2.73437500000000000e-01
20 57 2.89062499999999944e-01
21 57 3.04687499999999944e-01
22 57 3.20312500000000000e-01
23 57 3.35937500000000056e-01
24 57 3.51562499999999944e-01
25 57 3.67187500000000000e-01
26 57 3.82812499999999889e-01
27 57 3.98437500000000000e-01
28 57 4.14062499999999889e-01
29 57 4.29687499999999833e-01
30 57 4.45312499999999778e-01
31 57 4.60937499999999944e-01
32 57 4.76562499999999833e-01
33 57 4.92187499999999778e-01
34 57 5.07812499999999778e-01
35 57 5.23437499999999778e-01
36 57 5.39062499999999778e-01
37 57 5.54687499999999778e-01
38 57 5.70312500000000000e-01
39 57 5.85937499999999889e-01
40 57 6.01562499999999778e-01
41 57 6.17187500000000000e-01
42 57 6.32812499999999889e-01
43 57 6.48437500000000000e-01
44 57 6.64062500000000000e-01
45 57 6.79687500000000000e-01
46 57 6.95312499999999889e-01
47 57 7.10937500000000000e-01
48 57 7.26562500000000111e-01
49 57 7.42187500000000111e-01
50 57 7.57812500000000222e-01
51 57 7.73437500000000222e-01
52 57 7.89062500000000333e-01
53 57 8.04687500000000222e-01
54 57 8.20312500000000000e-01
55 57 8.35937500000000000e-01
56 57 8.51562500000000111e-01
57 57 8.67187500000000222e-01
58 57 8.82812500000000222e-01
59 57 8.98437500000000000e-01
60 57 9.14062500000000222e-01
61 57 9.29687500000000000e-01
62 57 9.45312500000000000e-01
63 57 9.60937499999999778e-01
64 57 9.76562500000000000e-01
65 57 9.92187499999999889e-01
66 57 1.00000000000000000e+00
1 58 0.00000000000000000e+00
2 58 7.81250000000000000e-03
3 58 2.34375000000000000e-02
4 58 3.90625000000000000e-02
5 58 5.46874999999999931e-02
6 58 7.03125000000000000e-02
7 58 8.59375000000000000e-02
8 58 1.01562500000000028e-01
9 58 1.17187500000000000e-01
10 58 1.32812500000000000e-01
11 58 1.48437500000000000e-01
12 58 1.64062500000000000e-01
13 58 1.79687500000000000e-01
14 58 1.95312500000000000e-01
15 58 2.10937499999999972e-01
16 58 2.26562499999999917e-01
17 58 2.42187499999999944e-01
18 58 2.57812499999999944e-01
19 58 2.73437500000000000e-01
20 58 2.89062499999999944e-01
21 58 3.04687499999999944e-01
22 58 3.20312500000000000e-01
23 58 3.35937500000000056e-01
24 58 3.51562499999999944e-01
25 58 3.67187500000000000e-01
26 58 3.82812499999999889e-01
27 58 3.98437500000000000e-01
28 58 4.14062499999999889e-01
29 58 4.29687499999999833e-01
30 58 4.45312499999999778e-01
31 58 4.60937499999999944e-01
32 58 4.76562499999999833e-01
33 58 4.92187499999999778e-01
34 58 5.07812499999999778e-01
35 58 5.23437499999999778e-01
36 58 5.39062499999999778e-01
37 58 5.54687499999999778e-01
38 58 5.70312500000000000e-01
39 58 5.85937499999999889e-01
40 58 6.01562499999999778e-01
41 58 6.17187500000000000e-01
42 58 6.32812499999999889e-01
43 58 6.48437500000000000e-01
44 58 6.64062500000000000e-01
45 58 6.79687500000000000e-01
46 58 6.95312499999999889e-01
47 58 7.10937500000000000e-01
48 58 7.26562500000000111e-01
49 58 7.42187500000000111e-01
50 58 7.57812500000000222e-01
51 58 7.73437500000000222e-01
52 58 7.89062500000000333e-01
53 58 8.04687500000000222e-01
54 58 8.20312500000000000e-01
55 58 8.35937500000000111e-01
56 58 8.51562500000000111e-01
57 58 8.67187500000000222e-01
58 58 8.82812500000000222e-01
59 58 8.98437500000000000e-01
60 58 9.14062500000000222e-01
61 58 9.29687500000000000e-01
62 58 9.45312500000000000e-01
63 58 9.60937499999999778e-01
64 58 9.76562500000000000e-01
65 58 9.92187499999999889e-01
66 58 1.00000000000000000e+00
1 59 0.00000000000000000e+00
2 59 7.81250000000000000e-03
3 59 2.34375000000000000e-02
4 59 3.90625000000000000e-02
5 59 5.46874999999999931e-02
6 59 7.03125000000000000e-02
7 59 8.59375000000000000e-02
8 59 1.01562500000000014e-01
9 59 1.17187499999999986e-01
10 59 1.32812500000000000e-01
11 59 1.48437500000000000e-01
12 59 1.64062499999999972e-01
13 59 1.79687500000000000e-01
14 59 1.95312500000000000e-01
15 59 2.10937499999999972e-01
16 59 2.26562499999999917e-01
17 59 2.42187499999999944e-01
18 59 2.57812499999999944e-01
19 59 2.73437500000000000e-01
20 59 2.89062499999999944e-01
21 59 3.04687499999999944e-01
22 59 3.20312499999999944e-01
23 59 3.35937500000000000e-01
24 59 3.51562499999999944e-01
25 59 3.67187500000000000e-01
26 59 3.82812499999999889e-01
27 59 3.98437499999999944e-01
28 59 4.14062499999999833e-01
29 59 4.29687499999999833e-01
30 59 4.45312499999999778e-01
31 59 4.60937499999999889e-01
32 59 4.76562499999999778e-01
33 59 4.92187499999999778e-01
34 59 5.07812499999999778e-01
35 59 5.23437499999999778e-01
36 59 5.39062499999999778e-01
37 59 5.54687499999999778e-01
38 59 5.70312499999999889e-01
39 59 5.85937499999999778e-01
40 59 6.01562499999999778e-01
41 59 6.17187500000000000e-01
42 59 6.32812499999999889e-01
43 59 6.48437500000000000e-01
44 59 6.64062500000000000e-01
45 59 6.79687500000000000e-01
46 59 6.95312499999999889e-01
47 59 7.10937499999999889e-01
48 59 7.26562500000000000e-01
49 59 7.42187500000000000e-01
50 59 7.57812500000000111e-01
51 59 7.73437500000000222e-01
52 59 7.89062500000000333e-01
53 59 8.04687500000000222e-01
54 59 8.20312500000000000e-01
55 59 8.35937500000000111e-01
56 59 8.51562500000000111e-01
57 59 8.67187500000000111e-01
58 59 8.82812500000000111e-01
59 59 8.98437499999999889e-01
60 59 9.14062500000000111e-01
61 59 9.29687500000000000e-01
62 59 9.45312500000000000e-01
63 59 9.60937499999999778e-01
64 59 9.76562500000000000e-01
65 59 9.92187499999999889e-01
66 59 1.00000000000000000e+00
1 60 0.00000000000000000e+00
2 60 7.81250000000000000e-03
3 60 2.34375000000000000e-02
4 60 3.90625000000000000e-02
5 60 5.46874999999999931e-02
6 60 7.03125000000000139e-02
7 60 8.59375000000000000e-02
8 60 1.01562500000000014e-01
9 60 1.17187499999999986e-01
10 60 1.32812500000000000e-01
11 60 1.48437500000000000e-01
12 60 1.64062499999999972e-01
13 60 1.79687500000000000e-01
14 60 1.95312500000000000e-01
15 60 2.10937499999999972e-01
16 60 2.26562499999999917e-01
17 60 2.42187499999999944e-01
18 60 2.57812499999999944e-01
19 60 2.73437500000000000e-01
20 60 2.89062499999999944e-01
21 60 3.04687499999999944e-01
22 60 3.20312499999999944e-01
23 60 3.35937500000000000e-01
24 60 3.51562499999999944e-01
25 60 3.67187500000000000e-01
26 60 3.82812499999999889e-01
27 60 3.98437499999999944e-01
28 60 4.14062499999999889e-01
29 60 4.29687499999999833e-01
30 60 4.45312499999999833e-01
31 60 4.60937499999999889e-01
32 60 4.76562499999999833e-01
33 60 4.92187499999999778e-01
34 60 5.07812499999999778e-01
35 60 5.23437499999999778e-01
36 60 5.39062499999999778e-01
37 60 5.54687499999999778e-01
38 60 5.70312499999999889e-01
39 60 5.85937499999999778e-01
40 60 6.01562499999999778e-01
41 60 6.17187500000000000e-01
42 60 6.32812499999999889e-01
43 60 6.48437500000000000e-01
44 60 6.64062500000000000e-01
45 60 6.79687500000000000e-01
46 60 6.95312500000000000e-01
47 60 7.10937499999999889e-01
48 60 7.26562500000000000e-01
49 60 7.42187500000000000e-01
50 60 7.57812500000000111e-01
51 60 7.73437500000000222e-01
52 60 7.89062500000000333e-01
53 60 8.04687500000000222e-01
54 60 8.20312500000000000e-01
55 60 8.35937500000000111e-01
56 60 8.51562500000000111e-01
57 60 8.67187500000000111e-01
58 60 8.82812500000000111e-01
59 60 8.98437500000000000e-01
60 60 9.14062500000000111e-01
61 60 9.29687500000000000e-01
62 60 9.45312500000000000e-01
63 60 9.60937499999999889e-01
64 60 9.76562500000000000e-01
65 60 9.92187499999999889e-01
66 60 1.00000000000000000e+00
1 61 0.00000000000000000e+00
2 61 7.81250000000000000e-03
3 61 2.34375000000000000e-02
4 61 3.90625000000000000e-02
5 61 5.46874999999999931e-02
6 61 7.03125000000000139e-02
7 61 8.59375000000000000e-02
8 61 1.01562500000000014e-01
9 61 1.17187499999999986e-01
10 61 1.32812500000000000e-01
11 61 1.48437500000000000e-01
12 61 1.64062499999999972e-01
13 61 1.79687500000000000e-01
14 61 1.95312500000000000e-01
15 61 2.10937499999999972e-01
16 61 2.26562499999999917e-01
17 61 2.42187499999999944e-01
18 61 2.57812499999999944e-01
19 61 2.73437500000000000e-01
20 61 2.89062499999999944e-01
21 61 3.04687499999999944e-01
22 61 3.20312499999999944e-01
23 61 3.35937500000000000e-01
24 61 3.51562499999999944e-01
25 61 3.67187499999999944e-01
26 61 3.82812499999999889e-01
27 61 3.98437499999999889e-01
28 61 4.14062499999999889e-01
29 61 4.29687499999999833e-01
30 61 4.45312499999999833e-01
31 61 4.60937499999999889e-01
32 61 4.76562499999999833e-01
33 61 4.92187499999999778e-01
34 61 5.07812499999999778e-01
35 61 5.23437499999999778e-01
36 61 5.39062499999999778e-01
37 61 5.54687499999999778e-01
38 61 5.70312499999999889e-01
39 61 5.85937499999999778e-01
40 61 6.01562499999999778e-01
41 61 6.17187499999999889e-01
42 61 6.32812499999999889e-01
43 61 6.48437500000000000e-01
44 61 6.64062500000000000e-01
45 61 6.79687500000000000e-01
46 61 6.95312500000000000e-01
47 61 7.10937499999999889e-01
48 61 7.26562500000000000e-01
49 61 7.42187500000000000e-01
50 61 7.57812500000000111e-01
51 61 7.73437500000000222e-01
52 61 7.89062500000000222e-01
53 61 8.04687500000000222e-01
54 61 8.20312500000000000e-01
55 61 8.35937500000000111e-01
56 61 8.51562500000000000e-01
57 61 8.67187500000000111e-01
58 61 8.82812500000000111e-01
59 61 8.98437500000000000e-01
60 61 9.14062500000000111e-01
61 61 9.29687500000000000e-01
62 61 9.45312500000000000e-01
63 61 9.60937499999999889e-01
64 61 9.76562500000000000e-01
65 61 9.92187499999999889e-01
66 61 1.00000000000000000e+00
1 62 0.00000000000000000e+00
2 62 7.81250000000000000e-03
3 62 2.34375000000000000e-02
4 62 3.90625000000000000e-02
5 62 5.46875000000000000e-02
6 62 7.03125000000000139e-02
7 62 8.59375000000000000e-02
8 62 1.01562500000000014e-01
9 62 1.17187500000000000e-01
10 62 1.32812500000000000e-01
11 62 1.48437500000000000e-01
12 62 1.64062500000000000e-01
13 62 1.79687500000000000e-01
14 62 1.95312500000000000e-01
15 62 2.10937499999999972e-01
16 62 2.26562499999999944e-01
17 62 2.42187499999999944e-01
18 62 2.57812499999999944e-01
19 62 2.73437500000000000e-01
20 62 2.89062499999999944e-01
21 62 3.04687499999999944e-01
22 62 3.20312499999999944e-01
23 62 3.35937500000000000e-01
24 62 3.51562499999999944e-01
25 62 3.67187499999999944e-01
26 62 3.82812499999999889e-01
27 62 3.98437499999999944e-01
28 62 4.14062499999999889e-01
29 62 4.29687499999999833e-01
30 62 4.45312499999999833e-01
31 62 4.60937499999999889e-01
32 62 4.76562499999999833e-01
33 62 4.92187499999999778e-01
34 62 5.07812499999999778e-01
35 62 5.23437499999999778e-01
36 62 5.39062499999999778e-01
37 62 5.54687499999999778e-01
38 62 5.70312499999999889e-01
39 62 5.85937499999999778e-01
40 62 6.01562499999999889e-01
41 62 6.17187499999999889e-01
42 62 6.32812499999999889e-01
43 62 6.48437500000000000e-01
44 62 6.64062500000000000e-01
45 62 6.79687500000000111e-01
46 62 6.95312500000000000e-01
47 62 7.10937500000000000e-01
48 62 7.26562500000000000e-01
49 62 7.42187500000000000e-01
50 62 7.57812500000000111e-01
51 62 7.73437500000000222e-01
52 62 7.89062500000000333e-01
53 62 8.04687500000000222e-01
54 62 8.20312500000000111e-01
55 62 8.35937500000000111e-01
56 62 8.51562500000000111e-01
57 62 8.67187500000000111e-01
58 62 8.82812500000000111e-01
59 62 8.98437500000000000e-01
60 62 9.14062500000000111e-01
61 62 9.29687500000000111e-01
62 62 9.45312500000000000e-01
63 62 9.60937500000000000e-01
64 62 9.76562500000000000e-01
65 62 9.92187500000000000e-01
66 62 1.00000000000000000e+00
1 63 0.00000000000000000e+00
2 63 7.81250000000000000e-03
3 63 2.34375000000000000e-02
4 63 3.90625000000000000e-02
5 63 5.46875000000000000e-02
6 63 7.03125000000000000e-02
7 63 8.59375000000000000e-02
8 63 1.01562500000000000e-01
9 63 1.17187500000000000e-01
10 63 1.32812500000000000e-01
11 63 1.48437500000000000e-01
12 63 1.64062500000000000e-01
13 63 1.79687500000000000e-01
14 63 1.95312500000000000e-01
15 63 2.10937499999999972e-01
16 63 2.26562499999999944e-01
17 63 2.42187499999999944e-01
18 63 2.57812499999999944e-01
19 63 2.73437499999999944e-01
20 63 2.89062499999999944e-01
21 63 3.04687499999999944e-01
22 63 3.20312499999999944e-01
23 63 3.35937499999999944e-01
24 63 3.51562499999999944e-01
25 63 3.67187499999999944e-01
26 63 3.82812499999999889e-01
27 63 3.98437499999999889e-01
28 63 4.14062499999999889e-01
29 63 4.29687499999999833e-01
30 63 4.45312499999999833e-01
31 63 4.60937499999999833e-01
32 63 4.76562499999999778e-01
33 63 4.92187499999999778e-01
34 63 5.07812499999999778e-01
35 63 5.23437499999999778e-01
36 63 5.39062499999999778e-01
37 63 5.54687499999999778e-01
38 63 5.70312499999999778e-01
39 63 5.85937499999999778e-01
40 63 6.01562499999999889e-01
41 63 6.17187499999999889e-01
42 63 6.32812499999999889e-01
43 63 6.48437500000000000e-01
44 63 6.64062500000000000e-01
45 63 6.79687500000000000e-01
46 63 6.95312500000000000e-01
47 63 7.10937500000000000e-01
48 63 7.26562500000000000e-01
49 63 7.42187500000000000e-01
50 63 7.57812500000000111e-01
51 63 7.73437500000000222e-01
52 63 7.89062500000000222e-01
53 63 8.04687500000000111e-01
54 63 8.20312500000000111e-01
55 63 8.35937500000000111e-01
56 63 8.51562500000000111e-01
57 63 8.67187500000000111e-01
58 63 8.82812500000000111e-01
59 63 8.98437500000000000e-01
60 63 9.14062500000000000e-01
61 63 9.29687500000000000e-01
62 63 9.45312500000000000e-01
63 63 9.60937500000000000e-01
64 63 9.76562500000000000e-01
65 63 9.92187500000000000e-01
66 63 1.00000000000000000e+00
1 64 0.00000000000000000e+00
2 64 7.81250000000000000e-03
3 64 2.34375000000000000e-02
4 64 3.90625000000000000e-02
5 64 5.46875000000000000e-02
6 64 7.03125000000000000e-02
7 64 8.59375000000000000e-02
8 64 1.01562500000000000e-01
9 64 1.17187500000000000e-01
10 64 1.32812500000000000e-01
11 64 1.48437500000000000e-01
12 64 1.64062500000000000e-01
13 64 1.79687500000000000e-01
14 64 1.95312500000000000e-01
15 64 2.10937499999999972e-01
16 64 2.26562499999999944e-01
17 64 2.42187499999999944e-01
18 64 2.57812499999999944e-01
19 64 2.73437499999999944e-01
20 64 2.89062499999999944e-01
21 64 3.04687499999999944e-01
22 64 3.20312499999999944e-01
23 64 3.35937499999999944e-01
24 64 3.51562499999999944e-01
25 64 3.67187499999999944e-01
26 64 3.82812499999999889e-01
27 64 3.98437499999999889e-01
28 64 4.14062499999999889e-01
29 64 4.29687499999999833e-01
30 64 4.45312499999999833e-01
31 64 4.60937499999999833e-01
32 64 4.76562499999999778e-01
33 64 4.92187499999999778e-01
34 64 5.07812499999999778e-01
35 64 5.23437499999999778e-01
36 64 5.39062499999999778e-01
37 64 5.54687499999999778e-01
38 64 5.70312499999999778e-01
39 64 5.85937499999999778e-01
40 64 6.01562499999999889e-01
41 64 6.17187499999999889e-01
42 64 6.32812499999999889e-01
43 64 6.48437500000000000e-01
44 64 6.64062500000000000e-01
45 64 6.79687500000000000e-01
46 64 6.95312500000000000e-01
47 64 7.10937500000000000e-01
48 64 7.26562500000000000e-01
49 64 7.42187500000000000e-01
50 64 7.57812500000000111e-01
51 64 7.73437500000000222e-01
52 64 7.89062500000000222e-01
53 64 8.04687500000000111e-01
54 64 8.20312500000000111e-01
55 64 8.35937500000000111e-01
56 64 8.51562500000000111e-01
57 64 8.67187500000000111e-01
58 64 8.82812500000000111e-01
59 64 8.98437500000000000e-01
60 64 9.14062500000000000e-01
61 64 9.29687500000000000e-01
62 64 9.45312500000000000e-01
63 64 9.60937500000000000e-01
64 64 9.76562500000000000e-01
65 64 9.92187500000000000e-01
66 64 1.00000000000000000e+00
1 65 0.00000000000000000e+00
2 65 7.81250000000000000e-03
3 65 2.34375000000000000e-02
4 65 3.90625000000000000e-02
5 65 5.46875000000000000e-02
6 65 7.03125000000000000e-02
7 65 8.59375000000000000e-02
8 65 1.01562500000000000e-01
9 65 1.17187500000000000e-01
10 65 1.32812500000000000e-01
11 65 1.48437500000000000e-01
12 65 1.64062500000000000e-01
13 65 1.79687500000000000e-01
14 65 1.95312500000000000e-01
15 65 2.10937499999999972e-01
16 65 2.26562499999999944e-01
17 65 2.42187499999999944e-01
18 65 2.57812499999999944e-01
19 65 2.73437499999999944e-01
20 65 2.89062499999999944e-01
21 65 3.04687499999999944e-01
22 65 3.20312499999999944e-01
23 65 3.35937499999999944e-01
24 65 3.51562499999999944e-01
25 65 3.67187499999999944e-01
26 65 3.82812499999999889e-01
27 65 3.98437499999999889e-01
28 65 4.14062499999999889e-01
29 65 4.29687499999999833e-01
30 65 4.45312499999999833e-01
31 65 4.60937499999999833e-01
32 65 4.76562499999999778e-01
33 65 4.92187499999999778e-01
34 65 5.07812499999999778e-01
35 65 5.23437499999999778e-01
36 65 5.39062499999999778e-01
37 65 5.54687499999999778e-01
38 65 5.70312499999999778e-01
39 65 5.85937499999999778e-01
40 65 6.01562499999999889e-01
41 65 6.17187499999999889e-01
42 65 6.32812499999999889e-01
43 65 6.48437500000000000e-01
44 65 6.64062500000000000e-01
45 65 6.79687500000000000e-01
46 65 6.95312500000000000e-01
47 65 7.10937500000000000e-01
48 65 7.26562500000000000e-01
49 65 7.42187500000000000e-01
50 65 7.57812500000000111e-01
51 65 7.73437500000000222e-01
52 65 7.89062500000000222e-01
53 65 8.04687500000000111e-01
54 65 8.20312500000000111e-01
55 65 8.35937500000000111e-01
56 65 8.51562500000000111e-01
57 65 8.67187500000000111e-01
58 65 8.82812500000000111e-01
59 65 8.98437500000000000e-01
60 65 9.14062500000000000e-01
61 65 9.29687500000000000e-01
62 65 9.45312500000000000e-01
63 65 9.60937500000000000e-01
64 65 9.76562500000000000e-01
65 65 9.92187500000000000e-01
66 65 1.00000000000000000e+00
1 66 0.00000000000000000e+00
2 66 7.81250000000000000e-03
3 66 2.34375000000000000e-02
4 66 3.90625000000000000e-02
5 66 5.46875000000000000e-02
6 66 7.03125000000000000e-02
7 66 8.59375000000000000e-02
8 66 1.01562500000000000e-01
9 66 1.17187500000000000e-01
10 66 1.32812500000000000e-01
11 66 1.48437500000000000e-01
12 66 1.64062500000000000e-01
13 66 1.79687500000000000e-01
14 66 1.95312500000000000e-01
15 66 2.10937499999999972e-01
16 66 2.26562499999999944e-01
17 66 2.42187499999999944e-01
18 66 2.57812499999999944e-01
19 66 2.73437499999999944e-01
20 66 2.89062499999999944e-01
21 66 3.04687499999999944e-01
22 66 3.20312499999999944e-01
23 66 3.35937499999999944e-01
24 66 3.51562499999999944e-01
25 66 3.67187499999999944e-01
26 66 3.82812499999999889e-01
27 66 3.98437499999999889e-01
28 66 4.14062499999999889e-01
29 66 4.29687499999999833e-01
30 66 4.45312499999999833e-01
31 66 4.60937499999999833e-01
32 66 4.76562499999999778e-01
33 66 4.92187499999999778e-01
34 66 5.07812499999999778e-01
35 66 5.23437499999999778e-01
36 66 5.39062499999999778e-01
37 66 5.54687499999999778e-01
38 66 5.70312499999999778e-01
39 66 5.85937499999999778e-01
40 66 6.01562499999999889e-01
41 66 6.17187499999999889e-01
42 66 6.32812499999999889e-01
43 66 6.48437500000000000e-01
44 66 6.64062500000000000e-01
45 66 6.79687500000000000e-01
46 66 6.95312500000000000e-01
47 66 7.10937500000000000e-01
48 66 7.26562500000000000e-01
49 66 7.42187500000000000e-01
50 66 7.57812500000000111e-01
51 66 7.73437500000000222e-01
52 66 7.89062500000000222e-01
53 66 8.04687500000000111e-01
54 66 8.20312500000000111e-01
55 66 8.35937500000000111e-01
56 66 8.51562500000000111e-01
57 66 8.67187500000000111e-01
58 66 8.82812500000000111e-01
59 66 8.98437500000000000e-01
60 66 9.14062500000000000e-01
61 66 9.29687500000000000e-01
62 66 9.45312500000000000e-01
63 66 9.60937500000000000e-01
64 66 9.76562500000000000e-01
65 66 9.92187500000000000e-01
66 66 1.00000000000000000e+00
