%%MatrixMarket matrix coordinate  real general
18 18 324
1 1 0.00000000000000000e+00
2 1 0.00000000000000000e+00
3 1 0.00000000000000000e+00
4 1 0.00000000000000000e+00
5 1 0.00000000000000000e+00
6 1 0.00000000000000000e+00
7 1 0.00000000000000000e+00
8 1 0.00000000000000000e+00
9 1 0.00000000000000000e+00
10 1 0.00000000000000000e+00
11 1 0.00000000000000000e+00
12 1 0.00000000000000000e+00
13 1 0.00000000000000000e+00
14 1 0.00000000000000000e+00
15 1 0.00000000000000000e+00
16 1 0.00000000000000000e+00
17 1 0.00000000000000000e+00
18 1 0.00000000000000000e+00
1 2 3.12500000000000000e-02
2 2 3.12500000000000000e-02
3 2 3.12500000000000000e-02
4 2 3.12500000000000000e-02
5 2 3.12500000000000000e-02
6 2 3.12500000000000000e-02
7 2 3.12500000000000000e-02
8 2 3.12500000000000000e-02
9 2 3.12500000000000000e-02
10 2 3.12500000000000000e-02
11 2 3.12500000000000000e-02
12 2 3.12500000000000000e-02
13 2 3.12500000000000000e-02
14 2 3.12500000000000000e-02
15 2 3.12500000000000000e-02
16 2 3.12500000000000000e-02
17 2 3.12500000000000000e-02
18 2 3.12500000000000000e-02
1 3 9.37500000000000000e-02
2 3 9.37500000000000000e-02
3 3 9.37500000000000000e-02
4 3 9.37500000000000000e-02
5 3 9.37500000000000000e-02
6 3 9.37500000000000000e-02
7 3 9.37500000000000000e-02
8 3 9.37500000000000000e-02
9 3 9.37500000000000000e-02
10 3 9.37500000000000000e-02
11 3 9.37500000000000000e-02
12 3 9.37500000000000000e-02
13 3 9.37500000000000000e-02
14 3 9.37500000000000000e-02
15 3 9.37500000000000000e-02
16 3 9.37500000000000000e-02
17 3 9.37500000000000000e-02
18 3 9.37500000000000000e-02
1 4 1.56250000000000000e-01
2 4 1.56250000000000000e-01
3 4 1.56250000000000000e-01
4 4 1.56250000000000000e-01
5 4 1.56250000000000000e-01
6 4 1.56250000000000000e-01
7 4 1.56250000000000000e-01
8 4 1.56250000000000000e-01
9 4 1.56250000000000000e-01
10 4 1.56250000000000000e-01
11 4 1.56250000000000000e-01
12 4 1.56250000000000000e-01
13 4 1.56250000000000000e-01
14 4 1.56250000000000000e-01
15 4 1.56250000000000000e-01
16 4 1.56250000000000000e-01
17 4 1.56250000000000000e-01
18 4 1.56250000000000000e-01
1 5 2.18750000000000000e-01
2 5 2.18750000000000000e-01
3 5 2.18750000000000000e-01
4 5 2.18750000000000000e-01
5 5 2.18750000000000000e-01
6 5 2.18750000000000000e-01
7 5 2.18750000000000000e-01
8 5 2.18750000000000000e-01
9 5 2.18750000000000000e-01
10 5 2.18750000000000000e-01
11 5 2.18750000000000000e-01
12 5 2.18750000000000000e-01
13 5 2.18750000000000000e-01
14 5 2.18750000000000000e-01
15 5 2.18750000000000000e-01
16 5 2.18750000000000000e-01
17 5 2.18750000000000000e-01
18 5 2.18750000000000000e-01
1 6 2.81250000000000000e-01
2 6 2.81250000000000000e-01
3 6 2.81250000000000000e-01
4 6 2.81250000000000000e-01
5 6 2.81250000000000000e-01
6 6 2.81250000000000000e-01
7 6 2.81250000000000000e-01
8 6 2.81250000000000000e-01
9 6 2.81250000000000000e-01
10 6 2.81250000000000000e-01
11 6 2.81250000000000000e-01
12 6 2.81250000000000000e-01
13 6 2.81250000000000000e-01
14 6 2.81250000000000000e-01
15 6 2.81250000000000000e-01
16 6 2.81250000000000000e-01
17 6 2.81250000000000000e-01
18 6 2.81250000000000000e-01
1 7 3.43750000000000000e-01
2 7 3.43750000000000000e-01
3 7 3.43750000000000000e-01
4 7 3.43750000000000000e-01
5 7 3.43750000000000000e-01
6 7 3.43750000000000000e-01
7 7 3.43750000000000000e-01
8 7 3.43750000000000000e-01
9 7 3.43750000000000000e-01
10 7 3.43750000000000000e-01
11 7 3.43750000000000000e-01
12 7 3.43750000000000000e-01
13 7 3.43750000000000000e-01
14 7 3.43750000000000000e-01
15 7 3.43750000000000000e-01
16 7 3.43750000000000000e-01
17 7 3.43750000000000000e-01
18 7 3.43750000000000000e-01
1 8 4.06250000000000000e-01
2 8 4.06250000000000000e-01
3 8 4.06250000000000000e-01
4 8 4.06250000000000000e-01
5 8 4.06250000000000000e-01
6 8 4.06250000000000000e-01
7 8 4.06250000000000000e-01
8 8 4.06250000000000000e-01
9 8 4.06250000000000000e-01
10 8 4.06250000000000000e-01
11 8 4.06250000000000000e-01
12 8 4.06250000000000000e-01
13 8 4.06250000000000000e-01
14 8 4.06250000000000000e-01
15 8 4.06250000000000000e-01
16 8 4.06250000000000000e-01
17 8 4.06250000000000000e-01
18 8 4.06250000000000000e-01
1 9 4.68750000000000000e-01
2 9 4.68750000000000000e-01
3 9 4.68750000000000000e-01
4 9 4.68750000000000000e-01
5 9 4.68750000000000000e-01
6 9 4.68750000000000000e-01
7 9 4.68750000000000000e-01
8 9 4.68750000000000000e-01
9 9 4.68750000000000000e-01
10 9 4.68750000000000000e-01
11 9 4.68750000000000000e-01
12 9 4.68750000000000000e-01
13 9 4.68750000000000000e-01
14 9 4.68750000000000000e-01
15 9 4.68750000000000000e-01
16 9 4.68750000000000000e-01
17 9 4.68750000000000000e-01
18 9 4.68750000000000000e-01
1 10 5.31250000000000000e-01
2 10 5.31250000000000000e-01
3 10 5.31250000000000000e-01
4 10 5.31250000000000000e-01
5 10 5.31250000000000000e-01
6 10 5.31250000000000000e-01
7 10 5.31250000000000000e-01
8 10 5.31250000000000000e-01
9 10 5.31250000000000000e-01
10 10 5.31250000000000000e-01
11 10 5.31250000000000000e-01
12 10 5.31250000000000000e-01
13 10 5.31250000000000000e-01
14 10 5.31250000000000000e-01
15 10 5.31250000000000000e-01
16 10 5.31250000000000000e-01
17 10 5.31250000000000000e-01
18 10 5.31250000000000000e-01
1 11 5.93750000000000000e-01
2 11 5.93750000000000000e-01
3 11 5.93750000000000000e-01
4 11 5.93750000000000000e-01
5 11 5.93750000000000000e-01
6 11 5.93750000000000000e-01
7 11 5.93750000000000000e-01
8 11 5.93750000000000000e-01
9 11 5.93750000000000000e-01
10 11 5.93750000000000000e-01
11 11 5.93750000000000000e-01
12 11 5.93750000000000000e-01
13 11 5.93750000000000000e-01
14 11 5.93750000000000000e-01
15 11 5.93750000000000000e-01
16 11 5.93750000000000000e-01
17 11 5.93750000000000000e-01
18 11 5.93750000000000000e-01
1 12 6.56250000000000111e-01
2 12 6.56250000000000111e-01
3 12 6.56250000000000111e-01
4 12 6.56250000000000111e-01
5 12 6.56250000000000111e-01
6 12 6.56250000000000111e-01
7 12 6.56250000000000111e-01
8 12 6.56250000000000111e-01
9 12 6.56250000000000111e-01
10 12 6.56250000000000111e-01
11 12 6.56250000000000111e-01
12 12 6.56250000000000111e-01
13 12 6.56250000000000111e-01
14 12 6.56250000000000111e-01
15 12 6.56250000000000111e-01
16 12 6.56250000000000111e-01
17 12 6.56250000000000111e-01
18 12 6.56250000000000111e-01
1 13 7.18750000000000111e-01
2 13 7.18750000000000111e-01
3 13 7.18750000000000111e-01
4 13 7.18750000000000111e-01
5 13 7.18750000000000111e-01
6 13 7.18750000000000111e-01
7 13 7.18750000000000111e-01
8 13 7.18750000000000111e-01
9 13 7.18750000000000111e-01
10 13 7.18750000000000111e-01
11 13 7.18750000000000111e-01
12 13 7.18750000000000111e-01
13 13 7.18750000000000111e-01
14 13 7.18750000000000111e-01
15 13 7.18750000000000111e-01
16 13 7.18750000000000111e-01
17 13 7.18750000000000111e-01
18 13 7.18750000000000111e-01
1 14 7.81250000000000111e-01
2 14 7.81250000000000111e-01
3 14 7.81250000000000111e-01
4 14 7.81250000000000111e-01
5 14 7.81250000000000111e-01
6 14 7.81250000000000111e-01
7 14 7.81250000000000111e-01
8 14 7.81250000000000111e-01
9 14 7.81250000000000111e-01
10 14 7.81250000000000111e-01
11 14 7.81250000000000111e-01
12 14 7.81250000000000111e-01
13 14 7.81250000000000111e-01
14 14 7.81250000000000111e-01
15 14 7.81250000000000111e-01
16 14 7.81250000000000111e-01
17 14 7.81250000000000111e-01
18 14 7.81250000000000111e-01
1 15 8.43750000000000000e-01
2 15 8.43750000000000000e-01
3 15 8.43750000000000000e-01
4 15 8.43750000000000000e-01
5 15 8.43750000000000000e-01
6 15 8.43750000000000000e-01
7 15 8.43750000000000000e-01
8 15 8.43750000000000000e-01
9 15 8.43750000000000000e-01
10 15 8.43750000000000000e-01
11 15 8.43750000000000000e-01
12 15 8.43750000000000000e-01
13 15 8.43750000000000000e-01
14 15 8.43750000000000000e-01
15 15 8.43750000000000000e-01
16 15 8.43750000000000000e-01
17 15 8.43750000000000000e-01
18 15 8.43750000000000000e-01
1 16 9.06250000000000000e-01
2 16 9.06250000000000000e-01
3 16 9.06250000000000000e-01
4 16 9.06250000000000000e-01
5 16 9.06250000000000000e-01
6 16 9.06250000000000000e-01
7 16 9.06250000000000000e-01
8 16 9.06250000000000000e-01
9 16 9.06250000000000000e-01
10 16 9.06250000000000000e-01
11 16 9.06250000000000000e-01
12 16 9.06250000000000000e-01
13 16 9.06250000000000000e-01
14 16 9.06250000000000000e-01
15 16 9.06250000000000000e-01
16 16 9.06250000000000000e-01
17 16 9.06250000000000000e-01
18 16 9.06250000000000000e-01
1 17 9.68750000000000000e-01
2 17 9.68750000000000000e-01
3 17 9.68750000000000000e-01
4 17 9.68750000000000000e-01
5 17 9.68750000000000000e-01
6 17 9.68750000000000000e-01
7 17 9.68750000000000000e-01
8 17 9.68750000000000000e-01
9 17 9.68750000000000000e-01
10 17 9.68750000000000000e-01
11 17 9.68750000000000000e-01
12 17 9.68750000000000000e-01
13 17 9.68750000000000000e-01
14 17 9.68750000000000000e-01
15 17 9.68750000000000000e-01
16 17 9.68750000000000000e-01
17 17 9.68750000000000000e-01
18 17 9.68750000000000000e-01
1 18 1.00000000000000000e+00
2 18 1.00000000000000000e+00
3 18 1.00000000000000000e+00
4 18 1.00000000000000000e+00
5 18 1.00000000000000000e+00
6 18 1.00000000000000000e+00
7 18 1.00000000000000000e+00
8 18 1.00000000000000000e+00
9 18 1.00000000000000000e+00
10 18 1.00000000000000000e+00
11 18 1.00000000000000000e+00
12 18 1.00000000000000000e+00
13 18 1.00000000000000000e+00
14 18 1.00000000000000000e+00
15 18 1.00000000000000000e+00
16 18 1.00000000000000000e+00
17 18 1.00000000000000000e+00
18 18 1.00000000000000000e+00
