%%MatrixMarket matrix coordinate  real general
10 10 100
1 1 0.00000000000000000e+00
2 1 6.25000000000000000e-02
3 1 1.87500000000000000e-01
4 1 3.12500000000000000e-01
5 1 4.37500000000000000e-01
6 1 5.62500000000000000e-01
7 1 6.87500000000000000e-01
8 1 8.12500000000000000e-01
9 1 9.37500000000000000e-01
10 1 1.00000000000000000e+00
1 2 0.00000000000000000e+00
2 2 6.25000000000000000e-02
3 2 1.87500000000000000e-01
4 2 3.12500000000000000e-01
5 2 4.37500000000000000e-01
6 2 5.62500000000000000e-01
7 2 6.87500000000000111e-01
8 2 8.12500000000000111e-01
9 2 9.37500000000000000e-01
10 2 1.00000000000000000e+00
1 3 0.00000000000000000e+00
2 3 6.25000000000000000e-02
3 3 1.87500000000000000e-01
4 3 3.12500000000000056e-01
5 3 4.37500000000000056e-01
6 3 5.62500000000000000e-01
7 3 6.87500000000000222e-01
8 3 8.12500000000000222e-01
9 3 9.37500000000000000e-01
10 3 1.00000000000000000e+00
1 4 0.00000000000000000e+00
2 4 6.25000000000000000e-02
3 4 1.87500000000000000e-01
4 4 3.12500000000000056e-01
5 4 4.37500000000000056e-01
6 4 5.62500000000000000e-01
7 4 6.87500000000000111e-01
8 4 8.12500000000000111e-01
9 4 9.37500000000000000e-01
10 4 1.00000000000000000e+00
1 5 0.00000000000000000e+00
2 5 6.25000000000000000e-02
3 5 1.87500000000000000e-01
4 5 3.12500000000000056e-01
5 5 4.37500000000000056e-01
6 5 5.62500000000000000e-01
7 5 6.87500000000000000e-01
8 5 8.12500000000000111e-01
9 5 9.37500000000000000e-01
10 5 1.00000000000000000e+00
1 6 0.00000000000000000e+00
2 6 6.25000000000000000e-02
3 6 1.87500000000000000e-01
4 6 3.12500000000000056e-01
5 6 4.37500000000000000e-01
6 6 5.62500000000000000e-01
7 6 6.87500000000000000e-01
8 6 8.12500000000000111e-01
9 6 9.37500000000000111e-01
10 6 1.00000000000000000e+00
1 7 0.00000000000000000e+00
2 7 6.25000000000000000e-02
3 7 1.87500000000000000e-01
4 7 3.12500000000000000e-01
5 7 4.37500000000000000e-01
6 7 5.62500000000000000e-01
7 7 6.87500000000000000e-01
8 7 8.12500000000000000e-01
9 7 9.37500000000000000e-01
10 7 1.00000000000000000e+00
1 8 0.00000000000000000e+00
2 8 6.25000000000000000e-02
3 8 1.87500000000000000e-01
4 8 3.12500000000000000e-01
5 8 4.37500000000000000e-01
6 8 5.62500000000000000e-01
7 8 6.87500000000000000e-01
8 8 8.12500000000000000e-01
9 8 9.37500000000000000e-01
10 8 1.00000000000000000e+00
1 9 0.00000000000000000e+00
2 9 6.25000000000000000e-02
3 9 1.87500000000000000e-01
4 9 3.12500000000000000e-01
5 9 4.37500000000000000e-01
6 9 5.62500000000000000e-01
7 9 6.87500000000000000e-01
8 9 8.12500000000000000e-01
9 9 9.37500000000000000e-01
10 9 1.00000000000000000e+00
1 10 0.00000000000000000e+00
2 10 6.25000000000000000e-02
3 10 1.87500000000000000e-01
4 10 3.12500000000000000e-01
5 10 4.37500000000000000e-01
6 10 5.62500000000000000e-01
7 10 6.87500000000000000e-01
8 10 8.12500000000000000e-01
9 10 9.37500000000000000e-01
10 10 1.00000000000000000e+00
