%%MatrixMarket matrix coordinate  real general
10 10 100
1 1 0.00000000000000000e+00
2 1 0.00000000000000000e+00
3 1 0.00000000000000000e+00
4 1 0.00000000000000000e+00
5 1 0.00000000000000000e+00
6 1 0.00000000000000000e+00
7 1 0.00000000000000000e+00
8 1 0.00000000000000000e+00
9 1 0.00000000000000000e+00
10 1 0.00000000000000000e+00
1 2 6.25000000000000000e-02
2 2 6.25000000000000000e-02
3 2 6.25000000000000000e-02
4 2 6.25000000000000000e-02
5 2 6.25000000000000000e-02
6 2 6.25000000000000000e-02
7 2 6.25000000000000000e-02
8 2 6.25000000000000000e-02
9 2 6.25000000000000000e-02
10 2 6.25000000000000000e-02
1 3 1.87500000000000000e-01
2 3 1.87500000000000000e-01
3 3 1.87500000000000000e-01
4 3 1.87500000000000000e-01
5 3 1.87500000000000000e-01
6 3 1.87500000000000000e-01
7 3 1.87500000000000000e-01
8 3 1.87500000000000000e-01
9 3 1.87500000000000000e-01
10 3 1.87500000000000000e-01
1 4 3.12500000000000000e-01
2 4 3.12500000000000000e-01
3 4 3.12500000000000000e-01
4 4 3.12500000000000000e-01
5 4 3.12500000000000000e-01
6 4 3.12500000000000000e-01
7 4 3.12500000000000000e-01
8 4 3.12500000000000000e-01
9 4 3.12500000000000000e-01
10 4 3.12500000000000000e-01
1 5 4.37500000000000000e-01
2 5 4.37500000000000000e-01
3 5 4.37500000000000000e-01
4 5 4.37500000000000000e-01
5 5 4.37500000000000000e-01
6 5 4.37500000000000000e-01
7 5 4.37500000000000000e-01
8 5 4.37500000000000000e-01
9 5 4.37500000000000000e-01
10 5 4.37500000000000000e-01
1 6 5.62500000000000000e-01
2 6 5.62500000000000000e-01
3 6 5.62500000000000000e-01
4 6 5.62500000000000000e-01
5 6 5.62500000000000000e-01
6 6 5.62500000000000000e-01
7 6 5.62500000000000000e-01
8 6 5.62500000000000000e-01
9 6 5.62500000000000000e-01
10 6 5.62500000000000000e-01
1 7 6.87500000000000000e-01
2 7 6.87500000000000000e-01
3 7 6.87500000000000000e-01
4 7 6.87500000000000000e-01
5 7 6.87500000000000000e-01
6 7 6.87500000000000000e-01
7 7 6.87500000000000000e-01
8 7 6.87500000000000000e-01
9 7 6.87500000000000000e-01
10 7 6.87500000000000000e-01
1 8 8.12500000000000000e-01
2 8 8.12500000000000000e-01
3 8 8.12500000000000000e-01
4 8 8.12500000000000000e-01
5 8 8.12500000000000000e-01
6 8 8.12500000000000000e-01
7 8 8.12500000000000000e-01
8 8 8.12500000000000000e-01
9 8 8.12500000000000000e-01
10 8 8.12500000000000000e-01
1 9 9.37500000000000000e-01
2 9 9.37500000000000000e-01
3 9 9.37500000000000000e-01
4 9 9.37500000000000000e-01
5 9 9.37500000000000000e-01
6 9 9.37500000000000000e-01
7 9 9.37500000000000000e-01
8 9 9.37500000000000000e-01
9 9 9.37500000000000000e-01
10 9 9.37500000000000000e-01
1 10 1.00000000000000000e+00
2 10 1.00000000000000000e+00
3 10 1.00000000000000000e+00
4 10 1.00000000000000000e+00
5 10 1.00000000000000000e+00
6 10 1.00000000000000000e+00
7 10 1.00000000000000000e+00
8 10 1.00000000000000000e+00
9 10 1.00000000000000000e+00
10 10 1.00000000000000000e+00
