%%MatrixMarket matrix coordinate  real general
133 133 17689
1 1 0.00000000000000000e+00
2 1 0.00000000000000000e+00
3 1 0.00000000000000000e+00
4 1 0.00000000000000000e+00
5 1 0.00000000000000000e+00
6 1 0.00000000000000000e+00
7 1 0.00000000000000000e+00
8 1 0.00000000000000000e+00
9 1 0.00000000000000000e+00
10 1 0.00000000000000000e+00
11 1 0.00000000000000000e+00
12 1 0.00000000000000000e+00
13 1 0.00000000000000000e+00
14 1 0.00000000000000000e+00
15 1 0.00000000000000000e+00
16 1 0.00000000000000000e+00
17 1 0.00000000000000000e+00
18 1 0.00000000000000000e+00
19 1 0.00000000000000000e+00
20 1 0.00000000000000000e+00
21 1 0.00000000000000000e+00
22 1 0.00000000000000000e+00
23 1 0.00000000000000000e+00
24 1 0.00000000000000000e+00
25 1 0.00000000000000000e+00
26 1 0.00000000000000000e+00
27 1 0.00000000000000000e+00
28 1 0.00000000000000000e+00
29 1 0.00000000000000000e+00
30 1 0.00000000000000000e+00
31 1 0.00000000000000000e+00
32 1 0.00000000000000000e+00
33 1 0.00000000000000000e+00
34 1 0.00000000000000000e+00
35 1 0.00000000000000000e+00
36 1 0.00000000000000000e+00
37 1 0.00000000000000000e+00
38 1 0.00000000000000000e+00
39 1 0.00000000000000000e+00
40 1 0.00000000000000000e+00
41 1 0.00000000000000000e+00
42 1 0.00000000000000000e+00
43 1 0.00000000000000000e+00
44 1 0.00000000000000000e+00
45 1 0.00000000000000000e+00
46 1 0.00000000000000000e+00
47 1 0.00000000000000000e+00
48 1 0.00000000000000000e+00
49 1 0.00000000000000000e+00
50 1 0.00000000000000000e+00
51 1 0.00000000000000000e+00
52 1 0.00000000000000000e+00
53 1 0.00000000000000000e+00
54 1 0.00000000000000000e+00
55 1 0.00000000000000000e+00
56 1 0.00000000000000000e+00
57 1 0.00000000000000000e+00
58 1 0.00000000000000000e+00
59 1 0.00000000000000000e+00
60 1 0.00000000000000000e+00
61 1 0.00000000000000000e+00
62 1 0.00000000000000000e+00
63 1 0.00000000000000000e+00
64 1 0.00000000000000000e+00
65 1 0.00000000000000000e+00
66 1 0.00000000000000000e+00
67 1 0.00000000000000000e+00
68 1 0.00000000000000000e+00
69 1 0.00000000000000000e+00
70 1 0.00000000000000000e+00
71 1 0.00000000000000000e+00
72 1 0.00000000000000000e+00
73 1 0.00000000000000000e+00
74 1 0.00000000000000000e+00
75 1 0.00000000000000000e+00
76 1 0.00000000000000000e+00
77 1 0.00000000000000000e+00
78 1 0.00000000000000000e+00
79 1 0.00000000000000000e+00
80 1 0.00000000000000000e+00
81 1 0.00000000000000000e+00
82 1 0.00000000000000000e+00
83 1 0.00000000000000000e+00
84 1 0.00000000000000000e+00
85 1 0.00000000000000000e+00
86 1 0.00000000000000000e+00
87 1 0.00000000000000000e+00
88 1 0.00000000000000000e+00
89 1 0.00000000000000000e+00
90 1 0.00000000000000000e+00
91 1 0.00000000000000000e+00
92 1 0.00000000000000000e+00
93 1 0.00000000000000000e+00
94 1 0.00000000000000000e+00
95 1 0.00000000000000000e+00
96 1 0.00000000000000000e+00
97 1 0.00000000000000000e+00
98 1 0.00000000000000000e+00
99 1 0.00000000000000000e+00
100 1 0.00000000000000000e+00
101 1 0.00000000000000000e+00
102 1 0.00000000000000000e+00
103 1 0.00000000000000000e+00
104 1 0.00000000000000000e+00
105 1 0.00000000000000000e+00
106 1 0.00000000000000000e+00
107 1 0.00000000000000000e+00
108 1 0.00000000000000000e+00
109 1 0.00000000000000000e+00
110 1 0.00000000000000000e+00
111 1 0.00000000000000000e+00
112 1 0.00000000000000000e+00
113 1 0.00000000000000000e+00
114 1 0.00000000000000000e+00
115 1 0.00000000000000000e+00
116 1 0.00000000000000000e+00
117 1 0.00000000000000000e+00
118 1 0.00000000000000000e+00
119 1 0.00000000000000000e+00
120 1 0.00000000000000000e+00
121 1 0.00000000000000000e+00
122 1 0.00000000000000000e+00
123 1 0.00000000000000000e+00
124 1 0.00000000000000000e+00
125 1 0.00000000000000000e+00
126 1 0.00000000000000000e+00
127 1 0.00000000000000000e+00
128 1 0.00000000000000000e+00
129 1 0.00000000000000000e+00
130 1 0.00000000000000000e+00
131 1 0.00000000000000000e+00
132 1 0.00000000000000000e+00
133 1 0.00000000000000000e+00
1 2 2.23012079300187252e-02
2 2 2.23012079300187287e-02
3 2 2.23012079300187252e-02
4 2 2.23012079300187252e-02
5 2 2.23012079300187287e-02
6 2 2.23012079300187356e-02
7 2 2.23012079300187287e-02
8 2 2.23012079300187356e-02
9 2 2.23012079300187391e-02
10 2 2.23012079300187425e-02
11 2 2.23012079300187252e-02
12 2 2.23012079300187217e-02
13 2 2.23012079300187217e-02
14 2 2.23012079300187148e-02
15 2 2.23012079300187009e-02
16 2 2.23012079300187287e-02
17 2 2.23012079300187217e-02
18 2 2.23012079300187217e-02
19 2 2.23012079300187252e-02
20 2 2.23012079300187009e-02
21 2 2.23012079300187148e-02
22 2 2.23012079300187217e-02
23 2 2.23012079300187217e-02
24 2 2.23012079300187183e-02
25 2 2.23012079300187252e-02
26 2 2.23012079300187113e-02
27 2 2.23012079300187217e-02
28 2 2.23012079300187252e-02
29 2 2.23012079300187252e-02
30 2 2.23012079300187113e-02
31 2 2.23012079300187460e-02
32 2 2.23012079300187321e-02
33 2 2.23012079300187287e-02
34 2 2.23012079300187252e-02
35 2 2.23012079300187287e-02
36 2 2.23012079300187252e-02
37 2 2.23012079300187252e-02
38 2 2.23012079300187287e-02
39 2 2.23012079300187356e-02
40 2 2.23012079300187287e-02
41 2 2.23012079300187356e-02
42 2 2.23012079300187391e-02
43 2 2.23012079300187425e-02
44 2 2.23012079300187252e-02
45 2 2.23012079300187217e-02
46 2 2.23012079300187217e-02
47 2 2.23012079300187148e-02
48 2 2.23012079300187009e-02
49 2 2.23012079300187287e-02
50 2 2.23012079300187217e-02
51 2 2.23012079300187217e-02
52 2 2.23012079300187252e-02
53 2 2.23012079300187009e-02
54 2 2.23012079300187148e-02
55 2 2.23012079300187217e-02
56 2 2.23012079300187217e-02
57 2 2.23012079300187183e-02
58 2 2.23012079300187252e-02
59 2 2.23012079300187113e-02
60 2 2.23012079300187217e-02
61 2 2.23012079300187252e-02
62 2 2.23012079300187252e-02
63 2 2.23012079300187113e-02
64 2 2.23012079300187460e-02
65 2 2.23012079300187321e-02
66 2 2.23012079300187287e-02
67 2 2.23012079300187252e-02
68 2 2.23012079300187287e-02
69 2 2.23012079300187252e-02
70 2 2.23012079300187252e-02
71 2 2.23012079300187287e-02
72 2 2.23012079300187356e-02
73 2 2.23012079300187287e-02
74 2 2.23012079300187356e-02
75 2 2.23012079300187391e-02
76 2 2.23012079300187425e-02
77 2 2.23012079300187252e-02
78 2 2.23012079300187217e-02
79 2 2.23012079300187217e-02
80 2 2.23012079300187148e-02
81 2 2.23012079300187009e-02
82 2 2.23012079300187287e-02
83 2 2.23012079300187217e-02
84 2 2.23012079300187217e-02
85 2 2.23012079300187252e-02
86 2 2.23012079300187009e-02
87 2 2.23012079300187148e-02
88 2 2.23012079300187217e-02
89 2 2.23012079300187217e-02
90 2 2.23012079300187183e-02
91 2 2.23012079300187252e-02
92 2 2.23012079300187113e-02
93 2 2.23012079300187217e-02
94 2 2.23012079300187252e-02
95 2 2.23012079300187252e-02
96 2 2.23012079300187113e-02
97 2 2.23012079300187460e-02
98 2 2.23012079300187321e-02
99 2 2.23012079300187287e-02
100 2 2.23012079300187252e-02
101 2 2.23012079300187287e-02
102 2 2.23012079300187252e-02
103 2 2.23012079300187252e-02
104 2 2.23012079300187287e-02
105 2 2.23012079300187356e-02
106 2 2.23012079300187287e-02
107 2 2.23012079300187356e-02
108 2 2.23012079300187391e-02
109 2 2.23012079300187425e-02
110 2 2.23012079300187252e-02
111 2 2.23012079300187217e-02
112 2 2.23012079300187217e-02
113 2 2.23012079300187148e-02
114 2 2.23012079300187009e-02
115 2 2.23012079300187287e-02
116 2 2.23012079300187217e-02
117 2 2.23012079300187217e-02
118 2 2.23012079300187252e-02
119 2 2.23012079300187009e-02
120 2 2.23012079300187148e-02
121 2 2.23012079300187217e-02
122 2 2.23012079300187217e-02
123 2 2.23012079300187183e-02
124 2 2.23012079300187252e-02
125 2 2.23012079300187113e-02
126 2 2.23012079300187217e-02
127 2 2.23012079300187252e-02
128 2 2.23012079300187252e-02
129 2 2.23012079300187113e-02
130 2 2.23012079300187460e-02
131 2 2.23012079300187321e-02
132 2 2.23012079300187287e-02
133 2 2.23012079300187252e-02
1 3 6.72519599884323638e-02
2 3 6.72519599884323777e-02
3 3 6.72519599884323638e-02
4 3 6.72519599884323499e-02
5 3 6.72519599884323777e-02
6 3 6.72519599884323915e-02
7 3 6.72519599884323777e-02
8 3 6.72519599884324054e-02
9 3 6.72519599884323915e-02
10 3 6.72519599884324054e-02
11 3 6.72519599884323638e-02
12 3 6.72519599884323499e-02
13 3 6.72519599884323638e-02
14 3 6.72519599884323499e-02
15 3 6.72519599884323221e-02
16 3 6.72519599884323915e-02
17 3 6.72519599884323499e-02
18 3 6.72519599884323499e-02
19 3 6.72519599884323638e-02
20 3 6.72519599884323221e-02
21 3 6.72519599884323499e-02
22 3 6.72519599884323638e-02
23 3 6.72519599884323499e-02
24 3 6.72519599884323499e-02
25 3 6.72519599884323499e-02
26 3 6.72519599884323360e-02
27 3 6.72519599884323638e-02
28 3 6.72519599884323777e-02
29 3 6.72519599884323499e-02
30 3 6.72519599884323360e-02
31 3 6.72519599884324193e-02
32 3 6.72519599884323777e-02
33 3 6.72519599884323777e-02
34 3 6.72519599884323638e-02
35 3 6.72519599884323777e-02
36 3 6.72519599884323638e-02
37 3 6.72519599884323499e-02
38 3 6.72519599884323777e-02
39 3 6.72519599884323915e-02
40 3 6.72519599884323777e-02
41 3 6.72519599884324054e-02
42 3 6.72519599884323915e-02
43 3 6.72519599884324054e-02
44 3 6.72519599884323638e-02
45 3 6.72519599884323499e-02
46 3 6.72519599884323638e-02
47 3 6.72519599884323499e-02
48 3 6.72519599884323221e-02
49 3 6.72519599884323915e-02
50 3 6.72519599884323499e-02
51 3 6.72519599884323499e-02
52 3 6.72519599884323638e-02
53 3 6.72519599884323221e-02
54 3 6.72519599884323499e-02
55 3 6.72519599884323638e-02
56 3 6.72519599884323499e-02
57 3 6.72519599884323499e-02
58 3 6.72519599884323499e-02
59 3 6.72519599884323360e-02
60 3 6.72519599884323638e-02
61 3 6.72519599884323777e-02
62 3 6.72519599884323499e-02
63 3 6.72519599884323360e-02
64 3 6.72519599884324193e-02
65 3 6.72519599884323777e-02
66 3 6.72519599884323777e-02
67 3 6.72519599884323638e-02
68 3 6.72519599884323777e-02
69 3 6.72519599884323638e-02
70 3 6.72519599884323499e-02
71 3 6.72519599884323777e-02
72 3 6.72519599884323915e-02
73 3 6.72519599884323777e-02
74 3 6.72519599884324054e-02
75 3 6.72519599884323915e-02
76 3 6.72519599884324054e-02
77 3 6.72519599884323638e-02
78 3 6.72519599884323499e-02
79 3 6.72519599884323638e-02
80 3 6.72519599884323499e-02
81 3 6.72519599884323221e-02
82 3 6.72519599884323915e-02
83 3 6.72519599884323499e-02
84 3 6.72519599884323499e-02
85 3 6.72519599884323638e-02
86 3 6.72519599884323221e-02
87 3 6.72519599884323499e-02
88 3 6.72519599884323638e-02
89 3 6.72519599884323499e-02
90 3 6.72519599884323499e-02
91 3 6.72519599884323499e-02
92 3 6.72519599884323360e-02
93 3 6.72519599884323638e-02
94 3 6.72519599884323777e-02
95 3 6.72519599884323499e-02
96 3 6.72519599884323360e-02
97 3 6.72519599884324193e-02
98 3 6.72519599884323777e-02
99 3 6.72519599884323777e-02
100 3 6.72519599884323638e-02
101 3 6.72519599884323777e-02
102 3 6.72519599884323638e-02
103 3 6.72519599884323499e-02
104 3 6.72519599884323777e-02
105 3 6.72519599884323915e-02
106 3 6.72519599884323777e-02
107 3 6.72519599884324054e-02
108 3 6.72519599884323915e-02
109 3 6.72519599884324054e-02
110 3 6.72519599884323638e-02
111 3 6.72519599884323499e-02
112 3 6.72519599884323638e-02
113 3 6.72519599884323499e-02
114 3 6.72519599884323221e-02
115 3 6.72519599884323915e-02
116 3 6.72519599884323499e-02
117 3 6.72519599884323499e-02
118 3 6.72519599884323638e-02
119 3 6.72519599884323221e-02
120 3 6.72519599884323499e-02
121 3 6.72519599884323638e-02
122 3 6.72519599884323499e-02
123 3 6.72519599884323499e-02
124 3 6.72519599884323499e-02
125 3 6.72519599884323360e-02
126 3 6.72519599884323638e-02
127 3 6.72519599884323777e-02
128 3 6.72519599884323499e-02
129 3 6.72519599884323360e-02
130 3 6.72519599884324193e-02
131 3 6.72519599884323777e-02
132 3 6.72519599884323777e-02
133 3 6.72519599884323638e-02
1 4 1.12834956513251705e-01
2 4 1.12834956513251691e-01
3 4 1.12834956513251664e-01
4 4 1.12834956513251650e-01
5 4 1.12834956513251705e-01
6 4 1.12834956513251691e-01
7 4 1.12834956513251691e-01
8 4 1.12834956513251747e-01
9 4 1.12834956513251691e-01
10 4 1.12834956513251747e-01
11 4 1.12834956513251691e-01
12 4 1.12834956513251622e-01
13 4 1.12834956513251691e-01
14 4 1.12834956513251677e-01
15 4 1.12834956513251622e-01
16 4 1.12834956513251705e-01
17 4 1.12834956513251636e-01
18 4 1.12834956513251636e-01
19 4 1.12834956513251677e-01
20 4 1.12834956513251608e-01
21 4 1.12834956513251677e-01
22 4 1.12834956513251664e-01
23 4 1.12834956513251622e-01
24 4 1.12834956513251664e-01
25 4 1.12834956513251650e-01
26 4 1.12834956513251622e-01
27 4 1.12834956513251677e-01
28 4 1.12834956513251691e-01
29 4 1.12834956513251677e-01
30 4 1.12834956513251636e-01
31 4 1.12834956513251775e-01
32 4 1.12834956513251691e-01
33 4 1.12834956513251691e-01
34 4 1.12834956513251705e-01
35 4 1.12834956513251691e-01
36 4 1.12834956513251664e-01
37 4 1.12834956513251650e-01
38 4 1.12834956513251705e-01
39 4 1.12834956513251691e-01
40 4 1.12834956513251691e-01
41 4 1.12834956513251747e-01
42 4 1.12834956513251691e-01
43 4 1.12834956513251747e-01
44 4 1.12834956513251691e-01
45 4 1.12834956513251622e-01
46 4 1.12834956513251691e-01
47 4 1.12834956513251677e-01
48 4 1.12834956513251622e-01
49 4 1.12834956513251705e-01
50 4 1.12834956513251636e-01
51 4 1.12834956513251636e-01
52 4 1.12834956513251677e-01
53 4 1.12834956513251608e-01
54 4 1.12834956513251677e-01
55 4 1.12834956513251664e-01
56 4 1.12834956513251622e-01
57 4 1.12834956513251664e-01
58 4 1.12834956513251650e-01
59 4 1.12834956513251622e-01
60 4 1.12834956513251677e-01
61 4 1.12834956513251691e-01
62 4 1.12834956513251677e-01
63 4 1.12834956513251636e-01
64 4 1.12834956513251775e-01
65 4 1.12834956513251691e-01
66 4 1.12834956513251691e-01
67 4 1.12834956513251705e-01
68 4 1.12834956513251691e-01
69 4 1.12834956513251664e-01
70 4 1.12834956513251650e-01
71 4 1.12834956513251705e-01
72 4 1.12834956513251691e-01
73 4 1.12834956513251691e-01
74 4 1.12834956513251747e-01
75 4 1.12834956513251691e-01
76 4 1.12834956513251747e-01
77 4 1.12834956513251691e-01
78 4 1.12834956513251622e-01
79 4 1.12834956513251691e-01
80 4 1.12834956513251677e-01
81 4 1.12834956513251622e-01
82 4 1.12834956513251705e-01
83 4 1.12834956513251636e-01
84 4 1.12834956513251636e-01
85 4 1.12834956513251677e-01
86 4 1.12834956513251608e-01
87 4 1.12834956513251677e-01
88 4 1.12834956513251664e-01
89 4 1.12834956513251622e-01
90 4 1.12834956513251664e-01
91 4 1.12834956513251650e-01
92 4 1.12834956513251622e-01
93 4 1.12834956513251677e-01
94 4 1.12834956513251691e-01
95 4 1.12834956513251677e-01
96 4 1.12834956513251636e-01
97 4 1.12834956513251775e-01
98 4 1.12834956513251691e-01
99 4 1.12834956513251691e-01
100 4 1.12834956513251705e-01
101 4 1.12834956513251691e-01
102 4 1.12834956513251664e-01
103 4 1.12834956513251650e-01
104 4 1.12834956513251705e-01
105 4 1.12834956513251691e-01
106 4 1.12834956513251691e-01
107 4 1.12834956513251747e-01
108 4 1.12834956513251691e-01
109 4 1.12834956513251747e-01
110 4 1.12834956513251691e-01
111 4 1.12834956513251622e-01
112 4 1.12834956513251691e-01
113 4 1.12834956513251677e-01
114 4 1.12834956513251622e-01
115 4 1.12834956513251705e-01
116 4 1.12834956513251636e-01
117 4 1.12834956513251636e-01
118 4 1.12834956513251677e-01
119 4 1.12834956513251608e-01
120 4 1.12834956513251677e-01
121 4 1.12834956513251664e-01
122 4 1.12834956513251622e-01
123 4 1.12834956513251664e-01
124 4 1.12834956513251650e-01
125 4 1.12834956513251622e-01
126 4 1.12834956513251677e-01
127 4 1.12834956513251691e-01
128 4 1.12834956513251677e-01
129 4 1.12834956513251636e-01
130 4 1.12834956513251775e-01
131 4 1.12834956513251691e-01
132 4 1.12834956513251691e-01
133 4 1.12834956513251705e-01
1 5 1.58916472321746716e-01
2 5 1.58916472321746716e-01
3 5 1.58916472321746688e-01
4 5 1.58916472321746660e-01
5 5 1.58916472321746716e-01
6 5 1.58916472321746688e-01
7 5 1.58916472321746743e-01
8 5 1.58916472321746771e-01
9 5 1.58916472321746716e-01
10 5 1.58916472321746771e-01
11 5 1.58916472321746716e-01
12 5 1.58916472321746605e-01
13 5 1.58916472321746716e-01
14 5 1.58916472321746716e-01
15 5 1.58916472321746605e-01
16 5 1.58916472321746716e-01
17 5 1.58916472321746605e-01
18 5 1.58916472321746605e-01
19 5 1.58916472321746660e-01
20 5 1.58916472321746605e-01
21 5 1.58916472321746716e-01
22 5 1.58916472321746660e-01
23 5 1.58916472321746605e-01
24 5 1.58916472321746688e-01
25 5 1.58916472321746660e-01
26 5 1.58916472321746632e-01
27 5 1.58916472321746716e-01
28 5 1.58916472321746743e-01
29 5 1.58916472321746688e-01
30 5 1.58916472321746632e-01
31 5 1.58916472321746799e-01
32 5 1.58916472321746743e-01
33 5 1.58916472321746716e-01
34 5 1.58916472321746716e-01
35 5 1.58916472321746716e-01
36 5 1.58916472321746688e-01
37 5 1.58916472321746660e-01
38 5 1.58916472321746716e-01
39 5 1.58916472321746688e-01
40 5 1.58916472321746743e-01
41 5 1.58916472321746771e-01
42 5 1.58916472321746716e-01
43 5 1.58916472321746771e-01
44 5 1.58916472321746716e-01
45 5 1.58916472321746605e-01
46 5 1.58916472321746716e-01
47 5 1.58916472321746716e-01
48 5 1.58916472321746605e-01
49 5 1.58916472321746716e-01
50 5 1.58916472321746605e-01
51 5 1.58916472321746605e-01
52 5 1.58916472321746660e-01
53 5 1.58916472321746605e-01
54 5 1.58916472321746716e-01
55 5 1.58916472321746660e-01
56 5 1.58916472321746605e-01
57 5 1.58916472321746688e-01
58 5 1.58916472321746660e-01
59 5 1.58916472321746632e-01
60 5 1.58916472321746716e-01
61 5 1.58916472321746743e-01
62 5 1.58916472321746688e-01
63 5 1.58916472321746632e-01
64 5 1.58916472321746799e-01
65 5 1.58916472321746743e-01
66 5 1.58916472321746716e-01
67 5 1.58916472321746716e-01
68 5 1.58916472321746716e-01
69 5 1.58916472321746688e-01
70 5 1.58916472321746660e-01
71 5 1.58916472321746716e-01
72 5 1.58916472321746688e-01
73 5 1.58916472321746743e-01
74 5 1.58916472321746771e-01
75 5 1.58916472321746716e-01
76 5 1.58916472321746771e-01
77 5 1.58916472321746716e-01
78 5 1.58916472321746605e-01
79 5 1.58916472321746716e-01
80 5 1.58916472321746716e-01
81 5 1.58916472321746605e-01
82 5 1.58916472321746716e-01
83 5 1.58916472321746605e-01
84 5 1.58916472321746605e-01
85 5 1.58916472321746660e-01
86 5 1.58916472321746605e-01
87 5 1.58916472321746716e-01
88 5 1.58916472321746660e-01
89 5 1.58916472321746605e-01
90 5 1.58916472321746688e-01
91 5 1.58916472321746660e-01
92 5 1.58916472321746632e-01
93 5 1.58916472321746716e-01
94 5 1.58916472321746743e-01
95 5 1.58916472321746688e-01
96 5 1.58916472321746632e-01
97 5 1.58916472321746799e-01
98 5 1.58916472321746743e-01
99 5 1.58916472321746716e-01
100 5 1.58916472321746716e-01
101 5 1.58916472321746716e-01
102 5 1.58916472321746688e-01
103 5 1.58916472321746660e-01
104 5 1.58916472321746716e-01
105 5 1.58916472321746688e-01
106 5 1.58916472321746743e-01
107 5 1.58916472321746771e-01
108 5 1.58916472321746716e-01
109 5 1.58916472321746771e-01
110 5 1.58916472321746716e-01
111 5 1.58916472321746605e-01
112 5 1.58916472321746716e-01
113 5 1.58916472321746716e-01
114 5 1.58916472321746605e-01
115 5 1.58916472321746716e-01
116 5 1.58916472321746605e-01
117 5 1.58916472321746605e-01
118 5 1.58916472321746660e-01
119 5 1.58916472321746605e-01
120 5 1.58916472321746716e-01
121 5 1.58916472321746660e-01
122 5 1.58916472321746605e-01
123 5 1.58916472321746688e-01
124 5 1.58916472321746660e-01
125 5 1.58916472321746632e-01
126 5 1.58916472321746716e-01
127 5 1.58916472321746743e-01
128 5 1.58916472321746688e-01
129 5 1.58916472321746632e-01
130 5 1.58916472321746799e-01
131 5 1.58916472321746743e-01
132 5 1.58916472321746716e-01
133 5 1.58916472321746716e-01
1 6 2.05350206136080154e-01
2 6 2.05350206136080154e-01
3 6 2.05350206136080127e-01
4 6 2.05350206136080127e-01
5 6 2.05350206136080154e-01
6 6 2.05350206136080099e-01
7 6 2.05350206136080210e-01
8 6 2.05350206136080238e-01
9 6 2.05350206136080182e-01
10 6 2.05350206136080238e-01
11 6 2.05350206136080210e-01
12 6 2.05350206136080016e-01
13 6 2.05350206136080154e-01
14 6 2.05350206136080154e-01
15 6 2.05350206136080071e-01
16 6 2.05350206136080210e-01
17 6 2.05350206136080016e-01
18 6 2.05350206136080016e-01
19 6 2.05350206136080099e-01
20 6 2.05350206136080043e-01
21 6 2.05350206136080154e-01
22 6 2.05350206136080099e-01
23 6 2.05350206136080016e-01
24 6 2.05350206136080127e-01
25 6 2.05350206136080099e-01
26 6 2.05350206136080071e-01
27 6 2.05350206136080182e-01
28 6 2.05350206136080210e-01
29 6 2.05350206136080127e-01
30 6 2.05350206136080099e-01
31 6 2.05350206136080266e-01
32 6 2.05350206136080182e-01
33 6 2.05350206136080154e-01
34 6 2.05350206136080154e-01
35 6 2.05350206136080154e-01
36 6 2.05350206136080127e-01
37 6 2.05350206136080127e-01
38 6 2.05350206136080154e-01
39 6 2.05350206136080099e-01
40 6 2.05350206136080210e-01
41 6 2.05350206136080238e-01
42 6 2.05350206136080182e-01
43 6 2.05350206136080238e-01
44 6 2.05350206136080210e-01
45 6 2.05350206136080016e-01
46 6 2.05350206136080154e-01
47 6 2.05350206136080154e-01
48 6 2.05350206136080071e-01
49 6 2.05350206136080210e-01
50 6 2.05350206136080016e-01
51 6 2.05350206136080016e-01
52 6 2.05350206136080099e-01
53 6 2.05350206136080043e-01
54 6 2.05350206136080154e-01
55 6 2.05350206136080099e-01
56 6 2.05350206136080016e-01
57 6 2.05350206136080127e-01
58 6 2.05350206136080099e-01
59 6 2.05350206136080071e-01
60 6 2.05350206136080182e-01
61 6 2.05350206136080210e-01
62 6 2.05350206136080127e-01
63 6 2.05350206136080099e-01
64 6 2.05350206136080266e-01
65 6 2.05350206136080182e-01
66 6 2.05350206136080154e-01
67 6 2.05350206136080154e-01
68 6 2.05350206136080154e-01
69 6 2.05350206136080127e-01
70 6 2.05350206136080127e-01
71 6 2.05350206136080154e-01
72 6 2.05350206136080099e-01
73 6 2.05350206136080210e-01
74 6 2.05350206136080238e-01
75 6 2.05350206136080182e-01
76 6 2.05350206136080238e-01
77 6 2.05350206136080210e-01
78 6 2.05350206136080016e-01
79 6 2.05350206136080154e-01
80 6 2.05350206136080154e-01
81 6 2.05350206136080071e-01
82 6 2.05350206136080210e-01
83 6 2.05350206136080016e-01
84 6 2.05350206136080016e-01
85 6 2.05350206136080099e-01
86 6 2.05350206136080043e-01
87 6 2.05350206136080154e-01
88 6 2.05350206136080099e-01
89 6 2.05350206136080016e-01
90 6 2.05350206136080127e-01
91 6 2.05350206136080099e-01
92 6 2.05350206136080071e-01
93 6 2.05350206136080182e-01
94 6 2.05350206136080210e-01
95 6 2.05350206136080127e-01
96 6 2.05350206136080099e-01
97 6 2.05350206136080266e-01
98 6 2.05350206136080182e-01
99 6 2.05350206136080154e-01
100 6 2.05350206136080154e-01
101 6 2.05350206136080154e-01
102 6 2.05350206136080127e-01
103 6 2.05350206136080127e-01
104 6 2.05350206136080154e-01
105 6 2.05350206136080099e-01
106 6 2.05350206136080210e-01
107 6 2.05350206136080238e-01
108 6 2.05350206136080182e-01
109 6 2.05350206136080238e-01
110 6 2.05350206136080210e-01
111 6 2.05350206136080016e-01
112 6 2.05350206136080154e-01
113 6 2.05350206136080154e-01
114 6 2.05350206136080071e-01
115 6 2.05350206136080210e-01
116 6 2.05350206136080016e-01
117 6 2.05350206136080016e-01
118 6 2.05350206136080099e-01
119 6 2.05350206136080043e-01
120 6 2.05350206136080154e-01
121 6 2.05350206136080099e-01
122 6 2.05350206136080016e-01
123 6 2.05350206136080127e-01
124 6 2.05350206136080099e-01
125 6 2.05350206136080071e-01
126 6 2.05350206136080182e-01
127 6 2.05350206136080210e-01
128 6 2.05350206136080127e-01
129 6 2.05350206136080099e-01
130 6 2.05350206136080266e-01
131 6 2.05350206136080182e-01
132 6 2.05350206136080154e-01
133 6 2.05350206136080154e-01
1 7 2.51978086495205311e-01
2 7 2.51978086495205311e-01
3 7 2.51978086495205311e-01
4 7 2.51978086495205256e-01
5 7 2.51978086495205311e-01
6 7 2.51978086495205256e-01
7 7 2.51978086495205367e-01
8 7 2.51978086495205422e-01
9 7 2.51978086495205367e-01
10 7 2.51978086495205422e-01
11 7 2.51978086495205367e-01
12 7 2.51978086495205145e-01
13 7 2.51978086495205311e-01
14 7 2.51978086495205311e-01
15 7 2.51978086495205200e-01
16 7 2.51978086495205422e-01
17 7 2.51978086495205089e-01
18 7 2.51978086495205089e-01
19 7 2.51978086495205311e-01
20 7 2.51978086495205200e-01
21 7 2.51978086495205311e-01
22 7 2.51978086495205311e-01
23 7 2.51978086495205145e-01
24 7 2.51978086495205311e-01
25 7 2.51978086495205256e-01
26 7 2.51978086495205200e-01
27 7 2.51978086495205367e-01
28 7 2.51978086495205367e-01
29 7 2.51978086495205256e-01
30 7 2.51978086495205256e-01
31 7 2.51978086495205478e-01
32 7 2.51978086495205367e-01
33 7 2.51978086495205311e-01
34 7 2.51978086495205311e-01
35 7 2.51978086495205311e-01
36 7 2.51978086495205311e-01
37 7 2.51978086495205256e-01
38 7 2.51978086495205311e-01
39 7 2.51978086495205256e-01
40 7 2.51978086495205367e-01
41 7 2.51978086495205422e-01
42 7 2.51978086495205367e-01
43 7 2.51978086495205422e-01
44 7 2.51978086495205367e-01
45 7 2.51978086495205145e-01
46 7 2.51978086495205311e-01
47 7 2.51978086495205311e-01
48 7 2.51978086495205200e-01
49 7 2.51978086495205422e-01
50 7 2.51978086495205089e-01
51 7 2.51978086495205089e-01
52 7 2.51978086495205311e-01
53 7 2.51978086495205200e-01
54 7 2.51978086495205311e-01
55 7 2.51978086495205311e-01
56 7 2.51978086495205145e-01
57 7 2.51978086495205311e-01
58 7 2.51978086495205256e-01
59 7 2.51978086495205200e-01
60 7 2.51978086495205367e-01
61 7 2.51978086495205367e-01
62 7 2.51978086495205256e-01
63 7 2.51978086495205256e-01
64 7 2.51978086495205478e-01
65 7 2.51978086495205367e-01
66 7 2.51978086495205311e-01
67 7 2.51978086495205311e-01
68 7 2.51978086495205311e-01
69 7 2.51978086495205311e-01
70 7 2.51978086495205256e-01
71 7 2.51978086495205311e-01
72 7 2.51978086495205256e-01
73 7 2.51978086495205367e-01
74 7 2.51978086495205422e-01
75 7 2.51978086495205367e-01
76 7 2.51978086495205422e-01
77 7 2.51978086495205367e-01
78 7 2.51978086495205145e-01
79 7 2.51978086495205311e-01
80 7 2.51978086495205311e-01
81 7 2.51978086495205200e-01
82 7 2.51978086495205422e-01
83 7 2.51978086495205089e-01
84 7 2.51978086495205089e-01
85 7 2.51978086495205311e-01
86 7 2.51978086495205200e-01
87 7 2.51978086495205311e-01
88 7 2.51978086495205311e-01
89 7 2.51978086495205145e-01
90 7 2.51978086495205311e-01
91 7 2.51978086495205256e-01
92 7 2.51978086495205200e-01
93 7 2.51978086495205367e-01
94 7 2.51978086495205367e-01
95 7 2.51978086495205256e-01
96 7 2.51978086495205256e-01
97 7 2.51978086495205478e-01
98 7 2.51978086495205367e-01
99 7 2.51978086495205311e-01
100 7 2.51978086495205311e-01
101 7 2.51978086495205311e-01
102 7 2.51978086495205311e-01
103 7 2.51978086495205256e-01
104 7 2.51978086495205311e-01
105 7 2.51978086495205256e-01
106 7 2.51978086495205367e-01
107 7 2.51978086495205422e-01
108 7 2.51978086495205367e-01
109 7 2.51978086495205422e-01
110 7 2.51978086495205367e-01
111 7 2.51978086495205145e-01
112 7 2.51978086495205311e-01
113 7 2.51978086495205311e-01
114 7 2.51978086495205200e-01
115 7 2.51978086495205422e-01
116 7 2.51978086495205089e-01
117 7 2.51978086495205089e-01
118 7 2.51978086495205311e-01
119 7 2.51978086495205200e-01
120 7 2.51978086495205311e-01
121 7 2.51978086495205311e-01
122 7 2.51978086495205145e-01
123 7 2.51978086495205311e-01
124 7 2.51978086495205256e-01
125 7 2.51978086495205200e-01
126 7 2.51978086495205367e-01
127 7 2.51978086495205367e-01
128 7 2.51978086495205256e-01
129 7 2.51978086495205256e-01
130 7 2.51978086495205478e-01
131 7 2.51978086495205367e-01
132 7 2.51978086495205311e-01
133 7 2.51978086495205311e-01
1 8 2.98631377267970344e-01
2 8 2.98631377267970399e-01
3 8 2.98631377267970399e-01
4 8 2.98631377267970399e-01
5 8 2.98631377267970399e-01
6 8 2.98631377267970399e-01
7 8 2.98631377267970455e-01
8 8 2.98631377267970566e-01
9 8 2.98631377267970455e-01
10 8 2.98631377267970566e-01
11 8 2.98631377267970455e-01
12 8 2.98631377267970233e-01
13 8 2.98631377267970344e-01
14 8 2.98631377267970399e-01
15 8 2.98631377267970288e-01
16 8 2.98631377267970510e-01
17 8 2.98631377267970122e-01
18 8 2.98631377267970122e-01
19 8 2.98631377267970455e-01
20 8 2.98631377267970288e-01
21 8 2.98631377267970399e-01
22 8 2.98631377267970399e-01
23 8 2.98631377267970233e-01
24 8 2.98631377267970399e-01
25 8 2.98631377267970399e-01
26 8 2.98631377267970288e-01
27 8 2.98631377267970510e-01
28 8 2.98631377267970455e-01
29 8 2.98631377267970288e-01
30 8 2.98631377267970344e-01
31 8 2.98631377267970621e-01
32 8 2.98631377267970399e-01
33 8 2.98631377267970399e-01
34 8 2.98631377267970344e-01
35 8 2.98631377267970399e-01
36 8 2.98631377267970399e-01
37 8 2.98631377267970399e-01
38 8 2.98631377267970399e-01
39 8 2.98631377267970399e-01
40 8 2.98631377267970455e-01
41 8 2.98631377267970566e-01
42 8 2.98631377267970455e-01
43 8 2.98631377267970566e-01
44 8 2.98631377267970455e-01
45 8 2.98631377267970233e-01
46 8 2.98631377267970344e-01
47 8 2.98631377267970399e-01
48 8 2.98631377267970288e-01
49 8 2.98631377267970510e-01
50 8 2.98631377267970122e-01
51 8 2.98631377267970122e-01
52 8 2.98631377267970455e-01
53 8 2.98631377267970288e-01
54 8 2.98631377267970399e-01
55 8 2.98631377267970399e-01
56 8 2.98631377267970233e-01
57 8 2.98631377267970399e-01
58 8 2.98631377267970399e-01
59 8 2.98631377267970288e-01
60 8 2.98631377267970510e-01
61 8 2.98631377267970455e-01
62 8 2.98631377267970288e-01
63 8 2.98631377267970344e-01
64 8 2.98631377267970621e-01
65 8 2.98631377267970399e-01
66 8 2.98631377267970399e-01
67 8 2.98631377267970344e-01
68 8 2.98631377267970399e-01
69 8 2.98631377267970399e-01
70 8 2.98631377267970399e-01
71 8 2.98631377267970399e-01
72 8 2.98631377267970399e-01
73 8 2.98631377267970455e-01
74 8 2.98631377267970566e-01
75 8 2.98631377267970455e-01
76 8 2.98631377267970566e-01
77 8 2.98631377267970455e-01
78 8 2.98631377267970233e-01
79 8 2.98631377267970344e-01
80 8 2.98631377267970399e-01
81 8 2.98631377267970288e-01
82 8 2.98631377267970510e-01
83 8 2.98631377267970122e-01
84 8 2.98631377267970122e-01
85 8 2.98631377267970455e-01
86 8 2.98631377267970288e-01
87 8 2.98631377267970399e-01
88 8 2.98631377267970399e-01
89 8 2.98631377267970233e-01
90 8 2.98631377267970399e-01
91 8 2.98631377267970399e-01
92 8 2.98631377267970288e-01
93 8 2.98631377267970510e-01
94 8 2.98631377267970455e-01
95 8 2.98631377267970288e-01
96 8 2.98631377267970344e-01
97 8 2.98631377267970621e-01
98 8 2.98631377267970399e-01
99 8 2.98631377267970399e-01
100 8 2.98631377267970344e-01
101 8 2.98631377267970399e-01
102 8 2.98631377267970399e-01
103 8 2.98631377267970399e-01
104 8 2.98631377267970399e-01
105 8 2.98631377267970399e-01
106 8 2.98631377267970455e-01
107 8 2.98631377267970566e-01
108 8 2.98631377267970455e-01
109 8 2.98631377267970566e-01
110 8 2.98631377267970455e-01
111 8 2.98631377267970233e-01
112 8 2.98631377267970344e-01
113 8 2.98631377267970399e-01
114 8 2.98631377267970288e-01
115 8 2.98631377267970510e-01
116 8 2.98631377267970122e-01
117 8 2.98631377267970122e-01
118 8 2.98631377267970455e-01
119 8 2.98631377267970288e-01
120 8 2.98631377267970399e-01
121 8 2.98631377267970399e-01
122 8 2.98631377267970233e-01
123 8 2.98631377267970399e-01
124 8 2.98631377267970399e-01
125 8 2.98631377267970288e-01
126 8 2.98631377267970510e-01
127 8 2.98631377267970455e-01
128 8 2.98631377267970288e-01
129 8 2.98631377267970344e-01
130 8 2.98631377267970621e-01
131 8 2.98631377267970399e-01
132 8 2.98631377267970399e-01
133 8 2.98631377267970344e-01
1 9 3.45132085261840693e-01
2 9 3.45132085261840693e-01
3 9 3.45132085261840693e-01
4 9 3.45132085261840749e-01
5 9 3.45132085261840749e-01
6 9 3.45132085261840804e-01
7 9 3.45132085261840804e-01
8 9 3.45132085261840915e-01
9 9 3.45132085261840693e-01
10 9 3.45132085261840915e-01
11 9 3.45132085261840749e-01
12 9 3.45132085261840527e-01
13 9 3.45132085261840638e-01
14 9 3.45132085261840749e-01
15 9 3.45132085261840582e-01
16 9 3.45132085261840860e-01
17 9 3.45132085261840416e-01
18 9 3.45132085261840416e-01
19 9 3.45132085261840804e-01
20 9 3.45132085261840582e-01
21 9 3.45132085261840749e-01
22 9 3.45132085261840693e-01
23 9 3.45132085261840527e-01
24 9 3.45132085261840693e-01
25 9 3.45132085261840749e-01
26 9 3.45132085261840638e-01
27 9 3.45132085261840860e-01
28 9 3.45132085261840804e-01
29 9 3.45132085261840638e-01
30 9 3.45132085261840638e-01
31 9 3.45132085261840971e-01
32 9 3.45132085261840749e-01
33 9 3.45132085261840693e-01
34 9 3.45132085261840693e-01
35 9 3.45132085261840693e-01
36 9 3.45132085261840693e-01
37 9 3.45132085261840749e-01
38 9 3.45132085261840749e-01
39 9 3.45132085261840804e-01
40 9 3.45132085261840804e-01
41 9 3.45132085261840915e-01
42 9 3.45132085261840693e-01
43 9 3.45132085261840915e-01
44 9 3.45132085261840749e-01
45 9 3.45132085261840527e-01
46 9 3.45132085261840638e-01
47 9 3.45132085261840749e-01
48 9 3.45132085261840582e-01
49 9 3.45132085261840860e-01
50 9 3.45132085261840416e-01
51 9 3.45132085261840416e-01
52 9 3.45132085261840804e-01
53 9 3.45132085261840582e-01
54 9 3.45132085261840749e-01
55 9 3.45132085261840693e-01
56 9 3.45132085261840527e-01
57 9 3.45132085261840693e-01
58 9 3.45132085261840749e-01
59 9 3.45132085261840638e-01
60 9 3.45132085261840860e-01
61 9 3.45132085261840804e-01
62 9 3.45132085261840638e-01
63 9 3.45132085261840638e-01
64 9 3.45132085261840971e-01
65 9 3.45132085261840749e-01
66 9 3.45132085261840693e-01
67 9 3.45132085261840693e-01
68 9 3.45132085261840693e-01
69 9 3.45132085261840693e-01
70 9 3.45132085261840749e-01
71 9 3.45132085261840749e-01
72 9 3.45132085261840804e-01
73 9 3.45132085261840804e-01
74 9 3.45132085261840915e-01
75 9 3.45132085261840693e-01
76 9 3.45132085261840915e-01
77 9 3.45132085261840749e-01
78 9 3.45132085261840527e-01
79 9 3.45132085261840638e-01
80 9 3.45132085261840749e-01
81 9 3.45132085261840582e-01
82 9 3.45132085261840860e-01
83 9 3.45132085261840416e-01
84 9 3.45132085261840416e-01
85 9 3.45132085261840804e-01
86 9 3.45132085261840582e-01
87 9 3.45132085261840749e-01
88 9 3.45132085261840693e-01
89 9 3.45132085261840527e-01
90 9 3.45132085261840693e-01
91 9 3.45132085261840749e-01
92 9 3.45132085261840638e-01
93 9 3.45132085261840860e-01
94 9 3.45132085261840804e-01
95 9 3.45132085261840638e-01
96 9 3.45132085261840638e-01
97 9 3.45132085261840971e-01
98 9 3.45132085261840749e-01
99 9 3.45132085261840693e-01
100 9 3.45132085261840693e-01
101 9 3.45132085261840693e-01
102 9 3.45132085261840693e-01
103 9 3.45132085261840749e-01
104 9 3.45132085261840749e-01
105 9 3.45132085261840804e-01
106 9 3.45132085261840804e-01
107 9 3.45132085261840915e-01
108 9 3.45132085261840693e-01
109 9 3.45132085261840915e-01
110 9 3.45132085261840749e-01
111 9 3.45132085261840527e-01
112 9 3.45132085261840638e-01
113 9 3.45132085261840749e-01
114 9 3.45132085261840582e-01
115 9 3.45132085261840860e-01
116 9 3.45132085261840416e-01
117 9 3.45132085261840416e-01
118 9 3.45132085261840804e-01
119 9 3.45132085261840582e-01
120 9 3.45132085261840749e-01
121 9 3.45132085261840693e-01
122 9 3.45132085261840527e-01
123 9 3.45132085261840693e-01
124 9 3.45132085261840749e-01
125 9 3.45132085261840638e-01
126 9 3.45132085261840860e-01
127 9 3.45132085261840804e-01
128 9 3.45132085261840638e-01
129 9 3.45132085261840638e-01
130 9 3.45132085261840971e-01
131 9 3.45132085261840749e-01
132 9 3.45132085261840693e-01
133 9 3.45132085261840693e-01
1 10 3.91294661790150822e-01
2 10 3.91294661790150933e-01
3 10 3.91294661790150877e-01
4 10 3.91294661790150877e-01
5 10 3.91294661790150877e-01
6 10 3.91294661790150933e-01
7 10 3.91294661790150988e-01
8 10 3.91294661790151099e-01
9 10 3.91294661790150933e-01
10 10 3.91294661790151099e-01
11 10 3.91294661790150933e-01
12 10 3.91294661790150711e-01
13 10 3.91294661790150766e-01
14 10 3.91294661790150933e-01
15 10 3.91294661790150766e-01
16 10 3.91294661790151099e-01
17 10 3.91294661790150600e-01
18 10 3.91294661790150600e-01
19 10 3.91294661790151044e-01
20 10 3.91294661790150766e-01
21 10 3.91294661790150933e-01
22 10 3.91294661790150822e-01
23 10 3.91294661790150711e-01
24 10 3.91294661790150877e-01
25 10 3.91294661790150877e-01
26 10 3.91294661790150877e-01
27 10 3.91294661790150988e-01
28 10 3.91294661790150988e-01
29 10 3.91294661790150766e-01
30 10 3.91294661790150822e-01
31 10 3.91294661790151155e-01
32 10 3.91294661790150877e-01
33 10 3.91294661790150933e-01
34 10 3.91294661790150822e-01
35 10 3.91294661790150933e-01
36 10 3.91294661790150877e-01
37 10 3.91294661790150877e-01
38 10 3.91294661790150877e-01
39 10 3.91294661790150933e-01
40 10 3.91294661790150988e-01
41 10 3.91294661790151099e-01
42 10 3.91294661790150933e-01
43 10 3.91294661790151099e-01
44 10 3.91294661790150933e-01
45 10 3.91294661790150711e-01
46 10 3.91294661790150766e-01
47 10 3.91294661790150933e-01
48 10 3.91294661790150766e-01
49 10 3.91294661790151099e-01
50 10 3.91294661790150600e-01
51 10 3.91294661790150600e-01
52 10 3.91294661790151044e-01
53 10 3.91294661790150766e-01
54 10 3.91294661790150933e-01
55 10 3.91294661790150822e-01
56 10 3.91294661790150711e-01
57 10 3.91294661790150877e-01
58 10 3.91294661790150877e-01
59 10 3.91294661790150877e-01
60 10 3.91294661790150988e-01
61 10 3.91294661790150988e-01
62 10 3.91294661790150766e-01
63 10 3.91294661790150822e-01
64 10 3.91294661790151155e-01
65 10 3.91294661790150877e-01
66 10 3.91294661790150933e-01
67 10 3.91294661790150822e-01
68 10 3.91294661790150933e-01
69 10 3.91294661790150877e-01
70 10 3.91294661790150877e-01
71 10 3.91294661790150877e-01
72 10 3.91294661790150933e-01
73 10 3.91294661790150988e-01
74 10 3.91294661790151099e-01
75 10 3.91294661790150933e-01
76 10 3.91294661790151099e-01
77 10 3.91294661790150933e-01
78 10 3.91294661790150711e-01
79 10 3.91294661790150766e-01
80 10 3.91294661790150933e-01
81 10 3.91294661790150766e-01
82 10 3.91294661790151099e-01
83 10 3.91294661790150600e-01
84 10 3.91294661790150600e-01
85 10 3.91294661790151044e-01
86 10 3.91294661790150766e-01
87 10 3.91294661790150933e-01
88 10 3.91294661790150822e-01
89 10 3.91294661790150711e-01
90 10 3.91294661790150877e-01
91 10 3.91294661790150877e-01
92 10 3.91294661790150877e-01
93 10 3.91294661790150988e-01
94 10 3.91294661790150988e-01
95 10 3.91294661790150766e-01
96 10 3.91294661790150822e-01
97 10 3.91294661790151155e-01
98 10 3.91294661790150877e-01
99 10 3.91294661790150933e-01
100 10 3.91294661790150822e-01
101 10 3.91294661790150933e-01
102 10 3.91294661790150877e-01
103 10 3.91294661790150877e-01
104 10 3.91294661790150877e-01
105 10 3.91294661790150933e-01
106 10 3.91294661790150988e-01
107 10 3.91294661790151099e-01
108 10 3.91294661790150933e-01
109 10 3.91294661790151099e-01
110 10 3.91294661790150933e-01
111 10 3.91294661790150711e-01
112 10 3.91294661790150766e-01
113 10 3.91294661790150933e-01
114 10 3.91294661790150766e-01
115 10 3.91294661790151099e-01
116 10 3.91294661790150600e-01
117 10 3.91294661790150600e-01
118 10 3.91294661790151044e-01
119 10 3.91294661790150766e-01
120 10 3.91294661790150933e-01
121 10 3.91294661790150822e-01
122 10 3.91294661790150711e-01
123 10 3.91294661790150877e-01
124 10 3.91294661790150877e-01
125 10 3.91294661790150877e-01
126 10 3.91294661790150988e-01
127 10 3.91294661790150988e-01
128 10 3.91294661790150766e-01
129 10 3.91294661790150822e-01
130 10 3.91294661790151155e-01
131 10 3.91294661790150877e-01
132 10 3.91294661790150933e-01
133 10 3.91294661790150822e-01
1 11 4.36927978439020093e-01
2 11 4.36927978439020204e-01
3 11 4.36927978439020148e-01
4 11 4.36927978439020148e-01
5 11 4.36927978439020148e-01
6 11 4.36927978439020204e-01
7 11 4.36927978439020259e-01
8 11 4.36927978439020370e-01
9 11 4.36927978439020204e-01
10 11 4.36927978439020370e-01
11 11 4.36927978439020204e-01
12 11 4.36927978439020037e-01
13 11 4.36927978439020037e-01
14 11 4.36927978439020204e-01
15 11 4.36927978439019982e-01
16 11 4.36927978439020370e-01
17 11 4.36927978439019926e-01
18 11 4.36927978439019926e-01
19 11 4.36927978439020259e-01
20 11 4.36927978439019982e-01
21 11 4.36927978439020204e-01
22 11 4.36927978439020093e-01
23 11 4.36927978439020037e-01
24 11 4.36927978439020093e-01
25 11 4.36927978439020093e-01
26 11 4.36927978439020093e-01
27 11 4.36927978439020259e-01
28 11 4.36927978439020259e-01
29 11 4.36927978439020037e-01
30 11 4.36927978439020093e-01
31 11 4.36927978439020370e-01
32 11 4.36927978439020148e-01
33 11 4.36927978439020204e-01
34 11 4.36927978439020093e-01
35 11 4.36927978439020204e-01
36 11 4.36927978439020148e-01
37 11 4.36927978439020148e-01
38 11 4.36927978439020148e-01
39 11 4.36927978439020204e-01
40 11 4.36927978439020259e-01
41 11 4.36927978439020370e-01
42 11 4.36927978439020204e-01
43 11 4.36927978439020370e-01
44 11 4.36927978439020204e-01
45 11 4.36927978439020037e-01
46 11 4.36927978439020037e-01
47 11 4.36927978439020204e-01
48 11 4.36927978439019982e-01
49 11 4.36927978439020370e-01
50 11 4.36927978439019926e-01
51 11 4.36927978439019926e-01
52 11 4.36927978439020259e-01
53 11 4.36927978439019982e-01
54 11 4.36927978439020204e-01
55 11 4.36927978439020093e-01
56 11 4.36927978439020037e-01
57 11 4.36927978439020093e-01
58 11 4.36927978439020093e-01
59 11 4.36927978439020093e-01
60 11 4.36927978439020259e-01
61 11 4.36927978439020259e-01
62 11 4.36927978439020037e-01
63 11 4.36927978439020093e-01
64 11 4.36927978439020370e-01
65 11 4.36927978439020148e-01
66 11 4.36927978439020204e-01
67 11 4.36927978439020093e-01
68 11 4.36927978439020204e-01
69 11 4.36927978439020148e-01
70 11 4.36927978439020148e-01
71 11 4.36927978439020148e-01
72 11 4.36927978439020204e-01
73 11 4.36927978439020259e-01
74 11 4.36927978439020370e-01
75 11 4.36927978439020204e-01
76 11 4.36927978439020370e-01
77 11 4.36927978439020204e-01
78 11 4.36927978439020037e-01
79 11 4.36927978439020037e-01
80 11 4.36927978439020204e-01
81 11 4.36927978439019982e-01
82 11 4.36927978439020370e-01
83 11 4.36927978439019926e-01
84 11 4.36927978439019926e-01
85 11 4.36927978439020259e-01
86 11 4.36927978439019982e-01
87 11 4.36927978439020204e-01
88 11 4.36927978439020093e-01
89 11 4.36927978439020037e-01
90 11 4.36927978439020093e-01
91 11 4.36927978439020093e-01
92 11 4.36927978439020093e-01
93 11 4.36927978439020259e-01
94 11 4.36927978439020259e-01
95 11 4.36927978439020037e-01
96 11 4.36927978439020093e-01
97 11 4.36927978439020370e-01
98 11 4.36927978439020148e-01
99 11 4.36927978439020204e-01
100 11 4.36927978439020093e-01
101 11 4.36927978439020204e-01
102 11 4.36927978439020148e-01
103 11 4.36927978439020148e-01
104 11 4.36927978439020148e-01
105 11 4.36927978439020204e-01
106 11 4.36927978439020259e-01
107 11 4.36927978439020370e-01
108 11 4.36927978439020204e-01
109 11 4.36927978439020370e-01
110 11 4.36927978439020204e-01
111 11 4.36927978439020037e-01
112 11 4.36927978439020037e-01
113 11 4.36927978439020204e-01
114 11 4.36927978439019982e-01
115 11 4.36927978439020370e-01
116 11 4.36927978439019926e-01
117 11 4.36927978439019926e-01
118 11 4.36927978439020259e-01
119 11 4.36927978439019982e-01
120 11 4.36927978439020204e-01
121 11 4.36927978439020093e-01
122 11 4.36927978439020037e-01
123 11 4.36927978439020093e-01
124 11 4.36927978439020093e-01
125 11 4.36927978439020093e-01
126 11 4.36927978439020259e-01
127 11 4.36927978439020259e-01
128 11 4.36927978439020037e-01
129 11 4.36927978439020093e-01
130 11 4.36927978439020370e-01
131 11 4.36927978439020148e-01
132 11 4.36927978439020204e-01
133 11 4.36927978439020093e-01
1 12 4.81837545213567864e-01
2 12 4.81837545213568030e-01
3 12 4.81837545213567975e-01
4 12 4.81837545213568030e-01
5 12 4.81837545213567919e-01
6 12 4.81837545213568030e-01
7 12 4.81837545213568030e-01
8 12 4.81837545213568197e-01
9 12 4.81837545213568030e-01
10 12 4.81837545213568197e-01
11 12 4.81837545213567975e-01
12 12 4.81837545213567864e-01
13 12 4.81837545213567864e-01
14 12 4.81837545213567975e-01
15 12 4.81837545213567753e-01
16 12 4.81837545213568197e-01
17 12 4.81837545213567808e-01
18 12 4.81837545213567808e-01
19 12 4.81837545213568030e-01
20 12 4.81837545213567753e-01
21 12 4.81837545213567975e-01
22 12 4.81837545213567919e-01
23 12 4.81837545213567864e-01
24 12 4.81837545213567975e-01
25 12 4.81837545213567864e-01
26 12 4.81837545213567808e-01
27 12 4.81837545213567975e-01
28 12 4.81837545213568030e-01
29 12 4.81837545213567808e-01
30 12 4.81837545213567864e-01
31 12 4.81837545213568197e-01
32 12 4.81837545213567975e-01
33 12 4.81837545213568030e-01
34 12 4.81837545213567864e-01
35 12 4.81837545213568030e-01
36 12 4.81837545213567975e-01
37 12 4.81837545213568030e-01
38 12 4.81837545213567919e-01
39 12 4.81837545213568030e-01
40 12 4.81837545213568030e-01
41 12 4.81837545213568197e-01
42 12 4.81837545213568030e-01
43 12 4.81837545213568197e-01
44 12 4.81837545213567975e-01
45 12 4.81837545213567864e-01
46 12 4.81837545213567864e-01
47 12 4.81837545213567975e-01
48 12 4.81837545213567753e-01
49 12 4.81837545213568197e-01
50 12 4.81837545213567808e-01
51 12 4.81837545213567808e-01
52 12 4.81837545213568030e-01
53 12 4.81837545213567753e-01
54 12 4.81837545213567975e-01
55 12 4.81837545213567919e-01
56 12 4.81837545213567864e-01
57 12 4.81837545213567975e-01
58 12 4.81837545213567864e-01
59 12 4.81837545213567808e-01
60 12 4.81837545213567975e-01
61 12 4.81837545213568030e-01
62 12 4.81837545213567808e-01
63 12 4.81837545213567864e-01
64 12 4.81837545213568197e-01
65 12 4.81837545213567975e-01
66 12 4.81837545213568030e-01
67 12 4.81837545213567864e-01
68 12 4.81837545213568030e-01
69 12 4.81837545213567975e-01
70 12 4.81837545213568030e-01
71 12 4.81837545213567919e-01
72 12 4.81837545213568030e-01
73 12 4.81837545213568030e-01
74 12 4.81837545213568197e-01
75 12 4.81837545213568030e-01
76 12 4.81837545213568197e-01
77 12 4.81837545213567975e-01
78 12 4.81837545213567864e-01
79 12 4.81837545213567864e-01
80 12 4.81837545213567975e-01
81 12 4.81837545213567753e-01
82 12 4.81837545213568197e-01
83 12 4.81837545213567808e-01
84 12 4.81837545213567808e-01
85 12 4.81837545213568030e-01
86 12 4.81837545213567753e-01
87 12 4.81837545213567975e-01
88 12 4.81837545213567919e-01
89 12 4.81837545213567864e-01
90 12 4.81837545213567975e-01
91 12 4.81837545213567864e-01
92 12 4.81837545213567808e-01
93 12 4.81837545213567975e-01
94 12 4.81837545213568030e-01
95 12 4.81837545213567808e-01
96 12 4.81837545213567864e-01
97 12 4.81837545213568197e-01
98 12 4.81837545213567975e-01
99 12 4.81837545213568030e-01
100 12 4.81837545213567864e-01
101 12 4.81837545213568030e-01
102 12 4.81837545213567975e-01
103 12 4.81837545213568030e-01
104 12 4.81837545213567919e-01
105 12 4.81837545213568030e-01
106 12 4.81837545213568030e-01
107 12 4.81837545213568197e-01
108 12 4.81837545213568030e-01
109 12 4.81837545213568197e-01
110 12 4.81837545213567975e-01
111 12 4.81837545213567864e-01
112 12 4.81837545213567864e-01
113 12 4.81837545213567975e-01
114 12 4.81837545213567753e-01
115 12 4.81837545213568197e-01
116 12 4.81837545213567808e-01
117 12 4.81837545213567808e-01
118 12 4.81837545213568030e-01
119 12 4.81837545213567753e-01
120 12 4.81837545213567975e-01
121 12 4.81837545213567919e-01
122 12 4.81837545213567864e-01
123 12 4.81837545213567975e-01
124 12 4.81837545213567864e-01
125 12 4.81837545213567808e-01
126 12 4.81837545213567975e-01
127 12 4.81837545213568030e-01
128 12 4.81837545213567808e-01
129 12 4.81837545213567864e-01
130 12 4.81837545213568197e-01
131 12 4.81837545213567975e-01
132 12 4.81837545213568030e-01
133 12 4.81837545213567864e-01
1 13 5.25827927404512785e-01
2 13 5.25827927404513007e-01
3 13 5.25827927404512896e-01
4 13 5.25827927404513007e-01
5 13 5.25827927404512896e-01
6 13 5.25827927404513007e-01
7 13 5.25827927404512896e-01
8 13 5.25827927404513229e-01
9 13 5.25827927404512896e-01
10 13 5.25827927404513118e-01
11 13 5.25827927404512896e-01
12 13 5.25827927404512785e-01
13 13 5.25827927404512896e-01
14 13 5.25827927404513007e-01
15 13 5.25827927404512674e-01
16 13 5.25827927404513118e-01
17 13 5.25827927404512785e-01
18 13 5.25827927404512785e-01
19 13 5.25827927404512896e-01
20 13 5.25827927404512674e-01
21 13 5.25827927404513007e-01
22 13 5.25827927404512896e-01
23 13 5.25827927404512785e-01
24 13 5.25827927404512896e-01
25 13 5.25827927404512896e-01
26 13 5.25827927404512785e-01
27 13 5.25827927404512896e-01
28 13 5.25827927404512896e-01
29 13 5.25827927404512785e-01
30 13 5.25827927404512785e-01
31 13 5.25827927404513118e-01
32 13 5.25827927404512896e-01
33 13 5.25827927404513007e-01
34 13 5.25827927404512785e-01
35 13 5.25827927404513007e-01
36 13 5.25827927404512896e-01
37 13 5.25827927404513007e-01
38 13 5.25827927404512896e-01
39 13 5.25827927404513007e-01
40 13 5.25827927404512896e-01
41 13 5.25827927404513229e-01
42 13 5.25827927404512896e-01
43 13 5.25827927404513118e-01
44 13 5.25827927404512896e-01
45 13 5.25827927404512785e-01
46 13 5.25827927404512896e-01
47 13 5.25827927404513007e-01
48 13 5.25827927404512674e-01
49 13 5.25827927404513118e-01
50 13 5.25827927404512785e-01
51 13 5.25827927404512785e-01
52 13 5.25827927404512896e-01
53 13 5.25827927404512674e-01
54 13 5.25827927404513007e-01
55 13 5.25827927404512896e-01
56 13 5.25827927404512785e-01
57 13 5.25827927404512896e-01
58 13 5.25827927404512896e-01
59 13 5.25827927404512785e-01
60 13 5.25827927404512896e-01
61 13 5.25827927404512896e-01
62 13 5.25827927404512785e-01
63 13 5.25827927404512785e-01
64 13 5.25827927404513118e-01
65 13 5.25827927404512896e-01
66 13 5.25827927404513007e-01
67 13 5.25827927404512785e-01
68 13 5.25827927404513007e-01
69 13 5.25827927404512896e-01
70 13 5.25827927404513007e-01
71 13 5.25827927404512896e-01
72 13 5.25827927404513007e-01
73 13 5.25827927404512896e-01
74 13 5.25827927404513229e-01
75 13 5.25827927404512896e-01
76 13 5.25827927404513118e-01
77 13 5.25827927404512896e-01
78 13 5.25827927404512785e-01
79 13 5.25827927404512896e-01
80 13 5.25827927404513007e-01
81 13 5.25827927404512674e-01
82 13 5.25827927404513118e-01
83 13 5.25827927404512785e-01
84 13 5.25827927404512785e-01
85 13 5.25827927404512896e-01
86 13 5.25827927404512674e-01
87 13 5.25827927404513007e-01
88 13 5.25827927404512896e-01
89 13 5.25827927404512785e-01
90 13 5.25827927404512896e-01
91 13 5.25827927404512896e-01
92 13 5.25827927404512785e-01
93 13 5.25827927404512896e-01
94 13 5.25827927404512896e-01
95 13 5.25827927404512785e-01
96 13 5.25827927404512785e-01
97 13 5.25827927404513118e-01
98 13 5.25827927404512896e-01
99 13 5.25827927404513007e-01
100 13 5.25827927404512785e-01
101 13 5.25827927404513007e-01
102 13 5.25827927404512896e-01
103 13 5.25827927404513007e-01
104 13 5.25827927404512896e-01
105 13 5.25827927404513007e-01
106 13 5.25827927404512896e-01
107 13 5.25827927404513229e-01
108 13 5.25827927404512896e-01
109 13 5.25827927404513118e-01
110 13 5.25827927404512896e-01
111 13 5.25827927404512785e-01
112 13 5.25827927404512896e-01
113 13 5.25827927404513007e-01
114 13 5.25827927404512674e-01
115 13 5.25827927404513118e-01
116 13 5.25827927404512785e-01
117 13 5.25827927404512785e-01
118 13 5.25827927404512896e-01
119 13 5.25827927404512674e-01
120 13 5.25827927404513007e-01
121 13 5.25827927404512896e-01
122 13 5.25827927404512785e-01
123 13 5.25827927404512896e-01
124 13 5.25827927404512896e-01
125 13 5.25827927404512785e-01
126 13 5.25827927404512896e-01
127 13 5.25827927404512896e-01
128 13 5.25827927404512785e-01
129 13 5.25827927404512785e-01
130 13 5.25827927404513118e-01
131 13 5.25827927404512896e-01
132 13 5.25827927404513007e-01
133 13 5.25827927404512785e-01
1 14 5.68705306634210150e-01
2 14 5.68705306634210372e-01
3 14 5.68705306634210261e-01
4 14 5.68705306634210372e-01
5 14 5.68705306634210150e-01
6 14 5.68705306634210372e-01
7 14 5.68705306634210261e-01
8 14 5.68705306634210594e-01
9 14 5.68705306634210372e-01
10 14 5.68705306634210483e-01
11 14 5.68705306634210372e-01
12 14 5.68705306634210150e-01
13 14 5.68705306634210261e-01
14 14 5.68705306634210372e-01
15 14 5.68705306634210039e-01
16 14 5.68705306634210594e-01
17 14 5.68705306634210150e-01
18 14 5.68705306634210150e-01
19 14 5.68705306634210261e-01
20 14 5.68705306634210039e-01
21 14 5.68705306634210372e-01
22 14 5.68705306634210261e-01
23 14 5.68705306634210150e-01
24 14 5.68705306634210261e-01
25 14 5.68705306634210261e-01
26 14 5.68705306634210150e-01
27 14 5.68705306634210261e-01
28 14 5.68705306634210261e-01
29 14 5.68705306634210150e-01
30 14 5.68705306634210150e-01
31 14 5.68705306634210483e-01
32 14 5.68705306634210261e-01
33 14 5.68705306634210372e-01
34 14 5.68705306634210150e-01
35 14 5.68705306634210372e-01
36 14 5.68705306634210261e-01
37 14 5.68705306634210372e-01
38 14 5.68705306634210150e-01
39 14 5.68705306634210372e-01
40 14 5.68705306634210261e-01
41 14 5.68705306634210594e-01
42 14 5.68705306634210372e-01
43 14 5.68705306634210483e-01
44 14 5.68705306634210372e-01
45 14 5.68705306634210150e-01
46 14 5.68705306634210261e-01
47 14 5.68705306634210372e-01
48 14 5.68705306634210039e-01
49 14 5.68705306634210594e-01
50 14 5.68705306634210150e-01
51 14 5.68705306634210150e-01
52 14 5.68705306634210261e-01
53 14 5.68705306634210039e-01
54 14 5.68705306634210372e-01
55 14 5.68705306634210261e-01
56 14 5.68705306634210150e-01
57 14 5.68705306634210261e-01
58 14 5.68705306634210261e-01
59 14 5.68705306634210150e-01
60 14 5.68705306634210261e-01
61 14 5.68705306634210261e-01
62 14 5.68705306634210150e-01
63 14 5.68705306634210150e-01
64 14 5.68705306634210483e-01
65 14 5.68705306634210261e-01
66 14 5.68705306634210372e-01
67 14 5.68705306634210150e-01
68 14 5.68705306634210372e-01
69 14 5.68705306634210261e-01
70 14 5.68705306634210372e-01
71 14 5.68705306634210150e-01
72 14 5.68705306634210372e-01
73 14 5.68705306634210261e-01
74 14 5.68705306634210594e-01
75 14 5.68705306634210372e-01
76 14 5.68705306634210483e-01
77 14 5.68705306634210372e-01
78 14 5.68705306634210150e-01
79 14 5.68705306634210261e-01
80 14 5.68705306634210372e-01
81 14 5.68705306634210039e-01
82 14 5.68705306634210594e-01
83 14 5.68705306634210150e-01
84 14 5.68705306634210150e-01
85 14 5.68705306634210261e-01
86 14 5.68705306634210039e-01
87 14 5.68705306634210372e-01
88 14 5.68705306634210261e-01
89 14 5.68705306634210150e-01
90 14 5.68705306634210261e-01
91 14 5.68705306634210261e-01
92 14 5.68705306634210150e-01
93 14 5.68705306634210261e-01
94 14 5.68705306634210261e-01
95 14 5.68705306634210150e-01
96 14 5.68705306634210150e-01
97 14 5.68705306634210483e-01
98 14 5.68705306634210261e-01
99 14 5.68705306634210372e-01
100 14 5.68705306634210150e-01
101 14 5.68705306634210372e-01
102 14 5.68705306634210261e-01
103 14 5.68705306634210372e-01
104 14 5.68705306634210150e-01
105 14 5.68705306634210372e-01
106 14 5.68705306634210261e-01
107 14 5.68705306634210594e-01
108 14 5.68705306634210372e-01
109 14 5.68705306634210483e-01
110 14 5.68705306634210372e-01
111 14 5.68705306634210150e-01
112 14 5.68705306634210261e-01
113 14 5.68705306634210372e-01
114 14 5.68705306634210039e-01
115 14 5.68705306634210594e-01
116 14 5.68705306634210150e-01
117 14 5.68705306634210150e-01
118 14 5.68705306634210261e-01
119 14 5.68705306634210039e-01
120 14 5.68705306634210372e-01
121 14 5.68705306634210261e-01
122 14 5.68705306634210150e-01
123 14 5.68705306634210261e-01
124 14 5.68705306634210261e-01
125 14 5.68705306634210150e-01
126 14 5.68705306634210261e-01
127 14 5.68705306634210261e-01
128 14 5.68705306634210150e-01
129 14 5.68705306634210150e-01
130 14 5.68705306634210483e-01
131 14 5.68705306634210261e-01
132 14 5.68705306634210372e-01
133 14 5.68705306634210150e-01
1 15 6.10280122365216449e-01
2 15 6.10280122365216782e-01
3 15 6.10280122365216560e-01
4 15 6.10280122365216671e-01
5 15 6.10280122365216449e-01
6 15 6.10280122365216671e-01
7 15 6.10280122365216560e-01
8 15 6.10280122365216893e-01
9 15 6.10280122365216671e-01
10 15 6.10280122365216782e-01
11 15 6.10280122365216671e-01
12 15 6.10280122365216560e-01
13 15 6.10280122365216671e-01
14 15 6.10280122365216671e-01
15 15 6.10280122365216338e-01
16 15 6.10280122365217004e-01
17 15 6.10280122365216449e-01
18 15 6.10280122365216449e-01
19 15 6.10280122365216560e-01
20 15 6.10280122365216338e-01
21 15 6.10280122365216671e-01
22 15 6.10280122365216671e-01
23 15 6.10280122365216560e-01
24 15 6.10280122365216560e-01
25 15 6.10280122365216671e-01
26 15 6.10280122365216449e-01
27 15 6.10280122365216560e-01
28 15 6.10280122365216560e-01
29 15 6.10280122365216449e-01
30 15 6.10280122365216449e-01
31 15 6.10280122365216782e-01
32 15 6.10280122365216560e-01
33 15 6.10280122365216782e-01
34 15 6.10280122365216449e-01
35 15 6.10280122365216782e-01
36 15 6.10280122365216560e-01
37 15 6.10280122365216671e-01
38 15 6.10280122365216449e-01
39 15 6.10280122365216671e-01
40 15 6.10280122365216560e-01
41 15 6.10280122365216893e-01
42 15 6.10280122365216671e-01
43 15 6.10280122365216782e-01
44 15 6.10280122365216671e-01
45 15 6.10280122365216560e-01
46 15 6.10280122365216671e-01
47 15 6.10280122365216671e-01
48 15 6.10280122365216338e-01
49 15 6.10280122365217004e-01
50 15 6.10280122365216449e-01
51 15 6.10280122365216449e-01
52 15 6.10280122365216560e-01
53 15 6.10280122365216338e-01
54 15 6.10280122365216671e-01
55 15 6.10280122365216671e-01
56 15 6.10280122365216560e-01
57 15 6.10280122365216560e-01
58 15 6.10280122365216671e-01
59 15 6.10280122365216449e-01
60 15 6.10280122365216560e-01
61 15 6.10280122365216560e-01
62 15 6.10280122365216449e-01
63 15 6.10280122365216449e-01
64 15 6.10280122365216782e-01
65 15 6.10280122365216560e-01
66 15 6.10280122365216782e-01
67 15 6.10280122365216449e-01
68 15 6.10280122365216782e-01
69 15 6.10280122365216560e-01
70 15 6.10280122365216671e-01
71 15 6.10280122365216449e-01
72 15 6.10280122365216671e-01
73 15 6.10280122365216560e-01
74 15 6.10280122365216893e-01
75 15 6.10280122365216671e-01
76 15 6.10280122365216782e-01
77 15 6.10280122365216671e-01
78 15 6.10280122365216560e-01
79 15 6.10280122365216671e-01
80 15 6.10280122365216671e-01
81 15 6.10280122365216338e-01
82 15 6.10280122365217004e-01
83 15 6.10280122365216449e-01
84 15 6.10280122365216449e-01
85 15 6.10280122365216560e-01
86 15 6.10280122365216338e-01
87 15 6.10280122365216671e-01
88 15 6.10280122365216671e-01
89 15 6.10280122365216560e-01
90 15 6.10280122365216560e-01
91 15 6.10280122365216671e-01
92 15 6.10280122365216449e-01
93 15 6.10280122365216560e-01
94 15 6.10280122365216560e-01
95 15 6.10280122365216449e-01
96 15 6.10280122365216449e-01
97 15 6.10280122365216782e-01
98 15 6.10280122365216560e-01
99 15 6.10280122365216782e-01
100 15 6.10280122365216449e-01
101 15 6.10280122365216782e-01
102 15 6.10280122365216560e-01
103 15 6.10280122365216671e-01
104 15 6.10280122365216449e-01
105 15 6.10280122365216671e-01
106 15 6.10280122365216560e-01
107 15 6.10280122365216893e-01
108 15 6.10280122365216671e-01
109 15 6.10280122365216782e-01
110 15 6.10280122365216671e-01
111 15 6.10280122365216560e-01
112 15 6.10280122365216671e-01
113 15 6.10280122365216671e-01
114 15 6.10280122365216338e-01
115 15 6.10280122365217004e-01
116 15 6.10280122365216449e-01
117 15 6.10280122365216449e-01
118 15 6.10280122365216560e-01
119 15 6.10280122365216338e-01
120 15 6.10280122365216671e-01
121 15 6.10280122365216671e-01
122 15 6.10280122365216560e-01
123 15 6.10280122365216560e-01
124 15 6.10280122365216671e-01
125 15 6.10280122365216449e-01
126 15 6.10280122365216560e-01
127 15 6.10280122365216560e-01
128 15 6.10280122365216449e-01
129 15 6.10280122365216449e-01
130 15 6.10280122365216782e-01
131 15 6.10280122365216560e-01
132 15 6.10280122365216782e-01
133 15 6.10280122365216449e-01
1 16 6.50369723385751941e-01
2 16 6.50369723385752385e-01
3 16 6.50369723385752163e-01
4 16 6.50369723385752274e-01
5 16 6.50369723385751941e-01
6 16 6.50369723385752163e-01
7 16 6.50369723385752052e-01
8 16 6.50369723385752385e-01
9 16 6.50369723385752274e-01
10 16 6.50369723385752274e-01
11 16 6.50369723385752163e-01
12 16 6.50369723385752052e-01
13 16 6.50369723385752163e-01
14 16 6.50369723385752163e-01
15 16 6.50369723385751830e-01
16 16 6.50369723385752496e-01
17 16 6.50369723385752052e-01
18 16 6.50369723385752052e-01
19 16 6.50369723385752052e-01
20 16 6.50369723385751941e-01
21 16 6.50369723385752163e-01
22 16 6.50369723385752163e-01
23 16 6.50369723385752052e-01
24 16 6.50369723385752052e-01
25 16 6.50369723385752163e-01
26 16 6.50369723385751941e-01
27 16 6.50369723385752163e-01
28 16 6.50369723385752052e-01
29 16 6.50369723385751941e-01
30 16 6.50369723385751941e-01
31 16 6.50369723385752385e-01
32 16 6.50369723385752163e-01
33 16 6.50369723385752385e-01
34 16 6.50369723385751941e-01
35 16 6.50369723385752385e-01
36 16 6.50369723385752163e-01
37 16 6.50369723385752274e-01
38 16 6.50369723385751941e-01
39 16 6.50369723385752163e-01
40 16 6.50369723385752052e-01
41 16 6.50369723385752385e-01
42 16 6.50369723385752274e-01
43 16 6.50369723385752274e-01
44 16 6.50369723385752163e-01
45 16 6.50369723385752052e-01
46 16 6.50369723385752163e-01
47 16 6.50369723385752163e-01
48 16 6.50369723385751830e-01
49 16 6.50369723385752496e-01
50 16 6.50369723385752052e-01
51 16 6.50369723385752052e-01
52 16 6.50369723385752052e-01
53 16 6.50369723385751941e-01
54 16 6.50369723385752163e-01
55 16 6.50369723385752163e-01
56 16 6.50369723385752052e-01
57 16 6.50369723385752052e-01
58 16 6.50369723385752163e-01
59 16 6.50369723385751941e-01
60 16 6.50369723385752163e-01
61 16 6.50369723385752052e-01
62 16 6.50369723385751941e-01
63 16 6.50369723385751941e-01
64 16 6.50369723385752385e-01
65 16 6.50369723385752163e-01
66 16 6.50369723385752385e-01
67 16 6.50369723385751941e-01
68 16 6.50369723385752385e-01
69 16 6.50369723385752163e-01
70 16 6.50369723385752274e-01
71 16 6.50369723385751941e-01
72 16 6.50369723385752163e-01
73 16 6.50369723385752052e-01
74 16 6.50369723385752385e-01
75 16 6.50369723385752274e-01
76 16 6.50369723385752274e-01
77 16 6.50369723385752163e-01
78 16 6.50369723385752052e-01
79 16 6.50369723385752163e-01
80 16 6.50369723385752163e-01
81 16 6.50369723385751830e-01
82 16 6.50369723385752496e-01
83 16 6.50369723385752052e-01
84 16 6.50369723385752052e-01
85 16 6.50369723385752052e-01
86 16 6.50369723385751941e-01
87 16 6.50369723385752163e-01
88 16 6.50369723385752163e-01
89 16 6.50369723385752052e-01
90 16 6.50369723385752052e-01
91 16 6.50369723385752163e-01
92 16 6.50369723385751941e-01
93 16 6.50369723385752163e-01
94 16 6.50369723385752052e-01
95 16 6.50369723385751941e-01
96 16 6.50369723385751941e-01
97 16 6.50369723385752385e-01
98 16 6.50369723385752163e-01
99 16 6.50369723385752385e-01
100 16 6.50369723385751941e-01
101 16 6.50369723385752385e-01
102 16 6.50369723385752163e-01
103 16 6.50369723385752274e-01
104 16 6.50369723385751941e-01
105 16 6.50369723385752163e-01
106 16 6.50369723385752052e-01
107 16 6.50369723385752385e-01
108 16 6.50369723385752274e-01
109 16 6.50369723385752274e-01
110 16 6.50369723385752163e-01
111 16 6.50369723385752052e-01
112 16 6.50369723385752163e-01
113 16 6.50369723385752163e-01
114 16 6.50369723385751830e-01
115 16 6.50369723385752496e-01
116 16 6.50369723385752052e-01
117 16 6.50369723385752052e-01
118 16 6.50369723385752052e-01
119 16 6.50369723385751941e-01
120 16 6.50369723385752163e-01
121 16 6.50369723385752163e-01
122 16 6.50369723385752052e-01
123 16 6.50369723385752052e-01
124 16 6.50369723385752163e-01
125 16 6.50369723385751941e-01
126 16 6.50369723385752163e-01
127 16 6.50369723385752052e-01
128 16 6.50369723385751941e-01
129 16 6.50369723385751941e-01
130 16 6.50369723385752385e-01
131 16 6.50369723385752163e-01
132 16 6.50369723385752385e-01
133 16 6.50369723385751941e-01
1 17 6.88800955010706595e-01
2 17 6.88800955010707150e-01
3 17 6.88800955010706817e-01
4 17 6.88800955010706928e-01
5 17 6.88800955010706484e-01
6 17 6.88800955010706706e-01
7 17 6.88800955010706706e-01
8 17 6.88800955010707150e-01
9 17 6.88800955010706928e-01
10 17 6.88800955010706928e-01
11 17 6.88800955010706817e-01
12 17 6.88800955010706706e-01
13 17 6.88800955010706928e-01
14 17 6.88800955010706817e-01
15 17 6.88800955010706595e-01
16 17 6.88800955010707261e-01
17 17 6.88800955010706817e-01
18 17 6.88800955010706817e-01
19 17 6.88800955010706817e-01
20 17 6.88800955010706706e-01
21 17 6.88800955010706817e-01
22 17 6.88800955010706928e-01
23 17 6.88800955010706706e-01
24 17 6.88800955010706817e-01
25 17 6.88800955010706817e-01
26 17 6.88800955010706706e-01
27 17 6.88800955010706928e-01
28 17 6.88800955010706706e-01
29 17 6.88800955010706706e-01
30 17 6.88800955010706706e-01
31 17 6.88800955010707150e-01
32 17 6.88800955010706817e-01
33 17 6.88800955010707150e-01
34 17 6.88800955010706595e-01
35 17 6.88800955010707150e-01
36 17 6.88800955010706817e-01
37 17 6.88800955010706928e-01
38 17 6.88800955010706484e-01
39 17 6.88800955010706706e-01
40 17 6.88800955010706706e-01
41 17 6.88800955010707150e-01
42 17 6.88800955010706928e-01
43 17 6.88800955010706928e-01
44 17 6.88800955010706817e-01
45 17 6.88800955010706706e-01
46 17 6.88800955010706928e-01
47 17 6.88800955010706817e-01
48 17 6.88800955010706595e-01
49 17 6.88800955010707261e-01
50 17 6.88800955010706817e-01
51 17 6.88800955010706817e-01
52 17 6.88800955010706817e-01
53 17 6.88800955010706706e-01
54 17 6.88800955010706817e-01
55 17 6.88800955010706928e-01
56 17 6.88800955010706706e-01
57 17 6.88800955010706817e-01
58 17 6.88800955010706817e-01
59 17 6.88800955010706706e-01
60 17 6.88800955010706928e-01
61 17 6.88800955010706706e-01
62 17 6.88800955010706706e-01
63 17 6.88800955010706706e-01
64 17 6.88800955010707150e-01
65 17 6.88800955010706817e-01
66 17 6.88800955010707150e-01
67 17 6.88800955010706595e-01
68 17 6.88800955010707150e-01
69 17 6.88800955010706817e-01
70 17 6.88800955010706928e-01
71 17 6.88800955010706484e-01
72 17 6.88800955010706706e-01
73 17 6.88800955010706706e-01
74 17 6.88800955010707150e-01
75 17 6.88800955010706928e-01
76 17 6.88800955010706928e-01
77 17 6.88800955010706817e-01
78 17 6.88800955010706706e-01
79 17 6.88800955010706928e-01
80 17 6.88800955010706817e-01
81 17 6.88800955010706595e-01
82 17 6.88800955010707261e-01
83 17 6.88800955010706817e-01
84 17 6.88800955010706817e-01
85 17 6.88800955010706817e-01
86 17 6.88800955010706706e-01
87 17 6.88800955010706817e-01
88 17 6.88800955010706928e-01
89 17 6.88800955010706706e-01
90 17 6.88800955010706817e-01
91 17 6.88800955010706817e-01
92 17 6.88800955010706706e-01
93 17 6.88800955010706928e-01
94 17 6.88800955010706706e-01
95 17 6.88800955010706706e-01
96 17 6.88800955010706706e-01
97 17 6.88800955010707150e-01
98 17 6.88800955010706817e-01
99 17 6.88800955010707150e-01
100 17 6.88800955010706595e-01
101 17 6.88800955010707150e-01
102 17 6.88800955010706817e-01
103 17 6.88800955010706928e-01
104 17 6.88800955010706484e-01
105 17 6.88800955010706706e-01
106 17 6.88800955010706706e-01
107 17 6.88800955010707150e-01
108 17 6.88800955010706928e-01
109 17 6.88800955010706928e-01
110 17 6.88800955010706817e-01
111 17 6.88800955010706706e-01
112 17 6.88800955010706928e-01
113 17 6.88800955010706817e-01
114 17 6.88800955010706595e-01
115 17 6.88800955010707261e-01
116 17 6.88800955010706817e-01
117 17 6.88800955010706817e-01
118 17 6.88800955010706817e-01
119 17 6.88800955010706706e-01
120 17 6.88800955010706817e-01
121 17 6.88800955010706928e-01
122 17 6.88800955010706706e-01
123 17 6.88800955010706817e-01
124 17 6.88800955010706817e-01
125 17 6.88800955010706706e-01
126 17 6.88800955010706928e-01
127 17 6.88800955010706706e-01
128 17 6.88800955010706706e-01
129 17 6.88800955010706706e-01
130 17 6.88800955010707150e-01
131 17 6.88800955010706817e-01
132 17 6.88800955010707150e-01
133 17 6.88800955010706595e-01
1 18 7.25412607362388107e-01
2 18 7.25412607362388662e-01
3 18 7.25412607362388440e-01
4 18 7.25412607362388551e-01
5 18 7.25412607362387996e-01
6 18 7.25412607362388329e-01
7 18 7.25412607362388218e-01
8 18 7.25412607362388773e-01
9 18 7.25412607362388440e-01
10 18 7.25412607362388440e-01
11 18 7.25412607362388440e-01
12 18 7.25412607362388329e-01
13 18 7.25412607362388329e-01
14 18 7.25412607362388440e-01
15 18 7.25412607362388107e-01
16 18 7.25412607362388773e-01
17 18 7.25412607362388440e-01
18 18 7.25412607362388440e-01
19 18 7.25412607362388329e-01
20 18 7.25412607362388218e-01
21 18 7.25412607362388440e-01
22 18 7.25412607362388329e-01
23 18 7.25412607362388329e-01
24 18 7.25412607362388440e-01
25 18 7.25412607362388440e-01
26 18 7.25412607362388329e-01
27 18 7.25412607362388551e-01
28 18 7.25412607362388218e-01
29 18 7.25412607362388218e-01
30 18 7.25412607362388107e-01
31 18 7.25412607362388662e-01
32 18 7.25412607362388329e-01
33 18 7.25412607362388662e-01
34 18 7.25412607362388107e-01
35 18 7.25412607362388662e-01
36 18 7.25412607362388440e-01
37 18 7.25412607362388551e-01
38 18 7.25412607362387996e-01
39 18 7.25412607362388329e-01
40 18 7.25412607362388218e-01
41 18 7.25412607362388773e-01
42 18 7.25412607362388440e-01
43 18 7.25412607362388440e-01
44 18 7.25412607362388440e-01
45 18 7.25412607362388329e-01
46 18 7.25412607362388329e-01
47 18 7.25412607362388440e-01
48 18 7.25412607362388107e-01
49 18 7.25412607362388773e-01
50 18 7.25412607362388440e-01
51 18 7.25412607362388440e-01
52 18 7.25412607362388329e-01
53 18 7.25412607362388218e-01
54 18 7.25412607362388440e-01
55 18 7.25412607362388329e-01
56 18 7.25412607362388329e-01
57 18 7.25412607362388440e-01
58 18 7.25412607362388440e-01
59 18 7.25412607362388329e-01
60 18 7.25412607362388551e-01
61 18 7.25412607362388218e-01
62 18 7.25412607362388218e-01
63 18 7.25412607362388107e-01
64 18 7.25412607362388662e-01
65 18 7.25412607362388329e-01
66 18 7.25412607362388662e-01
67 18 7.25412607362388107e-01
68 18 7.25412607362388662e-01
69 18 7.25412607362388440e-01
70 18 7.25412607362388551e-01
71 18 7.25412607362387996e-01
72 18 7.25412607362388329e-01
73 18 7.25412607362388218e-01
74 18 7.25412607362388773e-01
75 18 7.25412607362388440e-01
76 18 7.25412607362388440e-01
77 18 7.25412607362388440e-01
78 18 7.25412607362388329e-01
79 18 7.25412607362388329e-01
80 18 7.25412607362388440e-01
81 18 7.25412607362388107e-01
82 18 7.25412607362388773e-01
83 18 7.25412607362388440e-01
84 18 7.25412607362388440e-01
85 18 7.25412607362388329e-01
86 18 7.25412607362388218e-01
87 18 7.25412607362388440e-01
88 18 7.25412607362388329e-01
89 18 7.25412607362388329e-01
90 18 7.25412607362388440e-01
91 18 7.25412607362388440e-01
92 18 7.25412607362388329e-01
93 18 7.25412607362388551e-01
94 18 7.25412607362388218e-01
95 18 7.25412607362388218e-01
96 18 7.25412607362388107e-01
97 18 7.25412607362388662e-01
98 18 7.25412607362388329e-01
99 18 7.25412607362388662e-01
100 18 7.25412607362388107e-01
101 18 7.25412607362388662e-01
102 18 7.25412607362388440e-01
103 18 7.25412607362388551e-01
104 18 7.25412607362387996e-01
105 18 7.25412607362388329e-01
106 18 7.25412607362388218e-01
107 18 7.25412607362388773e-01
108 18 7.25412607362388440e-01
109 18 7.25412607362388440e-01
110 18 7.25412607362388440e-01
111 18 7.25412607362388329e-01
112 18 7.25412607362388329e-01
113 18 7.25412607362388440e-01
114 18 7.25412607362388107e-01
115 18 7.25412607362388773e-01
116 18 7.25412607362388440e-01
117 18 7.25412607362388440e-01
118 18 7.25412607362388329e-01
119 18 7.25412607362388218e-01
120 18 7.25412607362388440e-01
121 18 7.25412607362388329e-01
122 18 7.25412607362388329e-01
123 18 7.25412607362388440e-01
124 18 7.25412607362388440e-01
125 18 7.25412607362388329e-01
126 18 7.25412607362388551e-01
127 18 7.25412607362388218e-01
128 18 7.25412607362388218e-01
129 18 7.25412607362388107e-01
130 18 7.25412607362388662e-01
131 18 7.25412607362388329e-01
132 18 7.25412607362388662e-01
133 18 7.25412607362388107e-01
1 19 7.60057653303947367e-01
2 19 7.60057653303947700e-01
3 19 7.60057653303947700e-01
4 19 7.60057653303947700e-01
5 19 7.60057653303947256e-01
6 19 7.60057653303947589e-01
7 19 7.60057653303947478e-01
8 19 7.60057653303948033e-01
9 19 7.60057653303947589e-01
10 19 7.60057653303947589e-01
11 19 7.60057653303947589e-01
12 19 7.60057653303947589e-01
13 19 7.60057653303947589e-01
14 19 7.60057653303947589e-01
15 19 7.60057653303947367e-01
16 19 7.60057653303948033e-01
17 19 7.60057653303947700e-01
18 19 7.60057653303947700e-01
19 19 7.60057653303947589e-01
20 19 7.60057653303947478e-01
21 19 7.60057653303947589e-01
22 19 7.60057653303947589e-01
23 19 7.60057653303947589e-01
24 19 7.60057653303947589e-01
25 19 7.60057653303947589e-01
26 19 7.60057653303947367e-01
27 19 7.60057653303947700e-01
28 19 7.60057653303947478e-01
29 19 7.60057653303947478e-01
30 19 7.60057653303947367e-01
31 19 7.60057653303947811e-01
32 19 7.60057653303947589e-01
33 19 7.60057653303947700e-01
34 19 7.60057653303947367e-01
35 19 7.60057653303947700e-01
36 19 7.60057653303947700e-01
37 19 7.60057653303947700e-01
38 19 7.60057653303947256e-01
39 19 7.60057653303947589e-01
40 19 7.60057653303947478e-01
41 19 7.60057653303948033e-01
42 19 7.60057653303947589e-01
43 19 7.60057653303947589e-01
44 19 7.60057653303947589e-01
45 19 7.60057653303947589e-01
46 19 7.60057653303947589e-01
47 19 7.60057653303947589e-01
48 19 7.60057653303947367e-01
49 19 7.60057653303948033e-01
50 19 7.60057653303947700e-01
51 19 7.60057653303947700e-01
52 19 7.60057653303947589e-01
53 19 7.60057653303947478e-01
54 19 7.60057653303947589e-01
55 19 7.60057653303947589e-01
56 19 7.60057653303947589e-01
57 19 7.60057653303947589e-01
58 19 7.60057653303947589e-01
59 19 7.60057653303947367e-01
60 19 7.60057653303947700e-01
61 19 7.60057653303947478e-01
62 19 7.60057653303947478e-01
63 19 7.60057653303947367e-01
64 19 7.60057653303947811e-01
65 19 7.60057653303947589e-01
66 19 7.60057653303947700e-01
67 19 7.60057653303947367e-01
68 19 7.60057653303947700e-01
69 19 7.60057653303947700e-01
70 19 7.60057653303947700e-01
71 19 7.60057653303947256e-01
72 19 7.60057653303947589e-01
73 19 7.60057653303947478e-01
74 19 7.60057653303948033e-01
75 19 7.60057653303947589e-01
76 19 7.60057653303947589e-01
77 19 7.60057653303947589e-01
78 19 7.60057653303947589e-01
79 19 7.60057653303947589e-01
80 19 7.60057653303947589e-01
81 19 7.60057653303947367e-01
82 19 7.60057653303948033e-01
83 19 7.60057653303947700e-01
84 19 7.60057653303947700e-01
85 19 7.60057653303947589e-01
86 19 7.60057653303947478e-01
87 19 7.60057653303947589e-01
88 19 7.60057653303947589e-01
89 19 7.60057653303947589e-01
90 19 7.60057653303947589e-01
91 19 7.60057653303947589e-01
92 19 7.60057653303947367e-01
93 19 7.60057653303947700e-01
94 19 7.60057653303947478e-01
95 19 7.60057653303947478e-01
96 19 7.60057653303947367e-01
97 19 7.60057653303947811e-01
98 19 7.60057653303947589e-01
99 19 7.60057653303947700e-01
100 19 7.60057653303947367e-01
101 19 7.60057653303947700e-01
102 19 7.60057653303947700e-01
103 19 7.60057653303947700e-01
104 19 7.60057653303947256e-01
105 19 7.60057653303947589e-01
106 19 7.60057653303947478e-01
107 19 7.60057653303948033e-01
108 19 7.60057653303947589e-01
109 19 7.60057653303947589e-01
110 19 7.60057653303947589e-01
111 19 7.60057653303947589e-01
112 19 7.60057653303947589e-01
113 19 7.60057653303947589e-01
114 19 7.60057653303947367e-01
115 19 7.60057653303948033e-01
116 19 7.60057653303947700e-01
117 19 7.60057653303947700e-01
118 19 7.60057653303947589e-01
119 19 7.60057653303947478e-01
120 19 7.60057653303947589e-01
121 19 7.60057653303947589e-01
122 19 7.60057653303947589e-01
123 19 7.60057653303947589e-01
124 19 7.60057653303947589e-01
125 19 7.60057653303947367e-01
126 19 7.60057653303947700e-01
127 19 7.60057653303947478e-01
128 19 7.60057653303947478e-01
129 19 7.60057653303947367e-01
130 19 7.60057653303947811e-01
131 19 7.60057653303947589e-01
132 19 7.60057653303947700e-01
133 19 7.60057653303947367e-01
1 20 7.92605211317161884e-01
2 20 7.92605211317162106e-01
3 20 7.92605211317162217e-01
4 20 7.92605211317162106e-01
5 20 7.92605211317161884e-01
6 20 7.92605211317162106e-01
7 20 7.92605211317161995e-01
8 20 7.92605211317162550e-01
9 20 7.92605211317162106e-01
10 20 7.92605211317162106e-01
11 20 7.92605211317162217e-01
12 20 7.92605211317162217e-01
13 20 7.92605211317162217e-01
14 20 7.92605211317162217e-01
15 20 7.92605211317161884e-01
16 20 7.92605211317162661e-01
17 20 7.92605211317162328e-01
18 20 7.92605211317162328e-01
19 20 7.92605211317162217e-01
20 20 7.92605211317161995e-01
21 20 7.92605211317162217e-01
22 20 7.92605211317162217e-01
23 20 7.92605211317162217e-01
24 20 7.92605211317162217e-01
25 20 7.92605211317162106e-01
26 20 7.92605211317161884e-01
27 20 7.92605211317162217e-01
28 20 7.92605211317161995e-01
29 20 7.92605211317161995e-01
30 20 7.92605211317161884e-01
31 20 7.92605211317162217e-01
32 20 7.92605211317162106e-01
33 20 7.92605211317162106e-01
34 20 7.92605211317161884e-01
35 20 7.92605211317162106e-01
36 20 7.92605211317162217e-01
37 20 7.92605211317162106e-01
38 20 7.92605211317161884e-01
39 20 7.92605211317162106e-01
40 20 7.92605211317161995e-01
41 20 7.92605211317162550e-01
42 20 7.92605211317162106e-01
43 20 7.92605211317162106e-01
44 20 7.92605211317162217e-01
45 20 7.92605211317162217e-01
46 20 7.92605211317162217e-01
47 20 7.92605211317162217e-01
48 20 7.92605211317161884e-01
49 20 7.92605211317162661e-01
50 20 7.92605211317162328e-01
51 20 7.92605211317162328e-01
52 20 7.92605211317162217e-01
53 20 7.92605211317161995e-01
54 20 7.92605211317162217e-01
55 20 7.92605211317162217e-01
56 20 7.92605211317162217e-01
57 20 7.92605211317162217e-01
58 20 7.92605211317162106e-01
59 20 7.92605211317161884e-01
60 20 7.92605211317162217e-01
61 20 7.92605211317161995e-01
62 20 7.92605211317161995e-01
63 20 7.92605211317161884e-01
64 20 7.92605211317162217e-01
65 20 7.92605211317162106e-01
66 20 7.92605211317162106e-01
67 20 7.92605211317161884e-01
68 20 7.92605211317162106e-01
69 20 7.92605211317162217e-01
70 20 7.92605211317162106e-01
71 20 7.92605211317161884e-01
72 20 7.92605211317162106e-01
73 20 7.92605211317161995e-01
74 20 7.92605211317162550e-01
75 20 7.92605211317162106e-01
76 20 7.92605211317162106e-01
77 20 7.92605211317162217e-01
78 20 7.92605211317162217e-01
79 20 7.92605211317162217e-01
80 20 7.92605211317162217e-01
81 20 7.92605211317161884e-01
82 20 7.92605211317162661e-01
83 20 7.92605211317162328e-01
84 20 7.92605211317162328e-01
85 20 7.92605211317162217e-01
86 20 7.92605211317161995e-01
87 20 7.92605211317162217e-01
88 20 7.92605211317162217e-01
89 20 7.92605211317162217e-01
90 20 7.92605211317162217e-01
91 20 7.92605211317162106e-01
92 20 7.92605211317161884e-01
93 20 7.92605211317162217e-01
94 20 7.92605211317161995e-01
95 20 7.92605211317161995e-01
96 20 7.92605211317161884e-01
97 20 7.92605211317162217e-01
98 20 7.92605211317162106e-01
99 20 7.92605211317162106e-01
100 20 7.92605211317161884e-01
101 20 7.92605211317162106e-01
102 20 7.92605211317162217e-01
103 20 7.92605211317162106e-01
104 20 7.92605211317161884e-01
105 20 7.92605211317162106e-01
106 20 7.92605211317161995e-01
107 20 7.92605211317162550e-01
108 20 7.92605211317162106e-01
109 20 7.92605211317162106e-01
110 20 7.92605211317162217e-01
111 20 7.92605211317162217e-01
112 20 7.92605211317162217e-01
113 20 7.92605211317162217e-01
114 20 7.92605211317161884e-01
115 20 7.92605211317162661e-01
116 20 7.92605211317162328e-01
117 20 7.92605211317162328e-01
118 20 7.92605211317162217e-01
119 20 7.92605211317161995e-01
120 20 7.92605211317162217e-01
121 20 7.92605211317162217e-01
122 20 7.92605211317162217e-01
123 20 7.92605211317162217e-01
124 20 7.92605211317162106e-01
125 20 7.92605211317161884e-01
126 20 7.92605211317162217e-01
127 20 7.92605211317161995e-01
128 20 7.92605211317161995e-01
129 20 7.92605211317161884e-01
130 20 7.92605211317162217e-01
131 20 7.92605211317162106e-01
132 20 7.92605211317162106e-01
133 20 7.92605211317161884e-01
1 21 8.22942178512991340e-01
2 21 8.22942178512991562e-01
3 21 8.22942178512991673e-01
4 21 8.22942178512991673e-01
5 21 8.22942178512991451e-01
6 21 8.22942178512991562e-01
7 21 8.22942178512991562e-01
8 21 8.22942178512992006e-01
9 21 8.22942178512991562e-01
10 21 8.22942178512991673e-01
11 21 8.22942178512991673e-01
12 21 8.22942178512991673e-01
13 21 8.22942178512991784e-01
14 21 8.22942178512991562e-01
15 21 8.22942178512991451e-01
16 21 8.22942178512992117e-01
17 21 8.22942178512991784e-01
18 21 8.22942178512991784e-01
19 21 8.22942178512991784e-01
20 21 8.22942178512991562e-01
21 21 8.22942178512991562e-01
22 21 8.22942178512991784e-01
23 21 8.22942178512991673e-01
24 21 8.22942178512991673e-01
25 21 8.22942178512991562e-01
26 21 8.22942178512991451e-01
27 21 8.22942178512991784e-01
28 21 8.22942178512991562e-01
29 21 8.22942178512991562e-01
30 21 8.22942178512991562e-01
31 21 8.22942178512991784e-01
32 21 8.22942178512991784e-01
33 21 8.22942178512991451e-01
34 21 8.22942178512991340e-01
35 21 8.22942178512991562e-01
36 21 8.22942178512991673e-01
37 21 8.22942178512991673e-01
38 21 8.22942178512991451e-01
39 21 8.22942178512991562e-01
40 21 8.22942178512991562e-01
41 21 8.22942178512992006e-01
42 21 8.22942178512991562e-01
43 21 8.22942178512991673e-01
44 21 8.22942178512991673e-01
45 21 8.22942178512991673e-01
46 21 8.22942178512991784e-01
47 21 8.22942178512991562e-01
48 21 8.22942178512991451e-01
49 21 8.22942178512992117e-01
50 21 8.22942178512991784e-01
51 21 8.22942178512991784e-01
52 21 8.22942178512991784e-01
53 21 8.22942178512991562e-01
54 21 8.22942178512991562e-01
55 21 8.22942178512991784e-01
56 21 8.22942178512991673e-01
57 21 8.22942178512991673e-01
58 21 8.22942178512991562e-01
59 21 8.22942178512991451e-01
60 21 8.22942178512991784e-01
61 21 8.22942178512991562e-01
62 21 8.22942178512991562e-01
63 21 8.22942178512991562e-01
64 21 8.22942178512991784e-01
65 21 8.22942178512991784e-01
66 21 8.22942178512991451e-01
67 21 8.22942178512991340e-01
68 21 8.22942178512991562e-01
69 21 8.22942178512991673e-01
70 21 8.22942178512991673e-01
71 21 8.22942178512991451e-01
72 21 8.22942178512991562e-01
73 21 8.22942178512991562e-01
74 21 8.22942178512992006e-01
75 21 8.22942178512991562e-01
76 21 8.22942178512991673e-01
77 21 8.22942178512991673e-01
78 21 8.22942178512991673e-01
79 21 8.22942178512991784e-01
80 21 8.22942178512991562e-01
81 21 8.22942178512991451e-01
82 21 8.22942178512992117e-01
83 21 8.22942178512991784e-01
84 21 8.22942178512991784e-01
85 21 8.22942178512991784e-01
86 21 8.22942178512991562e-01
87 21 8.22942178512991562e-01
88 21 8.22942178512991784e-01
89 21 8.22942178512991673e-01
90 21 8.22942178512991673e-01
91 21 8.22942178512991562e-01
92 21 8.22942178512991451e-01
93 21 8.22942178512991784e-01
94 21 8.22942178512991562e-01
95 21 8.22942178512991562e-01
96 21 8.22942178512991562e-01
97 21 8.22942178512991784e-01
98 21 8.22942178512991784e-01
99 21 8.22942178512991451e-01
100 21 8.22942178512991340e-01
101 21 8.22942178512991562e-01
102 21 8.22942178512991673e-01
103 21 8.22942178512991673e-01
104 21 8.22942178512991451e-01
105 21 8.22942178512991562e-01
106 21 8.22942178512991562e-01
107 21 8.22942178512992006e-01
108 21 8.22942178512991562e-01
109 21 8.22942178512991673e-01
110 21 8.22942178512991673e-01
111 21 8.22942178512991673e-01
112 21 8.22942178512991784e-01
113 21 8.22942178512991562e-01
114 21 8.22942178512991451e-01
115 21 8.22942178512992117e-01
116 21 8.22942178512991784e-01
117 21 8.22942178512991784e-01
118 21 8.22942178512991784e-01
119 21 8.22942178512991562e-01
120 21 8.22942178512991562e-01
121 21 8.22942178512991784e-01
122 21 8.22942178512991673e-01
123 21 8.22942178512991673e-01
124 21 8.22942178512991562e-01
125 21 8.22942178512991451e-01
126 21 8.22942178512991784e-01
127 21 8.22942178512991562e-01
128 21 8.22942178512991562e-01
129 21 8.22942178512991562e-01
130 21 8.22942178512991784e-01
131 21 8.22942178512991784e-01
132 21 8.22942178512991451e-01
133 21 8.22942178512991340e-01
1 22 8.50974491469989491e-01
2 22 8.50974491469989713e-01
3 22 8.50974491469989824e-01
4 22 8.50974491469989713e-01
5 22 8.50974491469989602e-01
6 22 8.50974491469989824e-01
7 22 8.50974491469989713e-01
8 22 8.50974491469990157e-01
9 22 8.50974491469989824e-01
10 22 8.50974491469989824e-01
11 22 8.50974491469989935e-01
12 22 8.50974491469989824e-01
13 22 8.50974491469990046e-01
14 22 8.50974491469989713e-01
15 22 8.50974491469989602e-01
16 22 8.50974491469990268e-01
17 22 8.50974491469990046e-01
18 22 8.50974491469990046e-01
19 22 8.50974491469989935e-01
20 22 8.50974491469989713e-01
21 22 8.50974491469989713e-01
22 22 8.50974491469990046e-01
23 22 8.50974491469989824e-01
24 22 8.50974491469989935e-01
25 22 8.50974491469989824e-01
26 22 8.50974491469989713e-01
27 22 8.50974491469990046e-01
28 22 8.50974491469989824e-01
29 22 8.50974491469989824e-01
30 22 8.50974491469989824e-01
31 22 8.50974491469989824e-01
32 22 8.50974491469989824e-01
33 22 8.50974491469989602e-01
34 22 8.50974491469989491e-01
35 22 8.50974491469989713e-01
36 22 8.50974491469989824e-01
37 22 8.50974491469989713e-01
38 22 8.50974491469989602e-01
39 22 8.50974491469989824e-01
40 22 8.50974491469989713e-01
41 22 8.50974491469990157e-01
42 22 8.50974491469989824e-01
43 22 8.50974491469989824e-01
44 22 8.50974491469989935e-01
45 22 8.50974491469989824e-01
46 22 8.50974491469990046e-01
47 22 8.50974491469989713e-01
48 22 8.50974491469989602e-01
49 22 8.50974491469990268e-01
50 22 8.50974491469990046e-01
51 22 8.50974491469990046e-01
52 22 8.50974491469989935e-01
53 22 8.50974491469989713e-01
54 22 8.50974491469989713e-01
55 22 8.50974491469990046e-01
56 22 8.50974491469989824e-01
57 22 8.50974491469989935e-01
58 22 8.50974491469989824e-01
59 22 8.50974491469989713e-01
60 22 8.50974491469990046e-01
61 22 8.50974491469989824e-01
62 22 8.50974491469989824e-01
63 22 8.50974491469989824e-01
64 22 8.50974491469989824e-01
65 22 8.50974491469989824e-01
66 22 8.50974491469989602e-01
67 22 8.50974491469989491e-01
68 22 8.50974491469989713e-01
69 22 8.50974491469989824e-01
70 22 8.50974491469989713e-01
71 22 8.50974491469989602e-01
72 22 8.50974491469989824e-01
73 22 8.50974491469989713e-01
74 22 8.50974491469990157e-01
75 22 8.50974491469989824e-01
76 22 8.50974491469989824e-01
77 22 8.50974491469989935e-01
78 22 8.50974491469989824e-01
79 22 8.50974491469990046e-01
80 22 8.50974491469989713e-01
81 22 8.50974491469989602e-01
82 22 8.50974491469990268e-01
83 22 8.50974491469990046e-01
84 22 8.50974491469990046e-01
85 22 8.50974491469989935e-01
86 22 8.50974491469989713e-01
87 22 8.50974491469989713e-01
88 22 8.50974491469990046e-01
89 22 8.50974491469989824e-01
90 22 8.50974491469989935e-01
91 22 8.50974491469989824e-01
92 22 8.50974491469989713e-01
93 22 8.50974491469990046e-01
94 22 8.50974491469989824e-01
95 22 8.50974491469989824e-01
96 22 8.50974491469989824e-01
97 22 8.50974491469989824e-01
98 22 8.50974491469989824e-01
99 22 8.50974491469989602e-01
100 22 8.50974491469989491e-01
101 22 8.50974491469989713e-01
102 22 8.50974491469989824e-01
103 22 8.50974491469989713e-01
104 22 8.50974491469989602e-01
105 22 8.50974491469989824e-01
106 22 8.50974491469989713e-01
107 22 8.50974491469990157e-01
108 22 8.50974491469989824e-01
109 22 8.50974491469989824e-01
110 22 8.50974491469989935e-01
111 22 8.50974491469989824e-01
112 22 8.50974491469990046e-01
113 22 8.50974491469989713e-01
114 22 8.50974491469989602e-01
115 22 8.50974491469990268e-01
116 22 8.50974491469990046e-01
117 22 8.50974491469990046e-01
118 22 8.50974491469989935e-01
119 22 8.50974491469989713e-01
120 22 8.50974491469989713e-01
121 22 8.50974491469990046e-01
122 22 8.50974491469989824e-01
123 22 8.50974491469989935e-01
124 22 8.50974491469989824e-01
125 22 8.50974491469989713e-01
126 22 8.50974491469990046e-01
127 22 8.50974491469989824e-01
128 22 8.50974491469989824e-01
129 22 8.50974491469989824e-01
130 22 8.50974491469989824e-01
131 22 8.50974491469989824e-01
132 22 8.50974491469989602e-01
133 22 8.50974491469989491e-01
1 23 8.76627986955611171e-01
2 23 8.76627986955611394e-01
3 23 8.76627986955611505e-01
4 23 8.76627986955611505e-01
5 23 8.76627986955611171e-01
6 23 8.76627986955611505e-01
7 23 8.76627986955611394e-01
8 23 8.76627986955611838e-01
9 23 8.76627986955611505e-01
10 23 8.76627986955611505e-01
11 23 8.76627986955611505e-01
12 23 8.76627986955611505e-01
13 23 8.76627986955611616e-01
14 23 8.76627986955611282e-01
15 23 8.76627986955611394e-01
16 23 8.76627986955611838e-01
17 23 8.76627986955611616e-01
18 23 8.76627986955611616e-01
19 23 8.76627986955611616e-01
20 23 8.76627986955611505e-01
21 23 8.76627986955611282e-01
22 23 8.76627986955611616e-01
23 23 8.76627986955611394e-01
24 23 8.76627986955611505e-01
25 23 8.76627986955611505e-01
26 23 8.76627986955611282e-01
27 23 8.76627986955611616e-01
28 23 8.76627986955611505e-01
29 23 8.76627986955611394e-01
30 23 8.76627986955611505e-01
31 23 8.76627986955611505e-01
32 23 8.76627986955611394e-01
33 23 8.76627986955611282e-01
34 23 8.76627986955611171e-01
35 23 8.76627986955611394e-01
36 23 8.76627986955611505e-01
37 23 8.76627986955611505e-01
38 23 8.76627986955611171e-01
39 23 8.76627986955611505e-01
40 23 8.76627986955611394e-01
41 23 8.76627986955611838e-01
42 23 8.76627986955611505e-01
43 23 8.76627986955611505e-01
44 23 8.76627986955611505e-01
45 23 8.76627986955611505e-01
46 23 8.76627986955611616e-01
47 23 8.76627986955611282e-01
48 23 8.76627986955611394e-01
49 23 8.76627986955611838e-01
50 23 8.76627986955611616e-01
51 23 8.76627986955611616e-01
52 23 8.76627986955611616e-01
53 23 8.76627986955611505e-01
54 23 8.76627986955611282e-01
55 23 8.76627986955611616e-01
56 23 8.76627986955611394e-01
57 23 8.76627986955611505e-01
58 23 8.76627986955611505e-01
59 23 8.76627986955611282e-01
60 23 8.76627986955611616e-01
61 23 8.76627986955611505e-01
62 23 8.76627986955611394e-01
63 23 8.76627986955611505e-01
64 23 8.76627986955611505e-01
65 23 8.76627986955611394e-01
66 23 8.76627986955611282e-01
67 23 8.76627986955611171e-01
68 23 8.76627986955611394e-01
69 23 8.76627986955611505e-01
70 23 8.76627986955611505e-01
71 23 8.76627986955611171e-01
72 23 8.76627986955611505e-01
73 23 8.76627986955611394e-01
74 23 8.76627986955611838e-01
75 23 8.76627986955611505e-01
76 23 8.76627986955611505e-01
77 23 8.76627986955611505e-01
78 23 8.76627986955611505e-01
79 23 8.76627986955611616e-01
80 23 8.76627986955611282e-01
81 23 8.76627986955611394e-01
82 23 8.76627986955611838e-01
83 23 8.76627986955611616e-01
84 23 8.76627986955611616e-01
85 23 8.76627986955611616e-01
86 23 8.76627986955611505e-01
87 23 8.76627986955611282e-01
88 23 8.76627986955611616e-01
89 23 8.76627986955611394e-01
90 23 8.76627986955611505e-01
91 23 8.76627986955611505e-01
92 23 8.76627986955611282e-01
93 23 8.76627986955611616e-01
94 23 8.76627986955611505e-01
95 23 8.76627986955611394e-01
96 23 8.76627986955611505e-01
97 23 8.76627986955611505e-01
98 23 8.76627986955611394e-01
99 23 8.76627986955611282e-01
100 23 8.76627986955611171e-01
101 23 8.76627986955611394e-01
102 23 8.76627986955611505e-01
103 23 8.76627986955611505e-01
104 23 8.76627986955611171e-01
105 23 8.76627986955611505e-01
106 23 8.76627986955611394e-01
107 23 8.76627986955611838e-01
108 23 8.76627986955611505e-01
109 23 8.76627986955611505e-01
110 23 8.76627986955611505e-01
111 23 8.76627986955611505e-01
112 23 8.76627986955611616e-01
113 23 8.76627986955611282e-01
114 23 8.76627986955611394e-01
115 23 8.76627986955611838e-01
116 23 8.76627986955611616e-01
117 23 8.76627986955611616e-01
118 23 8.76627986955611616e-01
119 23 8.76627986955611505e-01
120 23 8.76627986955611282e-01
121 23 8.76627986955611616e-01
122 23 8.76627986955611394e-01
123 23 8.76627986955611505e-01
124 23 8.76627986955611505e-01
125 23 8.76627986955611282e-01
126 23 8.76627986955611616e-01
127 23 8.76627986955611505e-01
128 23 8.76627986955611394e-01
129 23 8.76627986955611505e-01
130 23 8.76627986955611505e-01
131 23 8.76627986955611394e-01
132 23 8.76627986955611282e-01
133 23 8.76627986955611171e-01
1 24 8.99848849919983595e-01
2 24 8.99848849919983595e-01
3 24 8.99848849919983929e-01
4 24 8.99848849919983818e-01
5 24 8.99848849919983595e-01
6 24 8.99848849919983818e-01
7 24 8.99848849919983818e-01
8 24 8.99848849919984151e-01
9 24 8.99848849919983818e-01
10 24 8.99848849919983818e-01
11 24 8.99848849919983929e-01
12 24 8.99848849919983929e-01
13 24 8.99848849919984040e-01
14 24 8.99848849919983707e-01
15 24 8.99848849919983818e-01
16 24 8.99848849919984151e-01
17 24 8.99848849919984040e-01
18 24 8.99848849919984040e-01
19 24 8.99848849919984151e-01
20 24 8.99848849919983818e-01
21 24 8.99848849919983707e-01
22 24 8.99848849919984040e-01
23 24 8.99848849919983707e-01
24 24 8.99848849919983929e-01
25 24 8.99848849919983929e-01
26 24 8.99848849919983818e-01
27 24 8.99848849919984040e-01
28 24 8.99848849919983818e-01
29 24 8.99848849919983707e-01
30 24 8.99848849919983818e-01
31 24 8.99848849919983818e-01
32 24 8.99848849919983929e-01
33 24 8.99848849919983595e-01
34 24 8.99848849919983595e-01
35 24 8.99848849919983595e-01
36 24 8.99848849919983929e-01
37 24 8.99848849919983818e-01
38 24 8.99848849919983595e-01
39 24 8.99848849919983818e-01
40 24 8.99848849919983818e-01
41 24 8.99848849919984151e-01
42 24 8.99848849919983818e-01
43 24 8.99848849919983818e-01
44 24 8.99848849919983929e-01
45 24 8.99848849919983929e-01
46 24 8.99848849919984040e-01
47 24 8.99848849919983707e-01
48 24 8.99848849919983818e-01
49 24 8.99848849919984151e-01
50 24 8.99848849919984040e-01
51 24 8.99848849919984040e-01
52 24 8.99848849919984151e-01
53 24 8.99848849919983818e-01
54 24 8.99848849919983707e-01
55 24 8.99848849919984040e-01
56 24 8.99848849919983707e-01
57 24 8.99848849919983929e-01
58 24 8.99848849919983929e-01
59 24 8.99848849919983818e-01
60 24 8.99848849919984040e-01
61 24 8.99848849919983818e-01
62 24 8.99848849919983707e-01
63 24 8.99848849919983818e-01
64 24 8.99848849919983818e-01
65 24 8.99848849919983929e-01
66 24 8.99848849919983595e-01
67 24 8.99848849919983595e-01
68 24 8.99848849919983595e-01
69 24 8.99848849919983929e-01
70 24 8.99848849919983818e-01
71 24 8.99848849919983595e-01
72 24 8.99848849919983818e-01
73 24 8.99848849919983818e-01
74 24 8.99848849919984151e-01
75 24 8.99848849919983818e-01
76 24 8.99848849919983818e-01
77 24 8.99848849919983929e-01
78 24 8.99848849919983929e-01
79 24 8.99848849919984040e-01
80 24 8.99848849919983707e-01
81 24 8.99848849919983818e-01
82 24 8.99848849919984151e-01
83 24 8.99848849919984040e-01
84 24 8.99848849919984040e-01
85 24 8.99848849919984151e-01
86 24 8.99848849919983818e-01
87 24 8.99848849919983707e-01
88 24 8.99848849919984040e-01
89 24 8.99848849919983707e-01
90 24 8.99848849919983929e-01
91 24 8.99848849919983929e-01
92 24 8.99848849919983818e-01
93 24 8.99848849919984040e-01
94 24 8.99848849919983818e-01
95 24 8.99848849919983707e-01
96 24 8.99848849919983818e-01
97 24 8.99848849919983818e-01
98 24 8.99848849919983929e-01
99 24 8.99848849919983595e-01
100 24 8.99848849919983595e-01
101 24 8.99848849919983595e-01
102 24 8.99848849919983929e-01
103 24 8.99848849919983818e-01
104 24 8.99848849919983595e-01
105 24 8.99848849919983818e-01
106 24 8.99848849919983818e-01
107 24 8.99848849919984151e-01
108 24 8.99848849919983818e-01
109 24 8.99848849919983818e-01
110 24 8.99848849919983929e-01
111 24 8.99848849919983929e-01
112 24 8.99848849919984040e-01
113 24 8.99848849919983707e-01
114 24 8.99848849919983818e-01
115 24 8.99848849919984151e-01
116 24 8.99848849919984040e-01
117 24 8.99848849919984040e-01
118 24 8.99848849919984151e-01
119 24 8.99848849919983818e-01
120 24 8.99848849919983707e-01
121 24 8.99848849919984040e-01
122 24 8.99848849919983707e-01
123 24 8.99848849919983929e-01
124 24 8.99848849919983929e-01
125 24 8.99848849919983818e-01
126 24 8.99848849919984040e-01
127 24 8.99848849919983818e-01
128 24 8.99848849919983707e-01
129 24 8.99848849919983818e-01
130 24 8.99848849919983818e-01
131 24 8.99848849919983929e-01
132 24 8.99848849919983595e-01
133 24 8.99848849919983595e-01
1 25 9.20603651537845513e-01
2 25 9.20603651537845624e-01
3 25 9.20603651537845846e-01
4 25 9.20603651537845735e-01
5 25 9.20603651537845402e-01
6 25 9.20603651537845846e-01
7 25 9.20603651537845735e-01
8 25 9.20603651537846068e-01
9 25 9.20603651537845624e-01
10 25 9.20603651537845846e-01
11 25 9.20603651537845846e-01
12 25 9.20603651537845957e-01
13 25 9.20603651537845957e-01
14 25 9.20603651537845735e-01
15 25 9.20603651537845846e-01
16 25 9.20603651537846068e-01
17 25 9.20603651537846068e-01
18 25 9.20603651537846068e-01
19 25 9.20603651537846068e-01
20 25 9.20603651537845846e-01
21 25 9.20603651537845735e-01
22 25 9.20603651537845957e-01
23 25 9.20603651537845846e-01
24 25 9.20603651537845846e-01
25 25 9.20603651537845846e-01
26 25 9.20603651537845735e-01
27 25 9.20603651537845957e-01
28 25 9.20603651537845735e-01
29 25 9.20603651537845624e-01
30 25 9.20603651537845735e-01
31 25 9.20603651537845735e-01
32 25 9.20603651537845846e-01
33 25 9.20603651537845624e-01
34 25 9.20603651537845513e-01
35 25 9.20603651537845624e-01
36 25 9.20603651537845846e-01
37 25 9.20603651537845735e-01
38 25 9.20603651537845402e-01
39 25 9.20603651537845846e-01
40 25 9.20603651537845735e-01
41 25 9.20603651537846068e-01
42 25 9.20603651537845624e-01
43 25 9.20603651537845846e-01
44 25 9.20603651537845846e-01
45 25 9.20603651537845957e-01
46 25 9.20603651537845957e-01
47 25 9.20603651537845735e-01
48 25 9.20603651537845846e-01
49 25 9.20603651537846068e-01
50 25 9.20603651537846068e-01
51 25 9.20603651537846068e-01
52 25 9.20603651537846068e-01
53 25 9.20603651537845846e-01
54 25 9.20603651537845735e-01
55 25 9.20603651537845957e-01
56 25 9.20603651537845846e-01
57 25 9.20603651537845846e-01
58 25 9.20603651537845846e-01
59 25 9.20603651537845735e-01
60 25 9.20603651537845957e-01
61 25 9.20603651537845735e-01
62 25 9.20603651537845624e-01
63 25 9.20603651537845735e-01
64 25 9.20603651537845735e-01
65 25 9.20603651537845846e-01
66 25 9.20603651537845624e-01
67 25 9.20603651537845513e-01
68 25 9.20603651537845624e-01
69 25 9.20603651537845846e-01
70 25 9.20603651537845735e-01
71 25 9.20603651537845402e-01
72 25 9.20603651537845846e-01
73 25 9.20603651537845735e-01
74 25 9.20603651537846068e-01
75 25 9.20603651537845624e-01
76 25 9.20603651537845846e-01
77 25 9.20603651537845846e-01
78 25 9.20603651537845957e-01
79 25 9.20603651537845957e-01
80 25 9.20603651537845735e-01
81 25 9.20603651537845846e-01
82 25 9.20603651537846068e-01
83 25 9.20603651537846068e-01
84 25 9.20603651537846068e-01
85 25 9.20603651537846068e-01
86 25 9.20603651537845846e-01
87 25 9.20603651537845735e-01
88 25 9.20603651537845957e-01
89 25 9.20603651537845846e-01
90 25 9.20603651537845846e-01
91 25 9.20603651537845846e-01
92 25 9.20603651537845735e-01
93 25 9.20603651537845957e-01
94 25 9.20603651537845735e-01
95 25 9.20603651537845624e-01
96 25 9.20603651537845735e-01
97 25 9.20603651537845735e-01
98 25 9.20603651537845846e-01
99 25 9.20603651537845624e-01
100 25 9.20603651537845513e-01
101 25 9.20603651537845624e-01
102 25 9.20603651537845846e-01
103 25 9.20603651537845735e-01
104 25 9.20603651537845402e-01
105 25 9.20603651537845846e-01
106 25 9.20603651537845735e-01
107 25 9.20603651537846068e-01
108 25 9.20603651537845624e-01
109 25 9.20603651537845846e-01
110 25 9.20603651537845846e-01
111 25 9.20603651537845957e-01
112 25 9.20603651537845957e-01
113 25 9.20603651537845735e-01
114 25 9.20603651537845846e-01
115 25 9.20603651537846068e-01
116 25 9.20603651537846068e-01
117 25 9.20603651537846068e-01
118 25 9.20603651537846068e-01
119 25 9.20603651537845846e-01
120 25 9.20603651537845735e-01
121 25 9.20603651537845957e-01
122 25 9.20603651537845846e-01
123 25 9.20603651537845846e-01
124 25 9.20603651537845846e-01
125 25 9.20603651537845735e-01
126 25 9.20603651537845957e-01
127 25 9.20603651537845735e-01
128 25 9.20603651537845624e-01
129 25 9.20603651537845735e-01
130 25 9.20603651537845735e-01
131 25 9.20603651537845846e-01
132 25 9.20603651537845624e-01
133 25 9.20603651537845513e-01
1 26 9.38878994624438246e-01
2 26 9.38878994624438357e-01
3 26 9.38878994624438579e-01
4 26 9.38878994624438468e-01
5 26 9.38878994624438135e-01
6 26 9.38878994624438579e-01
7 26 9.38878994624438468e-01
8 26 9.38878994624438690e-01
9 26 9.38878994624438357e-01
10 26 9.38878994624438468e-01
11 26 9.38878994624438579e-01
12 26 9.38878994624438579e-01
13 26 9.38878994624438579e-01
14 26 9.38878994624438468e-01
15 26 9.38878994624438579e-01
16 26 9.38878994624438690e-01
17 26 9.38878994624438801e-01
18 26 9.38878994624438801e-01
19 26 9.38878994624438690e-01
20 26 9.38878994624438579e-01
21 26 9.38878994624438468e-01
22 26 9.38878994624438579e-01
23 26 9.38878994624438468e-01
24 26 9.38878994624438579e-01
25 26 9.38878994624438468e-01
26 26 9.38878994624438468e-01
27 26 9.38878994624438579e-01
28 26 9.38878994624438579e-01
29 26 9.38878994624438357e-01
30 26 9.38878994624438468e-01
31 26 9.38878994624438468e-01
32 26 9.38878994624438579e-01
33 26 9.38878994624438357e-01
34 26 9.38878994624438246e-01
35 26 9.38878994624438357e-01
36 26 9.38878994624438579e-01
37 26 9.38878994624438468e-01
38 26 9.38878994624438135e-01
39 26 9.38878994624438579e-01
40 26 9.38878994624438468e-01
41 26 9.38878994624438690e-01
42 26 9.38878994624438357e-01
43 26 9.38878994624438468e-01
44 26 9.38878994624438579e-01
45 26 9.38878994624438579e-01
46 26 9.38878994624438579e-01
47 26 9.38878994624438468e-01
48 26 9.38878994624438579e-01
49 26 9.38878994624438690e-01
50 26 9.38878994624438801e-01
51 26 9.38878994624438801e-01
52 26 9.38878994624438690e-01
53 26 9.38878994624438579e-01
54 26 9.38878994624438468e-01
55 26 9.38878994624438579e-01
56 26 9.38878994624438468e-01
57 26 9.38878994624438579e-01
58 26 9.38878994624438468e-01
59 26 9.38878994624438468e-01
60 26 9.38878994624438579e-01
61 26 9.38878994624438579e-01
62 26 9.38878994624438357e-01
63 26 9.38878994624438468e-01
64 26 9.38878994624438468e-01
65 26 9.38878994624438579e-01
66 26 9.38878994624438357e-01
67 26 9.38878994624438246e-01
68 26 9.38878994624438357e-01
69 26 9.38878994624438579e-01
70 26 9.38878994624438468e-01
71 26 9.38878994624438135e-01
72 26 9.38878994624438579e-01
73 26 9.38878994624438468e-01
74 26 9.38878994624438690e-01
75 26 9.38878994624438357e-01
76 26 9.38878994624438468e-01
77 26 9.38878994624438579e-01
78 26 9.38878994624438579e-01
79 26 9.38878994624438579e-01
80 26 9.38878994624438468e-01
81 26 9.38878994624438579e-01
82 26 9.38878994624438690e-01
83 26 9.38878994624438801e-01
84 26 9.38878994624438801e-01
85 26 9.38878994624438690e-01
86 26 9.38878994624438579e-01
87 26 9.38878994624438468e-01
88 26 9.38878994624438579e-01
89 26 9.38878994624438468e-01
90 26 9.38878994624438579e-01
91 26 9.38878994624438468e-01
92 26 9.38878994624438468e-01
93 26 9.38878994624438579e-01
94 26 9.38878994624438579e-01
95 26 9.38878994624438357e-01
96 26 9.38878994624438468e-01
97 26 9.38878994624438468e-01
98 26 9.38878994624438579e-01
99 26 9.38878994624438357e-01
100 26 9.38878994624438246e-01
101 26 9.38878994624438357e-01
102 26 9.38878994624438579e-01
103 26 9.38878994624438468e-01
104 26 9.38878994624438135e-01
105 26 9.38878994624438579e-01
106 26 9.38878994624438468e-01
107 26 9.38878994624438690e-01
108 26 9.38878994624438357e-01
109 26 9.38878994624438468e-01
110 26 9.38878994624438579e-01
111 26 9.38878994624438579e-01
112 26 9.38878994624438579e-01
113 26 9.38878994624438468e-01
114 26 9.38878994624438579e-01
115 26 9.38878994624438690e-01
116 26 9.38878994624438801e-01
117 26 9.38878994624438801e-01
118 26 9.38878994624438690e-01
119 26 9.38878994624438579e-01
120 26 9.38878994624438468e-01
121 26 9.38878994624438579e-01
122 26 9.38878994624438468e-01
123 26 9.38878994624438579e-01
124 26 9.38878994624438468e-01
125 26 9.38878994624438468e-01
126 26 9.38878994624438579e-01
127 26 9.38878994624438579e-01
128 26 9.38878994624438357e-01
129 26 9.38878994624438468e-01
130 26 9.38878994624438468e-01
131 26 9.38878994624438579e-01
132 26 9.38878994624438357e-01
133 26 9.38878994624438246e-01
1 27 9.54680796685007160e-01
2 27 9.54680796685007271e-01
3 27 9.54680796685007382e-01
4 27 9.54680796685007271e-01
5 27 9.54680796685007049e-01
6 27 9.54680796685007382e-01
7 27 9.54680796685007160e-01
8 27 9.54680796685007382e-01
9 27 9.54680796685007160e-01
10 27 9.54680796685007382e-01
11 27 9.54680796685007493e-01
12 27 9.54680796685007271e-01
13 27 9.54680796685007493e-01
14 27 9.54680796685007271e-01
15 27 9.54680796685007493e-01
16 27 9.54680796685007493e-01
17 27 9.54680796685007715e-01
18 27 9.54680796685007715e-01
19 27 9.54680796685007493e-01
20 27 9.54680796685007493e-01
21 27 9.54680796685007271e-01
22 27 9.54680796685007493e-01
23 27 9.54680796685007271e-01
24 27 9.54680796685007493e-01
25 27 9.54680796685007382e-01
26 27 9.54680796685007382e-01
27 27 9.54680796685007382e-01
28 27 9.54680796685007382e-01
29 27 9.54680796685007160e-01
30 27 9.54680796685007271e-01
31 27 9.54680796685007271e-01
32 27 9.54680796685007493e-01
33 27 9.54680796685007271e-01
34 27 9.54680796685007160e-01
35 27 9.54680796685007271e-01
36 27 9.54680796685007382e-01
37 27 9.54680796685007271e-01
38 27 9.54680796685007049e-01
39 27 9.54680796685007382e-01
40 27 9.54680796685007160e-01
41 27 9.54680796685007382e-01
42 27 9.54680796685007160e-01
43 27 9.54680796685007382e-01
44 27 9.54680796685007493e-01
45 27 9.54680796685007271e-01
46 27 9.54680796685007493e-01
47 27 9.54680796685007271e-01
48 27 9.54680796685007493e-01
49 27 9.54680796685007493e-01
50 27 9.54680796685007715e-01
51 27 9.54680796685007715e-01
52 27 9.54680796685007493e-01
53 27 9.54680796685007493e-01
54 27 9.54680796685007271e-01
55 27 9.54680796685007493e-01
56 27 9.54680796685007271e-01
57 27 9.54680796685007493e-01
58 27 9.54680796685007382e-01
59 27 9.54680796685007382e-01
60 27 9.54680796685007382e-01
61 27 9.54680796685007382e-01
62 27 9.54680796685007160e-01
63 27 9.54680796685007271e-01
64 27 9.54680796685007271e-01
65 27 9.54680796685007493e-01
66 27 9.54680796685007271e-01
67 27 9.54680796685007160e-01
68 27 9.54680796685007271e-01
69 27 9.54680796685007382e-01
70 27 9.54680796685007271e-01
71 27 9.54680796685007049e-01
72 27 9.54680796685007382e-01
73 27 9.54680796685007160e-01
74 27 9.54680796685007382e-01
75 27 9.54680796685007160e-01
76 27 9.54680796685007382e-01
77 27 9.54680796685007493e-01
78 27 9.54680796685007271e-01
79 27 9.54680796685007493e-01
80 27 9.54680796685007271e-01
81 27 9.54680796685007493e-01
82 27 9.54680796685007493e-01
83 27 9.54680796685007715e-01
84 27 9.54680796685007715e-01
85 27 9.54680796685007493e-01
86 27 9.54680796685007493e-01
87 27 9.54680796685007271e-01
88 27 9.54680796685007493e-01
89 27 9.54680796685007271e-01
90 27 9.54680796685007493e-01
91 27 9.54680796685007382e-01
92 27 9.54680796685007382e-01
93 27 9.54680796685007382e-01
94 27 9.54680796685007382e-01
95 27 9.54680796685007160e-01
96 27 9.54680796685007271e-01
97 27 9.54680796685007271e-01
98 27 9.54680796685007493e-01
99 27 9.54680796685007271e-01
100 27 9.54680796685007160e-01
101 27 9.54680796685007271e-01
102 27 9.54680796685007382e-01
103 27 9.54680796685007271e-01
104 27 9.54680796685007049e-01
105 27 9.54680796685007382e-01
106 27 9.54680796685007160e-01
107 27 9.54680796685007382e-01
108 27 9.54680796685007160e-01
109 27 9.54680796685007382e-01
110 27 9.54680796685007493e-01
111 27 9.54680796685007271e-01
112 27 9.54680796685007493e-01
113 27 9.54680796685007271e-01
114 27 9.54680796685007493e-01
115 27 9.54680796685007493e-01
116 27 9.54680796685007715e-01
117 27 9.54680796685007715e-01
118 27 9.54680796685007493e-01
119 27 9.54680796685007493e-01
120 27 9.54680796685007271e-01
121 27 9.54680796685007493e-01
122 27 9.54680796685007271e-01
123 27 9.54680796685007493e-01
124 27 9.54680796685007382e-01
125 27 9.54680796685007382e-01
126 27 9.54680796685007382e-01
127 27 9.54680796685007382e-01
128 27 9.54680796685007160e-01
129 27 9.54680796685007271e-01
130 27 9.54680796685007271e-01
131 27 9.54680796685007493e-01
132 27 9.54680796685007271e-01
133 27 9.54680796685007160e-01
1 28 9.68033251559624053e-01
2 28 9.68033251559624164e-01
3 28 9.68033251559624275e-01
4 28 9.68033251559624164e-01
5 28 9.68033251559623831e-01
6 28 9.68033251559624164e-01
7 28 9.68033251559624053e-01
8 28 9.68033251559624164e-01
9 28 9.68033251559624053e-01
10 28 9.68033251559624164e-01
11 28 9.68033251559624275e-01
12 28 9.68033251559624053e-01
13 28 9.68033251559624275e-01
14 28 9.68033251559623942e-01
15 28 9.68033251559624275e-01
16 28 9.68033251559624275e-01
17 28 9.68033251559624497e-01
18 28 9.68033251559624497e-01
19 28 9.68033251559624275e-01
20 28 9.68033251559624275e-01
21 28 9.68033251559623942e-01
22 28 9.68033251559624275e-01
23 28 9.68033251559624275e-01
24 28 9.68033251559624275e-01
25 28 9.68033251559624275e-01
26 28 9.68033251559624164e-01
27 28 9.68033251559624164e-01
28 28 9.68033251559624164e-01
29 28 9.68033251559624164e-01
30 28 9.68033251559624164e-01
31 28 9.68033251559624164e-01
32 28 9.68033251559624386e-01
33 28 9.68033251559624164e-01
34 28 9.68033251559624053e-01
35 28 9.68033251559624164e-01
36 28 9.68033251559624275e-01
37 28 9.68033251559624164e-01
38 28 9.68033251559623831e-01
39 28 9.68033251559624164e-01
40 28 9.68033251559624053e-01
41 28 9.68033251559624164e-01
42 28 9.68033251559624053e-01
43 28 9.68033251559624164e-01
44 28 9.68033251559624275e-01
45 28 9.68033251559624053e-01
46 28 9.68033251559624275e-01
47 28 9.68033251559623942e-01
48 28 9.68033251559624275e-01
49 28 9.68033251559624275e-01
50 28 9.68033251559624497e-01
51 28 9.68033251559624497e-01
52 28 9.68033251559624275e-01
53 28 9.68033251559624275e-01
54 28 9.68033251559623942e-01
55 28 9.68033251559624275e-01
56 28 9.68033251559624275e-01
57 28 9.68033251559624275e-01
58 28 9.68033251559624275e-01
59 28 9.68033251559624164e-01
60 28 9.68033251559624164e-01
61 28 9.68033251559624164e-01
62 28 9.68033251559624164e-01
63 28 9.68033251559624164e-01
64 28 9.68033251559624164e-01
65 28 9.68033251559624386e-01
66 28 9.68033251559624164e-01
67 28 9.68033251559624053e-01
68 28 9.68033251559624164e-01
69 28 9.68033251559624275e-01
70 28 9.68033251559624164e-01
71 28 9.68033251559623831e-01
72 28 9.68033251559624164e-01
73 28 9.68033251559624053e-01
74 28 9.68033251559624164e-01
75 28 9.68033251559624053e-01
76 28 9.68033251559624164e-01
77 28 9.68033251559624275e-01
78 28 9.68033251559624053e-01
79 28 9.68033251559624275e-01
80 28 9.68033251559623942e-01
81 28 9.68033251559624275e-01
82 28 9.68033251559624275e-01
83 28 9.68033251559624497e-01
84 28 9.68033251559624497e-01
85 28 9.68033251559624275e-01
86 28 9.68033251559624275e-01
87 28 9.68033251559623942e-01
88 28 9.68033251559624275e-01
89 28 9.68033251559624275e-01
90 28 9.68033251559624275e-01
91 28 9.68033251559624275e-01
92 28 9.68033251559624164e-01
93 28 9.68033251559624164e-01
94 28 9.68033251559624164e-01
95 28 9.68033251559624164e-01
96 28 9.68033251559624164e-01
97 28 9.68033251559624164e-01
98 28 9.68033251559624386e-01
99 28 9.68033251559624164e-01
100 28 9.68033251559624053e-01
101 28 9.68033251559624164e-01
102 28 9.68033251559624275e-01
103 28 9.68033251559624164e-01
104 28 9.68033251559623831e-01
105 28 9.68033251559624164e-01
106 28 9.68033251559624053e-01
107 28 9.68033251559624164e-01
108 28 9.68033251559624053e-01
109 28 9.68033251559624164e-01
110 28 9.68033251559624275e-01
111 28 9.68033251559624053e-01
112 28 9.68033251559624275e-01
113 28 9.68033251559623942e-01
114 28 9.68033251559624275e-01
115 28 9.68033251559624275e-01
116 28 9.68033251559624497e-01
117 28 9.68033251559624497e-01
118 28 9.68033251559624275e-01
119 28 9.68033251559624275e-01
120 28 9.68033251559623942e-01
121 28 9.68033251559624275e-01
122 28 9.68033251559624275e-01
123 28 9.68033251559624275e-01
124 28 9.68033251559624275e-01
125 28 9.68033251559624164e-01
126 28 9.68033251559624164e-01
127 28 9.68033251559624164e-01
128 28 9.68033251559624164e-01
129 28 9.68033251559624164e-01
130 28 9.68033251559624164e-01
131 28 9.68033251559624386e-01
132 28 9.68033251559624164e-01
133 28 9.68033251559624053e-01
1 29 9.78977518680848591e-01
2 29 9.78977518680848813e-01
3 29 9.78977518680848813e-01
4 29 9.78977518680848813e-01
5 29 9.78977518680848480e-01
6 29 9.78977518680848591e-01
7 29 9.78977518680848591e-01
8 29 9.78977518680848702e-01
9 29 9.78977518680848480e-01
10 29 9.78977518680848702e-01
11 29 9.78977518680848813e-01
12 29 9.78977518680848702e-01
13 29 9.78977518680848702e-01
14 29 9.78977518680848591e-01
15 29 9.78977518680848702e-01
16 29 9.78977518680848924e-01
17 29 9.78977518680849035e-01
18 29 9.78977518680849035e-01
19 29 9.78977518680848924e-01
20 29 9.78977518680848813e-01
21 29 9.78977518680848591e-01
22 29 9.78977518680848702e-01
23 29 9.78977518680848702e-01
24 29 9.78977518680848813e-01
25 29 9.78977518680848813e-01
26 29 9.78977518680848591e-01
27 29 9.78977518680848702e-01
28 29 9.78977518680848702e-01
29 29 9.78977518680848591e-01
30 29 9.78977518680848702e-01
31 29 9.78977518680848702e-01
32 29 9.78977518680848813e-01
33 29 9.78977518680848813e-01
34 29 9.78977518680848591e-01
35 29 9.78977518680848813e-01
36 29 9.78977518680848813e-01
37 29 9.78977518680848813e-01
38 29 9.78977518680848480e-01
39 29 9.78977518680848591e-01
40 29 9.78977518680848591e-01
41 29 9.78977518680848702e-01
42 29 9.78977518680848480e-01
43 29 9.78977518680848702e-01
44 29 9.78977518680848813e-01
45 29 9.78977518680848702e-01
46 29 9.78977518680848702e-01
47 29 9.78977518680848591e-01
48 29 9.78977518680848702e-01
49 29 9.78977518680848924e-01
50 29 9.78977518680849035e-01
51 29 9.78977518680849035e-01
52 29 9.78977518680848924e-01
53 29 9.78977518680848813e-01
54 29 9.78977518680848591e-01
55 29 9.78977518680848702e-01
56 29 9.78977518680848702e-01
57 29 9.78977518680848813e-01
58 29 9.78977518680848813e-01
59 29 9.78977518680848591e-01
60 29 9.78977518680848702e-01
61 29 9.78977518680848702e-01
62 29 9.78977518680848591e-01
63 29 9.78977518680848702e-01
64 29 9.78977518680848702e-01
65 29 9.78977518680848813e-01
66 29 9.78977518680848813e-01
67 29 9.78977518680848591e-01
68 29 9.78977518680848813e-01
69 29 9.78977518680848813e-01
70 29 9.78977518680848813e-01
71 29 9.78977518680848480e-01
72 29 9.78977518680848591e-01
73 29 9.78977518680848591e-01
74 29 9.78977518680848702e-01
75 29 9.78977518680848480e-01
76 29 9.78977518680848702e-01
77 29 9.78977518680848813e-01
78 29 9.78977518680848702e-01
79 29 9.78977518680848702e-01
80 29 9.78977518680848591e-01
81 29 9.78977518680848702e-01
82 29 9.78977518680848924e-01
83 29 9.78977518680849035e-01
84 29 9.78977518680849035e-01
85 29 9.78977518680848924e-01
86 29 9.78977518680848813e-01
87 29 9.78977518680848591e-01
88 29 9.78977518680848702e-01
89 29 9.78977518680848702e-01
90 29 9.78977518680848813e-01
91 29 9.78977518680848813e-01
92 29 9.78977518680848591e-01
93 29 9.78977518680848702e-01
94 29 9.78977518680848702e-01
95 29 9.78977518680848591e-01
96 29 9.78977518680848702e-01
97 29 9.78977518680848702e-01
98 29 9.78977518680848813e-01
99 29 9.78977518680848813e-01
100 29 9.78977518680848591e-01
101 29 9.78977518680848813e-01
102 29 9.78977518680848813e-01
103 29 9.78977518680848813e-01
104 29 9.78977518680848480e-01
105 29 9.78977518680848591e-01
106 29 9.78977518680848591e-01
107 29 9.78977518680848702e-01
108 29 9.78977518680848480e-01
109 29 9.78977518680848702e-01
110 29 9.78977518680848813e-01
111 29 9.78977518680848702e-01
112 29 9.78977518680848702e-01
113 29 9.78977518680848591e-01
114 29 9.78977518680848702e-01
115 29 9.78977518680848924e-01
116 29 9.78977518680849035e-01
117 29 9.78977518680849035e-01
118 29 9.78977518680848924e-01
119 29 9.78977518680848813e-01
120 29 9.78977518680848591e-01
121 29 9.78977518680848702e-01
122 29 9.78977518680848702e-01
123 29 9.78977518680848813e-01
124 29 9.78977518680848813e-01
125 29 9.78977518680848591e-01
126 29 9.78977518680848702e-01
127 29 9.78977518680848702e-01
128 29 9.78977518680848591e-01
129 29 9.78977518680848702e-01
130 29 9.78977518680848702e-01
131 29 9.78977518680848813e-01
132 29 9.78977518680848813e-01
133 29 9.78977518680848591e-01
1 30 9.87570194172242566e-01
2 30 9.87570194172242677e-01
3 30 9.87570194172242566e-01
4 30 9.87570194172242677e-01
5 30 9.87570194172242455e-01
6 30 9.87570194172242455e-01
7 30 9.87570194172242566e-01
8 30 9.87570194172242566e-01
9 30 9.87570194172242455e-01
10 30 9.87570194172242677e-01
11 30 9.87570194172242788e-01
12 30 9.87570194172242566e-01
13 30 9.87570194172242566e-01
14 30 9.87570194172242455e-01
15 30 9.87570194172242566e-01
16 30 9.87570194172242677e-01
17 30 9.87570194172242899e-01
18 30 9.87570194172242899e-01
19 30 9.87570194172242677e-01
20 30 9.87570194172242677e-01
21 30 9.87570194172242455e-01
22 30 9.87570194172242566e-01
23 30 9.87570194172242566e-01
24 30 9.87570194172242788e-01
25 30 9.87570194172242677e-01
26 30 9.87570194172242455e-01
27 30 9.87570194172242566e-01
28 30 9.87570194172242566e-01
29 30 9.87570194172242455e-01
30 30 9.87570194172242677e-01
31 30 9.87570194172242566e-01
32 30 9.87570194172242566e-01
33 30 9.87570194172242677e-01
34 30 9.87570194172242566e-01
35 30 9.87570194172242677e-01
36 30 9.87570194172242566e-01
37 30 9.87570194172242677e-01
38 30 9.87570194172242455e-01
39 30 9.87570194172242455e-01
40 30 9.87570194172242566e-01
41 30 9.87570194172242566e-01
42 30 9.87570194172242455e-01
43 30 9.87570194172242677e-01
44 30 9.87570194172242788e-01
45 30 9.87570194172242566e-01
46 30 9.87570194172242566e-01
47 30 9.87570194172242455e-01
48 30 9.87570194172242566e-01
49 30 9.87570194172242677e-01
50 30 9.87570194172242899e-01
51 30 9.87570194172242899e-01
52 30 9.87570194172242677e-01
53 30 9.87570194172242677e-01
54 30 9.87570194172242455e-01
55 30 9.87570194172242566e-01
56 30 9.87570194172242566e-01
57 30 9.87570194172242788e-01
58 30 9.87570194172242677e-01
59 30 9.87570194172242455e-01
60 30 9.87570194172242566e-01
61 30 9.87570194172242566e-01
62 30 9.87570194172242455e-01
63 30 9.87570194172242677e-01
64 30 9.87570194172242566e-01
65 30 9.87570194172242566e-01
66 30 9.87570194172242677e-01
67 30 9.87570194172242566e-01
68 30 9.87570194172242677e-01
69 30 9.87570194172242566e-01
70 30 9.87570194172242677e-01
71 30 9.87570194172242455e-01
72 30 9.87570194172242455e-01
73 30 9.87570194172242566e-01
74 30 9.87570194172242566e-01
75 30 9.87570194172242455e-01
76 30 9.87570194172242677e-01
77 30 9.87570194172242788e-01
78 30 9.87570194172242566e-01
79 30 9.87570194172242566e-01
80 30 9.87570194172242455e-01
81 30 9.87570194172242566e-01
82 30 9.87570194172242677e-01
83 30 9.87570194172242899e-01
84 30 9.87570194172242899e-01
85 30 9.87570194172242677e-01
86 30 9.87570194172242677e-01
87 30 9.87570194172242455e-01
88 30 9.87570194172242566e-01
89 30 9.87570194172242566e-01
90 30 9.87570194172242788e-01
91 30 9.87570194172242677e-01
92 30 9.87570194172242455e-01
93 30 9.87570194172242566e-01
94 30 9.87570194172242566e-01
95 30 9.87570194172242455e-01
96 30 9.87570194172242677e-01
97 30 9.87570194172242566e-01
98 30 9.87570194172242566e-01
99 30 9.87570194172242677e-01
100 30 9.87570194172242566e-01
101 30 9.87570194172242677e-01
102 30 9.87570194172242566e-01
103 30 9.87570194172242677e-01
104 30 9.87570194172242455e-01
105 30 9.87570194172242455e-01
106 30 9.87570194172242566e-01
107 30 9.87570194172242566e-01
108 30 9.87570194172242455e-01
109 30 9.87570194172242677e-01
110 30 9.87570194172242788e-01
111 30 9.87570194172242566e-01
112 30 9.87570194172242566e-01
113 30 9.87570194172242455e-01
114 30 9.87570194172242566e-01
115 30 9.87570194172242677e-01
116 30 9.87570194172242899e-01
117 30 9.87570194172242899e-01
118 30 9.87570194172242677e-01
119 30 9.87570194172242677e-01
120 30 9.87570194172242455e-01
121 30 9.87570194172242566e-01
122 30 9.87570194172242566e-01
123 30 9.87570194172242788e-01
124 30 9.87570194172242677e-01
125 30 9.87570194172242455e-01
126 30 9.87570194172242566e-01
127 30 9.87570194172242566e-01
128 30 9.87570194172242455e-01
129 30 9.87570194172242677e-01
130 30 9.87570194172242566e-01
131 30 9.87570194172242566e-01
132 30 9.87570194172242677e-01
133 30 9.87570194172242566e-01
1 31 9.93881620389746590e-01
2 31 9.93881620389746701e-01
3 31 9.93881620389746590e-01
4 31 9.93881620389746701e-01
5 31 9.93881620389746478e-01
6 31 9.93881620389746478e-01
7 31 9.93881620389746590e-01
8 31 9.93881620389746590e-01
9 31 9.93881620389746478e-01
10 31 9.93881620389746590e-01
11 31 9.93881620389746701e-01
12 31 9.93881620389746590e-01
13 31 9.93881620389746478e-01
14 31 9.93881620389746478e-01
15 31 9.93881620389746590e-01
16 31 9.93881620389746701e-01
17 31 9.93881620389746812e-01
18 31 9.93881620389746812e-01
19 31 9.93881620389746701e-01
20 31 9.93881620389746590e-01
21 31 9.93881620389746478e-01
22 31 9.93881620389746478e-01
23 31 9.93881620389746590e-01
24 31 9.93881620389746701e-01
25 31 9.93881620389746590e-01
26 31 9.93881620389746478e-01
27 31 9.93881620389746590e-01
28 31 9.93881620389746590e-01
29 31 9.93881620389746478e-01
30 31 9.93881620389746590e-01
31 31 9.93881620389746590e-01
32 31 9.93881620389746590e-01
33 31 9.93881620389746701e-01
34 31 9.93881620389746590e-01
35 31 9.93881620389746701e-01
36 31 9.93881620389746590e-01
37 31 9.93881620389746701e-01
38 31 9.93881620389746478e-01
39 31 9.93881620389746478e-01
40 31 9.93881620389746590e-01
41 31 9.93881620389746590e-01
42 31 9.93881620389746478e-01
43 31 9.93881620389746590e-01
44 31 9.93881620389746701e-01
45 31 9.93881620389746590e-01
46 31 9.93881620389746478e-01
47 31 9.93881620389746478e-01
48 31 9.93881620389746590e-01
49 31 9.93881620389746701e-01
50 31 9.93881620389746812e-01
51 31 9.93881620389746812e-01
52 31 9.93881620389746701e-01
53 31 9.93881620389746590e-01
54 31 9.93881620389746478e-01
55 31 9.93881620389746478e-01
56 31 9.93881620389746590e-01
57 31 9.93881620389746701e-01
58 31 9.93881620389746590e-01
59 31 9.93881620389746478e-01
60 31 9.93881620389746590e-01
61 31 9.93881620389746590e-01
62 31 9.93881620389746478e-01
63 31 9.93881620389746590e-01
64 31 9.93881620389746590e-01
65 31 9.93881620389746590e-01
66 31 9.93881620389746701e-01
67 31 9.93881620389746590e-01
68 31 9.93881620389746701e-01
69 31 9.93881620389746590e-01
70 31 9.93881620389746701e-01
71 31 9.93881620389746478e-01
72 31 9.93881620389746478e-01
73 31 9.93881620389746590e-01
74 31 9.93881620389746590e-01
75 31 9.93881620389746478e-01
76 31 9.93881620389746590e-01
77 31 9.93881620389746701e-01
78 31 9.93881620389746590e-01
79 31 9.93881620389746478e-01
80 31 9.93881620389746478e-01
81 31 9.93881620389746590e-01
82 31 9.93881620389746701e-01
83 31 9.93881620389746812e-01
84 31 9.93881620389746812e-01
85 31 9.93881620389746701e-01
86 31 9.93881620389746590e-01
87 31 9.93881620389746478e-01
88 31 9.93881620389746478e-01
89 31 9.93881620389746590e-01
90 31 9.93881620389746701e-01
91 31 9.93881620389746590e-01
92 31 9.93881620389746478e-01
93 31 9.93881620389746590e-01
94 31 9.93881620389746590e-01
95 31 9.93881620389746478e-01
96 31 9.93881620389746590e-01
97 31 9.93881620389746590e-01
98 31 9.93881620389746590e-01
99 31 9.93881620389746701e-01
100 31 9.93881620389746590e-01
101 31 9.93881620389746701e-01
102 31 9.93881620389746590e-01
103 31 9.93881620389746701e-01
104 31 9.93881620389746478e-01
105 31 9.93881620389746478e-01
106 31 9.93881620389746590e-01
107 31 9.93881620389746590e-01
108 31 9.93881620389746478e-01
109 31 9.93881620389746590e-01
110 31 9.93881620389746701e-01
111 31 9.93881620389746590e-01
112 31 9.93881620389746478e-01
113 31 9.93881620389746478e-01
114 31 9.93881620389746590e-01
115 31 9.93881620389746701e-01
116 31 9.93881620389746812e-01
117 31 9.93881620389746812e-01
118 31 9.93881620389746701e-01
119 31 9.93881620389746590e-01
120 31 9.93881620389746478e-01
121 31 9.93881620389746478e-01
122 31 9.93881620389746590e-01
123 31 9.93881620389746701e-01
124 31 9.93881620389746590e-01
125 31 9.93881620389746478e-01
126 31 9.93881620389746590e-01
127 31 9.93881620389746590e-01
128 31 9.93881620389746478e-01
129 31 9.93881620389746590e-01
130 31 9.93881620389746590e-01
131 31 9.93881620389746590e-01
132 31 9.93881620389746701e-01
133 31 9.93881620389746590e-01
1 32 9.97994090236534293e-01
2 32 9.97994090236534293e-01
3 32 9.97994090236534293e-01
4 32 9.97994090236534404e-01
5 32 9.97994090236534293e-01
6 32 9.97994090236534293e-01
7 32 9.97994090236534293e-01
8 32 9.97994090236534293e-01
9 32 9.97994090236534181e-01
10 32 9.97994090236534181e-01
11 32 9.97994090236534293e-01
12 32 9.97994090236534181e-01
13 32 9.97994090236534181e-01
14 32 9.97994090236534181e-01
15 32 9.97994090236534293e-01
16 32 9.97994090236534293e-01
17 32 9.97994090236534404e-01
18 32 9.97994090236534404e-01
19 32 9.97994090236534293e-01
20 32 9.97994090236534293e-01
21 32 9.97994090236534181e-01
22 32 9.97994090236534181e-01
23 32 9.97994090236534181e-01
24 32 9.97994090236534293e-01
25 32 9.97994090236534181e-01
26 32 9.97994090236534181e-01
27 32 9.97994090236534293e-01
28 32 9.97994090236534293e-01
29 32 9.97994090236534181e-01
30 32 9.97994090236534293e-01
31 32 9.97994090236534293e-01
32 32 9.97994090236534293e-01
33 32 9.97994090236534293e-01
34 32 9.97994090236534293e-01
35 32 9.97994090236534293e-01
36 32 9.97994090236534293e-01
37 32 9.97994090236534404e-01
38 32 9.97994090236534293e-01
39 32 9.97994090236534293e-01
40 32 9.97994090236534293e-01
41 32 9.97994090236534293e-01
42 32 9.97994090236534181e-01
43 32 9.97994090236534181e-01
44 32 9.97994090236534293e-01
45 32 9.97994090236534181e-01
46 32 9.97994090236534181e-01
47 32 9.97994090236534181e-01
48 32 9.97994090236534293e-01
49 32 9.97994090236534293e-01
50 32 9.97994090236534404e-01
51 32 9.97994090236534404e-01
52 32 9.97994090236534293e-01
53 32 9.97994090236534293e-01
54 32 9.97994090236534181e-01
55 32 9.97994090236534181e-01
56 32 9.97994090236534181e-01
57 32 9.97994090236534293e-01
58 32 9.97994090236534181e-01
59 32 9.97994090236534181e-01
60 32 9.97994090236534293e-01
61 32 9.97994090236534293e-01
62 32 9.97994090236534181e-01
63 32 9.97994090236534293e-01
64 32 9.97994090236534293e-01
65 32 9.97994090236534293e-01
66 32 9.97994090236534293e-01
67 32 9.97994090236534293e-01
68 32 9.97994090236534293e-01
69 32 9.97994090236534293e-01
70 32 9.97994090236534404e-01
71 32 9.97994090236534293e-01
72 32 9.97994090236534293e-01
73 32 9.97994090236534293e-01
74 32 9.97994090236534293e-01
75 32 9.97994090236534181e-01
76 32 9.97994090236534181e-01
77 32 9.97994090236534293e-01
78 32 9.97994090236534181e-01
79 32 9.97994090236534181e-01
80 32 9.97994090236534181e-01
81 32 9.97994090236534293e-01
82 32 9.97994090236534293e-01
83 32 9.97994090236534404e-01
84 32 9.97994090236534404e-01
85 32 9.97994090236534293e-01
86 32 9.97994090236534293e-01
87 32 9.97994090236534181e-01
88 32 9.97994090236534181e-01
89 32 9.97994090236534181e-01
90 32 9.97994090236534293e-01
91 32 9.97994090236534181e-01
92 32 9.97994090236534181e-01
93 32 9.97994090236534293e-01
94 32 9.97994090236534293e-01
95 32 9.97994090236534181e-01
96 32 9.97994090236534293e-01
97 32 9.97994090236534293e-01
98 32 9.97994090236534293e-01
99 32 9.97994090236534293e-01
100 32 9.97994090236534293e-01
101 32 9.97994090236534293e-01
102 32 9.97994090236534293e-01
103 32 9.97994090236534404e-01
104 32 9.97994090236534293e-01
105 32 9.97994090236534293e-01
106 32 9.97994090236534293e-01
107 32 9.97994090236534293e-01
108 32 9.97994090236534181e-01
109 32 9.97994090236534181e-01
110 32 9.97994090236534293e-01
111 32 9.97994090236534181e-01
112 32 9.97994090236534181e-01
113 32 9.97994090236534181e-01
114 32 9.97994090236534293e-01
115 32 9.97994090236534293e-01
116 32 9.97994090236534404e-01
117 32 9.97994090236534404e-01
118 32 9.97994090236534293e-01
119 32 9.97994090236534293e-01
120 32 9.97994090236534181e-01
121 32 9.97994090236534181e-01
122 32 9.97994090236534181e-01
123 32 9.97994090236534293e-01
124 32 9.97994090236534181e-01
125 32 9.97994090236534181e-01
126 32 9.97994090236534293e-01
127 32 9.97994090236534293e-01
128 32 9.97994090236534181e-01
129 32 9.97994090236534293e-01
130 32 9.97994090236534293e-01
131 32 9.97994090236534293e-01
132 32 9.97994090236534293e-01
133 32 9.97994090236534293e-01
1 33 1.00000000000000000e+00
2 33 1.00000000000000000e+00
3 33 1.00000000000000000e+00
4 33 1.00000000000000000e+00
5 33 1.00000000000000000e+00
6 33 1.00000000000000000e+00
7 33 1.00000000000000000e+00
8 33 1.00000000000000000e+00
9 33 1.00000000000000000e+00
10 33 1.00000000000000000e+00
11 33 1.00000000000000000e+00
12 33 1.00000000000000000e+00
13 33 1.00000000000000000e+00
14 33 1.00000000000000000e+00
15 33 1.00000000000000000e+00
16 33 1.00000000000000000e+00
17 33 1.00000000000000000e+00
18 33 1.00000000000000000e+00
19 33 1.00000000000000000e+00
20 33 1.00000000000000000e+00
21 33 1.00000000000000000e+00
22 33 1.00000000000000000e+00
23 33 1.00000000000000000e+00
24 33 1.00000000000000000e+00
25 33 1.00000000000000000e+00
26 33 1.00000000000000000e+00
27 33 1.00000000000000000e+00
28 33 1.00000000000000000e+00
29 33 1.00000000000000000e+00
30 33 1.00000000000000000e+00
31 33 1.00000000000000000e+00
32 33 1.00000000000000000e+00
33 33 1.00000000000000000e+00
34 33 1.00000000000000000e+00
35 33 1.00000000000000000e+00
36 33 1.00000000000000000e+00
37 33 1.00000000000000000e+00
38 33 1.00000000000000000e+00
39 33 1.00000000000000000e+00
40 33 1.00000000000000000e+00
41 33 1.00000000000000000e+00
42 33 1.00000000000000000e+00
43 33 1.00000000000000000e+00
44 33 1.00000000000000000e+00
45 33 1.00000000000000000e+00
46 33 1.00000000000000000e+00
47 33 1.00000000000000000e+00
48 33 1.00000000000000000e+00
49 33 1.00000000000000000e+00
50 33 1.00000000000000000e+00
51 33 1.00000000000000000e+00
52 33 1.00000000000000000e+00
53 33 1.00000000000000000e+00
54 33 1.00000000000000000e+00
55 33 1.00000000000000000e+00
56 33 1.00000000000000000e+00
57 33 1.00000000000000000e+00
58 33 1.00000000000000000e+00
59 33 1.00000000000000000e+00
60 33 1.00000000000000000e+00
61 33 1.00000000000000000e+00
62 33 1.00000000000000000e+00
63 33 1.00000000000000000e+00
64 33 1.00000000000000000e+00
65 33 1.00000000000000000e+00
66 33 1.00000000000000000e+00
67 33 1.00000000000000000e+00
68 33 1.00000000000000000e+00
69 33 1.00000000000000000e+00
70 33 1.00000000000000000e+00
71 33 1.00000000000000000e+00
72 33 1.00000000000000000e+00
73 33 1.00000000000000000e+00
74 33 1.00000000000000000e+00
75 33 1.00000000000000000e+00
76 33 1.00000000000000000e+00
77 33 1.00000000000000000e+00
78 33 1.00000000000000000e+00
79 33 1.00000000000000000e+00
80 33 1.00000000000000000e+00
81 33 1.00000000000000000e+00
82 33 1.00000000000000000e+00
83 33 1.00000000000000000e+00
84 33 1.00000000000000000e+00
85 33 1.00000000000000000e+00
86 33 1.00000000000000000e+00
87 33 1.00000000000000000e+00
88 33 1.00000000000000000e+00
89 33 1.00000000000000000e+00
90 33 1.00000000000000000e+00
91 33 1.00000000000000000e+00
92 33 1.00000000000000000e+00
93 33 1.00000000000000000e+00
94 33 1.00000000000000000e+00
95 33 1.00000000000000000e+00
96 33 1.00000000000000000e+00
97 33 1.00000000000000000e+00
98 33 1.00000000000000000e+00
99 33 1.00000000000000000e+00
100 33 1.00000000000000000e+00
101 33 1.00000000000000000e+00
102 33 1.00000000000000000e+00
103 33 1.00000000000000000e+00
104 33 1.00000000000000000e+00
105 33 1.00000000000000000e+00
106 33 1.00000000000000000e+00
107 33 1.00000000000000000e+00
108 33 1.00000000000000000e+00
109 33 1.00000000000000000e+00
110 33 1.00000000000000000e+00
111 33 1.00000000000000000e+00
112 33 1.00000000000000000e+00
113 33 1.00000000000000000e+00
114 33 1.00000000000000000e+00
115 33 1.00000000000000000e+00
116 33 1.00000000000000000e+00
117 33 1.00000000000000000e+00
118 33 1.00000000000000000e+00
119 33 1.00000000000000000e+00
120 33 1.00000000000000000e+00
121 33 1.00000000000000000e+00
122 33 1.00000000000000000e+00
123 33 1.00000000000000000e+00
124 33 1.00000000000000000e+00
125 33 1.00000000000000000e+00
126 33 1.00000000000000000e+00
127 33 1.00000000000000000e+00
128 33 1.00000000000000000e+00
129 33 1.00000000000000000e+00
130 33 1.00000000000000000e+00
131 33 1.00000000000000000e+00
132 33 1.00000000000000000e+00
133 33 1.00000000000000000e+00
1 34 1.00000000000000000e+00
2 34 1.00000000000000000e+00
3 34 1.00000000000000000e+00
4 34 1.00000000000000000e+00
5 34 1.00000000000000000e+00
6 34 1.00000000000000000e+00
7 34 1.00000000000000000e+00
8 34 1.00000000000000000e+00
9 34 1.00000000000000000e+00
10 34 1.00000000000000000e+00
11 34 1.00000000000000000e+00
12 34 1.00000000000000000e+00
13 34 1.00000000000000000e+00
14 34 1.00000000000000000e+00
15 34 1.00000000000000000e+00
16 34 1.00000000000000000e+00
17 34 1.00000000000000000e+00
18 34 1.00000000000000000e+00
19 34 1.00000000000000000e+00
20 34 1.00000000000000000e+00
21 34 1.00000000000000000e+00
22 34 1.00000000000000000e+00
23 34 1.00000000000000000e+00
24 34 1.00000000000000000e+00
25 34 1.00000000000000000e+00
26 34 1.00000000000000000e+00
27 34 1.00000000000000000e+00
28 34 1.00000000000000000e+00
29 34 1.00000000000000000e+00
30 34 1.00000000000000000e+00
31 34 1.00000000000000000e+00
32 34 1.00000000000000000e+00
33 34 1.00000000000000000e+00
34 34 1.00000000000000000e+00
35 34 1.00000000000000000e+00
36 34 1.00000000000000000e+00
37 34 1.00000000000000000e+00
38 34 1.00000000000000000e+00
39 34 1.00000000000000000e+00
40 34 1.00000000000000000e+00
41 34 1.00000000000000000e+00
42 34 1.00000000000000000e+00
43 34 1.00000000000000000e+00
44 34 1.00000000000000000e+00
45 34 1.00000000000000000e+00
46 34 1.00000000000000000e+00
47 34 1.00000000000000000e+00
48 34 1.00000000000000000e+00
49 34 1.00000000000000000e+00
50 34 1.00000000000000000e+00
51 34 1.00000000000000000e+00
52 34 1.00000000000000000e+00
53 34 1.00000000000000000e+00
54 34 1.00000000000000000e+00
55 34 1.00000000000000000e+00
56 34 1.00000000000000000e+00
57 34 1.00000000000000000e+00
58 34 1.00000000000000000e+00
59 34 1.00000000000000000e+00
60 34 1.00000000000000000e+00
61 34 1.00000000000000000e+00
62 34 1.00000000000000000e+00
63 34 1.00000000000000000e+00
64 34 1.00000000000000000e+00
65 34 1.00000000000000000e+00
66 34 1.00000000000000000e+00
67 34 1.00000000000000000e+00
68 34 1.00000000000000000e+00
69 34 1.00000000000000000e+00
70 34 1.00000000000000000e+00
71 34 1.00000000000000000e+00
72 34 1.00000000000000000e+00
73 34 1.00000000000000000e+00
74 34 1.00000000000000000e+00
75 34 1.00000000000000000e+00
76 34 1.00000000000000000e+00
77 34 1.00000000000000000e+00
78 34 1.00000000000000000e+00
79 34 1.00000000000000000e+00
80 34 1.00000000000000000e+00
81 34 1.00000000000000000e+00
82 34 1.00000000000000000e+00
83 34 1.00000000000000000e+00
84 34 1.00000000000000000e+00
85 34 1.00000000000000000e+00
86 34 1.00000000000000000e+00
87 34 1.00000000000000000e+00
88 34 1.00000000000000000e+00
89 34 1.00000000000000000e+00
90 34 1.00000000000000000e+00
91 34 1.00000000000000000e+00
92 34 1.00000000000000000e+00
93 34 1.00000000000000000e+00
94 34 1.00000000000000000e+00
95 34 1.00000000000000000e+00
96 34 1.00000000000000000e+00
97 34 1.00000000000000000e+00
98 34 1.00000000000000000e+00
99 34 1.00000000000000000e+00
100 34 1.00000000000000000e+00
101 34 1.00000000000000000e+00
102 34 1.00000000000000000e+00
103 34 1.00000000000000000e+00
104 34 1.00000000000000000e+00
105 34 1.00000000000000000e+00
106 34 1.00000000000000000e+00
107 34 1.00000000000000000e+00
108 34 1.00000000000000000e+00
109 34 1.00000000000000000e+00
110 34 1.00000000000000000e+00
111 34 1.00000000000000000e+00
112 34 1.00000000000000000e+00
113 34 1.00000000000000000e+00
114 34 1.00000000000000000e+00
115 34 1.00000000000000000e+00
116 34 1.00000000000000000e+00
117 34 1.00000000000000000e+00
118 34 1.00000000000000000e+00
119 34 1.00000000000000000e+00
120 34 1.00000000000000000e+00
121 34 1.00000000000000000e+00
122 34 1.00000000000000000e+00
123 34 1.00000000000000000e+00
124 34 1.00000000000000000e+00
125 34 1.00000000000000000e+00
126 34 1.00000000000000000e+00
127 34 1.00000000000000000e+00
128 34 1.00000000000000000e+00
129 34 1.00000000000000000e+00
130 34 1.00000000000000000e+00
131 34 1.00000000000000000e+00
132 34 1.00000000000000000e+00
133 34 1.00000000000000000e+00
1 35 1.00000000000000000e+00
2 35 1.00000000000000000e+00
3 35 1.00000000000000000e+00
4 35 1.00000000000000000e+00
5 35 1.00000000000000000e+00
6 35 1.00000000000000000e+00
7 35 1.00000000000000000e+00
8 35 1.00000000000000000e+00
9 35 1.00000000000000000e+00
10 35 1.00000000000000000e+00
11 35 1.00000000000000000e+00
12 35 1.00000000000000000e+00
13 35 1.00000000000000000e+00
14 35 1.00000000000000000e+00
15 35 1.00000000000000000e+00
16 35 1.00000000000000000e+00
17 35 1.00000000000000000e+00
18 35 1.00000000000000000e+00
19 35 1.00000000000000000e+00
20 35 1.00000000000000000e+00
21 35 1.00000000000000000e+00
22 35 1.00000000000000000e+00
23 35 1.00000000000000000e+00
24 35 1.00000000000000000e+00
25 35 1.00000000000000000e+00
26 35 1.00000000000000000e+00
27 35 1.00000000000000000e+00
28 35 1.00000000000000000e+00
29 35 1.00000000000000000e+00
30 35 1.00000000000000000e+00
31 35 1.00000000000000000e+00
32 35 1.00000000000000000e+00
33 35 1.00000000000000000e+00
34 35 1.00000000000000000e+00
35 35 1.00000000000000000e+00
36 35 1.00000000000000000e+00
37 35 1.00000000000000000e+00
38 35 1.00000000000000000e+00
39 35 1.00000000000000000e+00
40 35 1.00000000000000000e+00
41 35 1.00000000000000000e+00
42 35 1.00000000000000000e+00
43 35 1.00000000000000000e+00
44 35 1.00000000000000000e+00
45 35 1.00000000000000000e+00
46 35 1.00000000000000000e+00
47 35 1.00000000000000000e+00
48 35 1.00000000000000000e+00
49 35 1.00000000000000000e+00
50 35 1.00000000000000000e+00
51 35 1.00000000000000000e+00
52 35 1.00000000000000000e+00
53 35 1.00000000000000000e+00
54 35 1.00000000000000000e+00
55 35 1.00000000000000000e+00
56 35 1.00000000000000000e+00
57 35 1.00000000000000000e+00
58 35 1.00000000000000000e+00
59 35 1.00000000000000000e+00
60 35 1.00000000000000000e+00
61 35 1.00000000000000000e+00
62 35 1.00000000000000000e+00
63 35 1.00000000000000000e+00
64 35 1.00000000000000000e+00
65 35 1.00000000000000000e+00
66 35 1.00000000000000000e+00
67 35 1.00000000000000000e+00
68 35 1.00000000000000000e+00
69 35 1.00000000000000000e+00
70 35 1.00000000000000000e+00
71 35 1.00000000000000000e+00
72 35 1.00000000000000000e+00
73 35 1.00000000000000000e+00
74 35 1.00000000000000000e+00
75 35 1.00000000000000000e+00
76 35 1.00000000000000000e+00
77 35 1.00000000000000000e+00
78 35 1.00000000000000000e+00
79 35 1.00000000000000000e+00
80 35 1.00000000000000000e+00
81 35 1.00000000000000000e+00
82 35 1.00000000000000000e+00
83 35 1.00000000000000000e+00
84 35 1.00000000000000000e+00
85 35 1.00000000000000000e+00
86 35 1.00000000000000000e+00
87 35 1.00000000000000000e+00
88 35 1.00000000000000000e+00
89 35 1.00000000000000000e+00
90 35 1.00000000000000000e+00
91 35 1.00000000000000000e+00
92 35 1.00000000000000000e+00
93 35 1.00000000000000000e+00
94 35 1.00000000000000000e+00
95 35 1.00000000000000000e+00
96 35 1.00000000000000000e+00
97 35 1.00000000000000000e+00
98 35 1.00000000000000000e+00
99 35 1.00000000000000000e+00
100 35 1.00000000000000000e+00
101 35 1.00000000000000000e+00
102 35 1.00000000000000000e+00
103 35 1.00000000000000000e+00
104 35 1.00000000000000000e+00
105 35 1.00000000000000000e+00
106 35 1.00000000000000000e+00
107 35 1.00000000000000000e+00
108 35 1.00000000000000000e+00
109 35 1.00000000000000000e+00
110 35 1.00000000000000000e+00
111 35 1.00000000000000000e+00
112 35 1.00000000000000000e+00
113 35 1.00000000000000000e+00
114 35 1.00000000000000000e+00
115 35 1.00000000000000000e+00
116 35 1.00000000000000000e+00
117 35 1.00000000000000000e+00
118 35 1.00000000000000000e+00
119 35 1.00000000000000000e+00
120 35 1.00000000000000000e+00
121 35 1.00000000000000000e+00
122 35 1.00000000000000000e+00
123 35 1.00000000000000000e+00
124 35 1.00000000000000000e+00
125 35 1.00000000000000000e+00
126 35 1.00000000000000000e+00
127 35 1.00000000000000000e+00
128 35 1.00000000000000000e+00
129 35 1.00000000000000000e+00
130 35 1.00000000000000000e+00
131 35 1.00000000000000000e+00
132 35 1.00000000000000000e+00
133 35 1.00000000000000000e+00
1 36 9.97994090236534293e-01
2 36 9.97994090236534293e-01
3 36 9.97994090236534181e-01
4 36 9.97994090236534293e-01
5 36 9.97994090236534293e-01
6 36 9.97994090236534293e-01
7 36 9.97994090236534293e-01
8 36 9.97994090236534181e-01
9 36 9.97994090236534404e-01
10 36 9.97994090236534181e-01
11 36 9.97994090236534404e-01
12 36 9.97994090236534404e-01
13 36 9.97994090236534404e-01
14 36 9.97994090236534181e-01
15 36 9.97994090236534293e-01
16 36 9.97994090236534293e-01
17 36 9.97994090236534293e-01
18 36 9.97994090236534293e-01
19 36 9.97994090236534181e-01
20 36 9.97994090236534293e-01
21 36 9.97994090236534181e-01
22 36 9.97994090236534181e-01
23 36 9.97994090236534404e-01
24 36 9.97994090236534293e-01
25 36 9.97994090236534181e-01
26 36 9.97994090236534404e-01
27 36 9.97994090236534293e-01
28 36 9.97994090236534293e-01
29 36 9.97994090236534293e-01
30 36 9.97994090236534293e-01
31 36 9.97994090236534293e-01
32 36 9.97994090236534181e-01
33 36 9.97994090236534293e-01
34 36 9.97994090236534293e-01
35 36 9.97994090236534293e-01
36 36 9.97994090236534181e-01
37 36 9.97994090236534293e-01
38 36 9.97994090236534293e-01
39 36 9.97994090236534293e-01
40 36 9.97994090236534293e-01
41 36 9.97994090236534181e-01
42 36 9.97994090236534404e-01
43 36 9.97994090236534181e-01
44 36 9.97994090236534404e-01
45 36 9.97994090236534404e-01
46 36 9.97994090236534404e-01
47 36 9.97994090236534181e-01
48 36 9.97994090236534293e-01
49 36 9.97994090236534293e-01
50 36 9.97994090236534293e-01
51 36 9.97994090236534293e-01
52 36 9.97994090236534181e-01
53 36 9.97994090236534293e-01
54 36 9.97994090236534181e-01
55 36 9.97994090236534181e-01
56 36 9.97994090236534404e-01
57 36 9.97994090236534293e-01
58 36 9.97994090236534181e-01
59 36 9.97994090236534404e-01
60 36 9.97994090236534293e-01
61 36 9.97994090236534293e-01
62 36 9.97994090236534293e-01
63 36 9.97994090236534293e-01
64 36 9.97994090236534293e-01
65 36 9.97994090236534181e-01
66 36 9.97994090236534293e-01
67 36 9.97994090236534293e-01
68 36 9.97994090236534293e-01
69 36 9.97994090236534181e-01
70 36 9.97994090236534293e-01
71 36 9.97994090236534293e-01
72 36 9.97994090236534293e-01
73 36 9.97994090236534293e-01
74 36 9.97994090236534181e-01
75 36 9.97994090236534404e-01
76 36 9.97994090236534181e-01
77 36 9.97994090236534404e-01
78 36 9.97994090236534404e-01
79 36 9.97994090236534404e-01
80 36 9.97994090236534181e-01
81 36 9.97994090236534293e-01
82 36 9.97994090236534293e-01
83 36 9.97994090236534293e-01
84 36 9.97994090236534293e-01
85 36 9.97994090236534181e-01
86 36 9.97994090236534293e-01
87 36 9.97994090236534181e-01
88 36 9.97994090236534181e-01
89 36 9.97994090236534404e-01
90 36 9.97994090236534293e-01
91 36 9.97994090236534181e-01
92 36 9.97994090236534404e-01
93 36 9.97994090236534293e-01
94 36 9.97994090236534293e-01
95 36 9.97994090236534293e-01
96 36 9.97994090236534293e-01
97 36 9.97994090236534293e-01
98 36 9.97994090236534181e-01
99 36 9.97994090236534293e-01
100 36 9.97994090236534293e-01
101 36 9.97994090236534293e-01
102 36 9.97994090236534181e-01
103 36 9.97994090236534293e-01
104 36 9.97994090236534293e-01
105 36 9.97994090236534293e-01
106 36 9.97994090236534293e-01
107 36 9.97994090236534181e-01
108 36 9.97994090236534404e-01
109 36 9.97994090236534181e-01
110 36 9.97994090236534404e-01
111 36 9.97994090236534404e-01
112 36 9.97994090236534404e-01
113 36 9.97994090236534181e-01
114 36 9.97994090236534293e-01
115 36 9.97994090236534293e-01
116 36 9.97994090236534293e-01
117 36 9.97994090236534293e-01
118 36 9.97994090236534181e-01
119 36 9.97994090236534293e-01
120 36 9.97994090236534181e-01
121 36 9.97994090236534181e-01
122 36 9.97994090236534404e-01
123 36 9.97994090236534293e-01
124 36 9.97994090236534181e-01
125 36 9.97994090236534404e-01
126 36 9.97994090236534293e-01
127 36 9.97994090236534293e-01
128 36 9.97994090236534293e-01
129 36 9.97994090236534293e-01
130 36 9.97994090236534293e-01
131 36 9.97994090236534181e-01
132 36 9.97994090236534293e-01
133 36 9.97994090236534293e-01
1 37 9.93881620389746590e-01
2 37 9.93881620389746590e-01
3 37 9.93881620389746478e-01
4 37 9.93881620389746478e-01
5 37 9.93881620389746590e-01
6 37 9.93881620389746701e-01
7 37 9.93881620389746590e-01
8 37 9.93881620389746478e-01
9 37 9.93881620389746590e-01
10 37 9.93881620389746590e-01
11 37 9.93881620389746590e-01
12 37 9.93881620389746590e-01
13 37 9.93881620389746590e-01
14 37 9.93881620389746478e-01
15 37 9.93881620389746590e-01
16 37 9.93881620389746590e-01
17 37 9.93881620389746590e-01
18 37 9.93881620389746590e-01
19 37 9.93881620389746590e-01
20 37 9.93881620389746590e-01
21 37 9.93881620389746478e-01
22 37 9.93881620389746590e-01
23 37 9.93881620389746590e-01
24 37 9.93881620389746590e-01
25 37 9.93881620389746590e-01
26 37 9.93881620389746590e-01
27 37 9.93881620389746590e-01
28 37 9.93881620389746590e-01
29 37 9.93881620389746701e-01
30 37 9.93881620389746590e-01
31 37 9.93881620389746590e-01
32 37 9.93881620389746478e-01
33 37 9.93881620389746590e-01
34 37 9.93881620389746590e-01
35 37 9.93881620389746590e-01
36 37 9.93881620389746478e-01
37 37 9.93881620389746478e-01
38 37 9.93881620389746590e-01
39 37 9.93881620389746701e-01
40 37 9.93881620389746590e-01
41 37 9.93881620389746478e-01
42 37 9.93881620389746590e-01
43 37 9.93881620389746590e-01
44 37 9.93881620389746590e-01
45 37 9.93881620389746590e-01
46 37 9.93881620389746590e-01
47 37 9.93881620389746478e-01
48 37 9.93881620389746590e-01
49 37 9.93881620389746590e-01
50 37 9.93881620389746590e-01
51 37 9.93881620389746590e-01
52 37 9.93881620389746590e-01
53 37 9.93881620389746590e-01
54 37 9.93881620389746478e-01
55 37 9.93881620389746590e-01
56 37 9.93881620389746590e-01
57 37 9.93881620389746590e-01
58 37 9.93881620389746590e-01
59 37 9.93881620389746590e-01
60 37 9.93881620389746590e-01
61 37 9.93881620389746590e-01
62 37 9.93881620389746701e-01
63 37 9.93881620389746590e-01
64 37 9.93881620389746590e-01
65 37 9.93881620389746478e-01
66 37 9.93881620389746590e-01
67 37 9.93881620389746590e-01
68 37 9.93881620389746590e-01
69 37 9.93881620389746478e-01
70 37 9.93881620389746478e-01
71 37 9.93881620389746590e-01
72 37 9.93881620389746701e-01
73 37 9.93881620389746590e-01
74 37 9.93881620389746478e-01
75 37 9.93881620389746590e-01
76 37 9.93881620389746590e-01
77 37 9.93881620389746590e-01
78 37 9.93881620389746590e-01
79 37 9.93881620389746590e-01
80 37 9.93881620389746478e-01
81 37 9.93881620389746590e-01
82 37 9.93881620389746590e-01
83 37 9.93881620389746590e-01
84 37 9.93881620389746590e-01
85 37 9.93881620389746590e-01
86 37 9.93881620389746590e-01
87 37 9.93881620389746478e-01
88 37 9.93881620389746590e-01
89 37 9.93881620389746590e-01
90 37 9.93881620389746590e-01
91 37 9.93881620389746590e-01
92 37 9.93881620389746590e-01
93 37 9.93881620389746590e-01
94 37 9.93881620389746590e-01
95 37 9.93881620389746701e-01
96 37 9.93881620389746590e-01
97 37 9.93881620389746590e-01
98 37 9.93881620389746478e-01
99 37 9.93881620389746590e-01
100 37 9.93881620389746590e-01
101 37 9.93881620389746590e-01
102 37 9.93881620389746478e-01
103 37 9.93881620389746478e-01
104 37 9.93881620389746590e-01
105 37 9.93881620389746701e-01
106 37 9.93881620389746590e-01
107 37 9.93881620389746478e-01
108 37 9.93881620389746590e-01
109 37 9.93881620389746590e-01
110 37 9.93881620389746590e-01
111 37 9.93881620389746590e-01
112 37 9.93881620389746590e-01
113 37 9.93881620389746478e-01
114 37 9.93881620389746590e-01
115 37 9.93881620389746590e-01
116 37 9.93881620389746590e-01
117 37 9.93881620389746590e-01
118 37 9.93881620389746590e-01
119 37 9.93881620389746590e-01
120 37 9.93881620389746478e-01
121 37 9.93881620389746590e-01
122 37 9.93881620389746590e-01
123 37 9.93881620389746590e-01
124 37 9.93881620389746590e-01
125 37 9.93881620389746590e-01
126 37 9.93881620389746590e-01
127 37 9.93881620389746590e-01
128 37 9.93881620389746701e-01
129 37 9.93881620389746590e-01
130 37 9.93881620389746590e-01
131 37 9.93881620389746478e-01
132 37 9.93881620389746590e-01
133 37 9.93881620389746590e-01
1 38 9.87570194172242566e-01
2 38 9.87570194172242566e-01
3 38 9.87570194172242566e-01
4 38 9.87570194172242455e-01
5 38 9.87570194172242566e-01
6 38 9.87570194172242677e-01
7 38 9.87570194172242566e-01
8 38 9.87570194172242455e-01
9 38 9.87570194172242677e-01
10 38 9.87570194172242566e-01
11 38 9.87570194172242566e-01
12 38 9.87570194172242566e-01
13 38 9.87570194172242677e-01
14 38 9.87570194172242344e-01
15 38 9.87570194172242566e-01
16 38 9.87570194172242566e-01
17 38 9.87570194172242566e-01
18 38 9.87570194172242566e-01
19 38 9.87570194172242566e-01
20 38 9.87570194172242677e-01
21 38 9.87570194172242344e-01
22 38 9.87570194172242677e-01
23 38 9.87570194172242566e-01
24 38 9.87570194172242566e-01
25 38 9.87570194172242566e-01
26 38 9.87570194172242455e-01
27 38 9.87570194172242677e-01
28 38 9.87570194172242566e-01
29 38 9.87570194172242788e-01
30 38 9.87570194172242566e-01
31 38 9.87570194172242566e-01
32 38 9.87570194172242455e-01
33 38 9.87570194172242566e-01
34 38 9.87570194172242566e-01
35 38 9.87570194172242566e-01
36 38 9.87570194172242566e-01
37 38 9.87570194172242455e-01
38 38 9.87570194172242566e-01
39 38 9.87570194172242677e-01
40 38 9.87570194172242566e-01
41 38 9.87570194172242455e-01
42 38 9.87570194172242677e-01
43 38 9.87570194172242566e-01
44 38 9.87570194172242566e-01
45 38 9.87570194172242566e-01
46 38 9.87570194172242677e-01
47 38 9.87570194172242344e-01
48 38 9.87570194172242566e-01
49 38 9.87570194172242566e-01
50 38 9.87570194172242566e-01
51 38 9.87570194172242566e-01
52 38 9.87570194172242566e-01
53 38 9.87570194172242677e-01
54 38 9.87570194172242344e-01
55 38 9.87570194172242677e-01
56 38 9.87570194172242566e-01
57 38 9.87570194172242566e-01
58 38 9.87570194172242566e-01
59 38 9.87570194172242455e-01
60 38 9.87570194172242677e-01
61 38 9.87570194172242566e-01
62 38 9.87570194172242788e-01
63 38 9.87570194172242566e-01
64 38 9.87570194172242566e-01
65 38 9.87570194172242455e-01
66 38 9.87570194172242566e-01
67 38 9.87570194172242566e-01
68 38 9.87570194172242566e-01
69 38 9.87570194172242566e-01
70 38 9.87570194172242455e-01
71 38 9.87570194172242566e-01
72 38 9.87570194172242677e-01
73 38 9.87570194172242566e-01
74 38 9.87570194172242455e-01
75 38 9.87570194172242677e-01
76 38 9.87570194172242566e-01
77 38 9.87570194172242566e-01
78 38 9.87570194172242566e-01
79 38 9.87570194172242677e-01
80 38 9.87570194172242344e-01
81 38 9.87570194172242566e-01
82 38 9.87570194172242566e-01
83 38 9.87570194172242566e-01
84 38 9.87570194172242566e-01
85 38 9.87570194172242566e-01
86 38 9.87570194172242677e-01
87 38 9.87570194172242344e-01
88 38 9.87570194172242677e-01
89 38 9.87570194172242566e-01
90 38 9.87570194172242566e-01
91 38 9.87570194172242566e-01
92 38 9.87570194172242455e-01
93 38 9.87570194172242677e-01
94 38 9.87570194172242566e-01
95 38 9.87570194172242788e-01
96 38 9.87570194172242566e-01
97 38 9.87570194172242566e-01
98 38 9.87570194172242455e-01
99 38 9.87570194172242566e-01
100 38 9.87570194172242566e-01
101 38 9.87570194172242566e-01
102 38 9.87570194172242566e-01
103 38 9.87570194172242455e-01
104 38 9.87570194172242566e-01
105 38 9.87570194172242677e-01
106 38 9.87570194172242566e-01
107 38 9.87570194172242455e-01
108 38 9.87570194172242677e-01
109 38 9.87570194172242566e-01
110 38 9.87570194172242566e-01
111 38 9.87570194172242566e-01
112 38 9.87570194172242677e-01
113 38 9.87570194172242344e-01
114 38 9.87570194172242566e-01
115 38 9.87570194172242566e-01
116 38 9.87570194172242566e-01
117 38 9.87570194172242566e-01
118 38 9.87570194172242566e-01
119 38 9.87570194172242677e-01
120 38 9.87570194172242344e-01
121 38 9.87570194172242677e-01
122 38 9.87570194172242566e-01
123 38 9.87570194172242566e-01
124 38 9.87570194172242566e-01
125 38 9.87570194172242455e-01
126 38 9.87570194172242677e-01
127 38 9.87570194172242566e-01
128 38 9.87570194172242788e-01
129 38 9.87570194172242566e-01
130 38 9.87570194172242566e-01
131 38 9.87570194172242455e-01
132 38 9.87570194172242566e-01
133 38 9.87570194172242566e-01
1 39 9.78977518680848702e-01
2 39 9.78977518680848813e-01
3 39 9.78977518680848702e-01
4 39 9.78977518680848702e-01
5 39 9.78977518680848702e-01
6 39 9.78977518680848702e-01
7 39 9.78977518680848702e-01
8 39 9.78977518680848702e-01
9 39 9.78977518680848591e-01
10 39 9.78977518680848702e-01
11 39 9.78977518680848702e-01
12 39 9.78977518680848591e-01
13 39 9.78977518680848702e-01
14 39 9.78977518680848480e-01
15 39 9.78977518680848591e-01
16 39 9.78977518680848702e-01
17 39 9.78977518680848591e-01
18 39 9.78977518680848591e-01
19 39 9.78977518680848591e-01
20 39 9.78977518680848813e-01
21 39 9.78977518680848480e-01
22 39 9.78977518680848702e-01
23 39 9.78977518680848591e-01
24 39 9.78977518680848702e-01
25 39 9.78977518680848702e-01
26 39 9.78977518680848591e-01
27 39 9.78977518680848702e-01
28 39 9.78977518680848702e-01
29 39 9.78977518680848924e-01
30 39 9.78977518680848702e-01
31 39 9.78977518680848591e-01
32 39 9.78977518680848702e-01
33 39 9.78977518680848813e-01
34 39 9.78977518680848702e-01
35 39 9.78977518680848813e-01
36 39 9.78977518680848702e-01
37 39 9.78977518680848702e-01
38 39 9.78977518680848702e-01
39 39 9.78977518680848702e-01
40 39 9.78977518680848702e-01
41 39 9.78977518680848702e-01
42 39 9.78977518680848591e-01
43 39 9.78977518680848702e-01
44 39 9.78977518680848702e-01
45 39 9.78977518680848591e-01
46 39 9.78977518680848702e-01
47 39 9.78977518680848480e-01
48 39 9.78977518680848591e-01
49 39 9.78977518680848702e-01
50 39 9.78977518680848591e-01
51 39 9.78977518680848591e-01
52 39 9.78977518680848591e-01
53 39 9.78977518680848813e-01
54 39 9.78977518680848480e-01
55 39 9.78977518680848702e-01
56 39 9.78977518680848591e-01
57 39 9.78977518680848702e-01
58 39 9.78977518680848702e-01
59 39 9.78977518680848591e-01
60 39 9.78977518680848702e-01
61 39 9.78977518680848702e-01
62 39 9.78977518680848924e-01
63 39 9.78977518680848702e-01
64 39 9.78977518680848591e-01
65 39 9.78977518680848702e-01
66 39 9.78977518680848813e-01
67 39 9.78977518680848702e-01
68 39 9.78977518680848813e-01
69 39 9.78977518680848702e-01
70 39 9.78977518680848702e-01
71 39 9.78977518680848702e-01
72 39 9.78977518680848702e-01
73 39 9.78977518680848702e-01
74 39 9.78977518680848702e-01
75 39 9.78977518680848591e-01
76 39 9.78977518680848702e-01
77 39 9.78977518680848702e-01
78 39 9.78977518680848591e-01
79 39 9.78977518680848702e-01
80 39 9.78977518680848480e-01
81 39 9.78977518680848591e-01
82 39 9.78977518680848702e-01
83 39 9.78977518680848591e-01
84 39 9.78977518680848591e-01
85 39 9.78977518680848591e-01
86 39 9.78977518680848813e-01
87 39 9.78977518680848480e-01
88 39 9.78977518680848702e-01
89 39 9.78977518680848591e-01
90 39 9.78977518680848702e-01
91 39 9.78977518680848702e-01
92 39 9.78977518680848591e-01
93 39 9.78977518680848702e-01
94 39 9.78977518680848702e-01
95 39 9.78977518680848924e-01
96 39 9.78977518680848702e-01
97 39 9.78977518680848591e-01
98 39 9.78977518680848702e-01
99 39 9.78977518680848813e-01
100 39 9.78977518680848702e-01
101 39 9.78977518680848813e-01
102 39 9.78977518680848702e-01
103 39 9.78977518680848702e-01
104 39 9.78977518680848702e-01
105 39 9.78977518680848702e-01
106 39 9.78977518680848702e-01
107 39 9.78977518680848702e-01
108 39 9.78977518680848591e-01
109 39 9.78977518680848702e-01
110 39 9.78977518680848702e-01
111 39 9.78977518680848591e-01
112 39 9.78977518680848702e-01
113 39 9.78977518680848480e-01
114 39 9.78977518680848591e-01
115 39 9.78977518680848702e-01
116 39 9.78977518680848591e-01
117 39 9.78977518680848591e-01
118 39 9.78977518680848591e-01
119 39 9.78977518680848813e-01
120 39 9.78977518680848480e-01
121 39 9.78977518680848702e-01
122 39 9.78977518680848591e-01
123 39 9.78977518680848702e-01
124 39 9.78977518680848702e-01
125 39 9.78977518680848591e-01
126 39 9.78977518680848702e-01
127 39 9.78977518680848702e-01
128 39 9.78977518680848924e-01
129 39 9.78977518680848702e-01
130 39 9.78977518680848591e-01
131 39 9.78977518680848702e-01
132 39 9.78977518680848813e-01
133 39 9.78977518680848702e-01
1 40 9.68033251559624164e-01
2 40 9.68033251559624164e-01
3 40 9.68033251559624164e-01
4 40 9.68033251559624164e-01
5 40 9.68033251559624275e-01
6 40 9.68033251559624275e-01
7 40 9.68033251559624053e-01
8 40 9.68033251559624275e-01
9 40 9.68033251559624053e-01
10 40 9.68033251559624164e-01
11 40 9.68033251559624164e-01
12 40 9.68033251559624053e-01
13 40 9.68033251559624164e-01
14 40 9.68033251559623942e-01
15 40 9.68033251559624053e-01
16 40 9.68033251559624275e-01
17 40 9.68033251559624164e-01
18 40 9.68033251559624164e-01
19 40 9.68033251559624164e-01
20 40 9.68033251559624275e-01
21 40 9.68033251559623942e-01
22 40 9.68033251559624164e-01
23 40 9.68033251559624053e-01
24 40 9.68033251559624164e-01
25 40 9.68033251559624164e-01
26 40 9.68033251559624053e-01
27 40 9.68033251559624164e-01
28 40 9.68033251559624053e-01
29 40 9.68033251559624386e-01
30 40 9.68033251559624275e-01
31 40 9.68033251559624053e-01
32 40 9.68033251559624164e-01
33 40 9.68033251559624164e-01
34 40 9.68033251559624164e-01
35 40 9.68033251559624164e-01
36 40 9.68033251559624164e-01
37 40 9.68033251559624164e-01
38 40 9.68033251559624275e-01
39 40 9.68033251559624275e-01
40 40 9.68033251559624053e-01
41 40 9.68033251559624275e-01
42 40 9.68033251559624053e-01
43 40 9.68033251559624164e-01
44 40 9.68033251559624164e-01
45 40 9.68033251559624053e-01
46 40 9.68033251559624164e-01
47 40 9.68033251559623942e-01
48 40 9.68033251559624053e-01
49 40 9.68033251559624275e-01
50 40 9.68033251559624164e-01
51 40 9.68033251559624164e-01
52 40 9.68033251559624164e-01
53 40 9.68033251559624275e-01
54 40 9.68033251559623942e-01
55 40 9.68033251559624164e-01
56 40 9.68033251559624053e-01
57 40 9.68033251559624164e-01
58 40 9.68033251559624164e-01
59 40 9.68033251559624053e-01
60 40 9.68033251559624164e-01
61 40 9.68033251559624053e-01
62 40 9.68033251559624386e-01
63 40 9.68033251559624275e-01
64 40 9.68033251559624053e-01
65 40 9.68033251559624164e-01
66 40 9.68033251559624164e-01
67 40 9.68033251559624164e-01
68 40 9.68033251559624164e-01
69 40 9.68033251559624164e-01
70 40 9.68033251559624164e-01
71 40 9.68033251559624275e-01
72 40 9.68033251559624275e-01
73 40 9.68033251559624053e-01
74 40 9.68033251559624275e-01
75 40 9.68033251559624053e-01
76 40 9.68033251559624164e-01
77 40 9.68033251559624164e-01
78 40 9.68033251559624053e-01
79 40 9.68033251559624164e-01
80 40 9.68033251559623942e-01
81 40 9.68033251559624053e-01
82 40 9.68033251559624275e-01
83 40 9.68033251559624164e-01
84 40 9.68033251559624164e-01
85 40 9.68033251559624164e-01
86 40 9.68033251559624275e-01
87 40 9.68033251559623942e-01
88 40 9.68033251559624164e-01
89 40 9.68033251559624053e-01
90 40 9.68033251559624164e-01
91 40 9.68033251559624164e-01
92 40 9.68033251559624053e-01
93 40 9.68033251559624164e-01
94 40 9.68033251559624053e-01
95 40 9.68033251559624386e-01
96 40 9.68033251559624275e-01
97 40 9.68033251559624053e-01
98 40 9.68033251559624164e-01
99 40 9.68033251559624164e-01
100 40 9.68033251559624164e-01
101 40 9.68033251559624164e-01
102 40 9.68033251559624164e-01
103 40 9.68033251559624164e-01
104 40 9.68033251559624275e-01
105 40 9.68033251559624275e-01
106 40 9.68033251559624053e-01
107 40 9.68033251559624275e-01
108 40 9.68033251559624053e-01
109 40 9.68033251559624164e-01
110 40 9.68033251559624164e-01
111 40 9.68033251559624053e-01
112 40 9.68033251559624164e-01
113 40 9.68033251559623942e-01
114 40 9.68033251559624053e-01
115 40 9.68033251559624275e-01
116 40 9.68033251559624164e-01
117 40 9.68033251559624164e-01
118 40 9.68033251559624164e-01
119 40 9.68033251559624275e-01
120 40 9.68033251559623942e-01
121 40 9.68033251559624164e-01
122 40 9.68033251559624053e-01
123 40 9.68033251559624164e-01
124 40 9.68033251559624164e-01
125 40 9.68033251559624053e-01
126 40 9.68033251559624164e-01
127 40 9.68033251559624053e-01
128 40 9.68033251559624386e-01
129 40 9.68033251559624275e-01
130 40 9.68033251559624053e-01
131 40 9.68033251559624164e-01
132 40 9.68033251559624164e-01
133 40 9.68033251559624164e-01
1 41 9.54680796685007271e-01
2 41 9.54680796685007271e-01
3 41 9.54680796685007271e-01
4 41 9.54680796685007382e-01
5 41 9.54680796685007271e-01
6 41 9.54680796685007493e-01
7 41 9.54680796685007271e-01
8 41 9.54680796685007493e-01
9 41 9.54680796685007271e-01
10 41 9.54680796685007382e-01
11 41 9.54680796685007271e-01
12 41 9.54680796685007271e-01
13 41 9.54680796685007271e-01
14 41 9.54680796685007049e-01
15 41 9.54680796685007160e-01
16 41 9.54680796685007493e-01
17 41 9.54680796685007382e-01
18 41 9.54680796685007382e-01
19 41 9.54680796685007160e-01
20 41 9.54680796685007382e-01
21 41 9.54680796685007049e-01
22 41 9.54680796685007271e-01
23 41 9.54680796685007271e-01
24 41 9.54680796685007271e-01
25 41 9.54680796685007382e-01
26 41 9.54680796685007271e-01
27 41 9.54680796685007382e-01
28 41 9.54680796685007271e-01
29 41 9.54680796685007493e-01
30 41 9.54680796685007271e-01
31 41 9.54680796685007382e-01
32 41 9.54680796685007160e-01
33 41 9.54680796685007271e-01
34 41 9.54680796685007271e-01
35 41 9.54680796685007271e-01
36 41 9.54680796685007271e-01
37 41 9.54680796685007382e-01
38 41 9.54680796685007271e-01
39 41 9.54680796685007493e-01
40 41 9.54680796685007271e-01
41 41 9.54680796685007493e-01
42 41 9.54680796685007271e-01
43 41 9.54680796685007382e-01
44 41 9.54680796685007271e-01
45 41 9.54680796685007271e-01
46 41 9.54680796685007271e-01
47 41 9.54680796685007049e-01
48 41 9.54680796685007160e-01
49 41 9.54680796685007493e-01
50 41 9.54680796685007382e-01
51 41 9.54680796685007382e-01
52 41 9.54680796685007160e-01
53 41 9.54680796685007382e-01
54 41 9.54680796685007049e-01
55 41 9.54680796685007271e-01
56 41 9.54680796685007271e-01
57 41 9.54680796685007271e-01
58 41 9.54680796685007382e-01
59 41 9.54680796685007271e-01
60 41 9.54680796685007382e-01
61 41 9.54680796685007271e-01
62 41 9.54680796685007493e-01
63 41 9.54680796685007271e-01
64 41 9.54680796685007382e-01
65 41 9.54680796685007160e-01
66 41 9.54680796685007271e-01
67 41 9.54680796685007271e-01
68 41 9.54680796685007271e-01
69 41 9.54680796685007271e-01
70 41 9.54680796685007382e-01
71 41 9.54680796685007271e-01
72 41 9.54680796685007493e-01
73 41 9.54680796685007271e-01
74 41 9.54680796685007493e-01
75 41 9.54680796685007271e-01
76 41 9.54680796685007382e-01
77 41 9.54680796685007271e-01
78 41 9.54680796685007271e-01
79 41 9.54680796685007271e-01
80 41 9.54680796685007049e-01
81 41 9.54680796685007160e-01
82 41 9.54680796685007493e-01
83 41 9.54680796685007382e-01
84 41 9.54680796685007382e-01
85 41 9.54680796685007160e-01
86 41 9.54680796685007382e-01
87 41 9.54680796685007049e-01
88 41 9.54680796685007271e-01
89 41 9.54680796685007271e-01
90 41 9.54680796685007271e-01
91 41 9.54680796685007382e-01
92 41 9.54680796685007271e-01
93 41 9.54680796685007382e-01
94 41 9.54680796685007271e-01
95 41 9.54680796685007493e-01
96 41 9.54680796685007271e-01
97 41 9.54680796685007382e-01
98 41 9.54680796685007160e-01
99 41 9.54680796685007271e-01
100 41 9.54680796685007271e-01
101 41 9.54680796685007271e-01
102 41 9.54680796685007271e-01
103 41 9.54680796685007382e-01
104 41 9.54680796685007271e-01
105 41 9.54680796685007493e-01
106 41 9.54680796685007271e-01
107 41 9.54680796685007493e-01
108 41 9.54680796685007271e-01
109 41 9.54680796685007382e-01
110 41 9.54680796685007271e-01
111 41 9.54680796685007271e-01
112 41 9.54680796685007271e-01
113 41 9.54680796685007049e-01
114 41 9.54680796685007160e-01
115 41 9.54680796685007493e-01
116 41 9.54680796685007382e-01
117 41 9.54680796685007382e-01
118 41 9.54680796685007160e-01
119 41 9.54680796685007382e-01
120 41 9.54680796685007049e-01
121 41 9.54680796685007271e-01
122 41 9.54680796685007271e-01
123 41 9.54680796685007271e-01
124 41 9.54680796685007382e-01
125 41 9.54680796685007271e-01
126 41 9.54680796685007382e-01
127 41 9.54680796685007271e-01
128 41 9.54680796685007493e-01
129 41 9.54680796685007271e-01
130 41 9.54680796685007382e-01
131 41 9.54680796685007160e-01
132 41 9.54680796685007271e-01
133 41 9.54680796685007271e-01
1 42 9.38878994624438246e-01
2 42 9.38878994624438468e-01
3 42 9.38878994624438468e-01
4 42 9.38878994624438579e-01
5 42 9.38878994624438468e-01
6 42 9.38878994624438579e-01
7 42 9.38878994624438468e-01
8 42 9.38878994624438690e-01
9 42 9.38878994624438357e-01
10 42 9.38878994624438468e-01
11 42 9.38878994624438468e-01
12 42 9.38878994624438468e-01
13 42 9.38878994624438357e-01
14 42 9.38878994624438357e-01
15 42 9.38878994624438357e-01
16 42 9.38878994624438690e-01
17 42 9.38878994624438579e-01
18 42 9.38878994624438579e-01
19 42 9.38878994624438357e-01
20 42 9.38878994624438579e-01
21 42 9.38878994624438357e-01
22 42 9.38878994624438468e-01
23 42 9.38878994624438468e-01
24 42 9.38878994624438357e-01
25 42 9.38878994624438468e-01
26 42 9.38878994624438468e-01
27 42 9.38878994624438690e-01
28 42 9.38878994624438468e-01
29 42 9.38878994624438579e-01
30 42 9.38878994624438468e-01
31 42 9.38878994624438579e-01
32 42 9.38878994624438468e-01
33 42 9.38878994624438468e-01
34 42 9.38878994624438246e-01
35 42 9.38878994624438468e-01
36 42 9.38878994624438468e-01
37 42 9.38878994624438579e-01
38 42 9.38878994624438468e-01
39 42 9.38878994624438579e-01
40 42 9.38878994624438468e-01
41 42 9.38878994624438690e-01
42 42 9.38878994624438357e-01
43 42 9.38878994624438468e-01
44 42 9.38878994624438468e-01
45 42 9.38878994624438468e-01
46 42 9.38878994624438357e-01
47 42 9.38878994624438357e-01
48 42 9.38878994624438357e-01
49 42 9.38878994624438690e-01
50 42 9.38878994624438579e-01
51 42 9.38878994624438579e-01
52 42 9.38878994624438357e-01
53 42 9.38878994624438579e-01
54 42 9.38878994624438357e-01
55 42 9.38878994624438468e-01
56 42 9.38878994624438468e-01
57 42 9.38878994624438357e-01
58 42 9.38878994624438468e-01
59 42 9.38878994624438468e-01
60 42 9.38878994624438690e-01
61 42 9.38878994624438468e-01
62 42 9.38878994624438579e-01
63 42 9.38878994624438468e-01
64 42 9.38878994624438579e-01
65 42 9.38878994624438468e-01
66 42 9.38878994624438468e-01
67 42 9.38878994624438246e-01
68 42 9.38878994624438468e-01
69 42 9.38878994624438468e-01
70 42 9.38878994624438579e-01
71 42 9.38878994624438468e-01
72 42 9.38878994624438579e-01
73 42 9.38878994624438468e-01
74 42 9.38878994624438690e-01
75 42 9.38878994624438357e-01
76 42 9.38878994624438468e-01
77 42 9.38878994624438468e-01
78 42 9.38878994624438468e-01
79 42 9.38878994624438357e-01
80 42 9.38878994624438357e-01
81 42 9.38878994624438357e-01
82 42 9.38878994624438690e-01
83 42 9.38878994624438579e-01
84 42 9.38878994624438579e-01
85 42 9.38878994624438357e-01
86 42 9.38878994624438579e-01
87 42 9.38878994624438357e-01
88 42 9.38878994624438468e-01
89 42 9.38878994624438468e-01
90 42 9.38878994624438357e-01
91 42 9.38878994624438468e-01
92 42 9.38878994624438468e-01
93 42 9.38878994624438690e-01
94 42 9.38878994624438468e-01
95 42 9.38878994624438579e-01
96 42 9.38878994624438468e-01
97 42 9.38878994624438579e-01
98 42 9.38878994624438468e-01
99 42 9.38878994624438468e-01
100 42 9.38878994624438246e-01
101 42 9.38878994624438468e-01
102 42 9.38878994624438468e-01
103 42 9.38878994624438579e-01
104 42 9.38878994624438468e-01
105 42 9.38878994624438579e-01
106 42 9.38878994624438468e-01
107 42 9.38878994624438690e-01
108 42 9.38878994624438357e-01
109 42 9.38878994624438468e-01
110 42 9.38878994624438468e-01
111 42 9.38878994624438468e-01
112 42 9.38878994624438357e-01
113 42 9.38878994624438357e-01
114 42 9.38878994624438357e-01
115 42 9.38878994624438690e-01
116 42 9.38878994624438579e-01
117 42 9.38878994624438579e-01
118 42 9.38878994624438357e-01
119 42 9.38878994624438579e-01
120 42 9.38878994624438357e-01
121 42 9.38878994624438468e-01
122 42 9.38878994624438468e-01
123 42 9.38878994624438357e-01
124 42 9.38878994624438468e-01
125 42 9.38878994624438468e-01
126 42 9.38878994624438690e-01
127 42 9.38878994624438468e-01
128 42 9.38878994624438579e-01
129 42 9.38878994624438468e-01
130 42 9.38878994624438579e-01
131 42 9.38878994624438468e-01
132 42 9.38878994624438468e-01
133 42 9.38878994624438246e-01
1 43 9.20603651537845513e-01
2 43 9.20603651537845735e-01
3 43 9.20603651537845846e-01
4 43 9.20603651537845735e-01
5 43 9.20603651537845735e-01
6 43 9.20603651537845846e-01
7 43 9.20603651537845735e-01
8 43 9.20603651537845957e-01
9 43 9.20603651537845735e-01
10 43 9.20603651537845846e-01
11 43 9.20603651537845846e-01
12 43 9.20603651537845624e-01
13 43 9.20603651537845513e-01
14 43 9.20603651537845624e-01
15 43 9.20603651537845735e-01
16 43 9.20603651537845957e-01
17 43 9.20603651537845846e-01
18 43 9.20603651537845846e-01
19 43 9.20603651537845735e-01
20 43 9.20603651537845735e-01
21 43 9.20603651537845624e-01
22 43 9.20603651537845846e-01
23 43 9.20603651537845624e-01
24 43 9.20603651537845624e-01
25 43 9.20603651537845846e-01
26 43 9.20603651537845735e-01
27 43 9.20603651537845957e-01
28 43 9.20603651537845735e-01
29 43 9.20603651537845846e-01
30 43 9.20603651537845735e-01
31 43 9.20603651537845735e-01
32 43 9.20603651537845735e-01
33 43 9.20603651537845735e-01
34 43 9.20603651537845513e-01
35 43 9.20603651537845735e-01
36 43 9.20603651537845846e-01
37 43 9.20603651537845735e-01
38 43 9.20603651537845735e-01
39 43 9.20603651537845846e-01
40 43 9.20603651537845735e-01
41 43 9.20603651537845957e-01
42 43 9.20603651537845735e-01
43 43 9.20603651537845846e-01
44 43 9.20603651537845846e-01
45 43 9.20603651537845624e-01
46 43 9.20603651537845513e-01
47 43 9.20603651537845624e-01
48 43 9.20603651537845735e-01
49 43 9.20603651537845957e-01
50 43 9.20603651537845846e-01
51 43 9.20603651537845846e-01
52 43 9.20603651537845735e-01
53 43 9.20603651537845735e-01
54 43 9.20603651537845624e-01
55 43 9.20603651537845846e-01
56 43 9.20603651537845624e-01
57 43 9.20603651537845624e-01
58 43 9.20603651537845846e-01
59 43 9.20603651537845735e-01
60 43 9.20603651537845957e-01
61 43 9.20603651537845735e-01
62 43 9.20603651537845846e-01
63 43 9.20603651537845735e-01
64 43 9.20603651537845735e-01
65 43 9.20603651537845735e-01
66 43 9.20603651537845735e-01
67 43 9.20603651537845513e-01
68 43 9.20603651537845735e-01
69 43 9.20603651537845846e-01
70 43 9.20603651537845735e-01
71 43 9.20603651537845735e-01
72 43 9.20603651537845846e-01
73 43 9.20603651537845735e-01
74 43 9.20603651537845957e-01
75 43 9.20603651537845735e-01
76 43 9.20603651537845846e-01
77 43 9.20603651537845846e-01
78 43 9.20603651537845624e-01
79 43 9.20603651537845513e-01
80 43 9.20603651537845624e-01
81 43 9.20603651537845735e-01
82 43 9.20603651537845957e-01
83 43 9.20603651537845846e-01
84 43 9.20603651537845846e-01
85 43 9.20603651537845735e-01
86 43 9.20603651537845735e-01
87 43 9.20603651537845624e-01
88 43 9.20603651537845846e-01
89 43 9.20603651537845624e-01
90 43 9.20603651537845624e-01
91 43 9.20603651537845846e-01
92 43 9.20603651537845735e-01
93 43 9.20603651537845957e-01
94 43 9.20603651537845735e-01
95 43 9.20603651537845846e-01
96 43 9.20603651537845735e-01
97 43 9.20603651537845735e-01
98 43 9.20603651537845735e-01
99 43 9.20603651537845735e-01
100 43 9.20603651537845513e-01
101 43 9.20603651537845735e-01
102 43 9.20603651537845846e-01
103 43 9.20603651537845735e-01
104 43 9.20603651537845735e-01
105 43 9.20603651537845846e-01
106 43 9.20603651537845735e-01
107 43 9.20603651537845957e-01
108 43 9.20603651537845735e-01
109 43 9.20603651537845846e-01
110 43 9.20603651537845846e-01
111 43 9.20603651537845624e-01
112 43 9.20603651537845513e-01
113 43 9.20603651537845624e-01
114 43 9.20603651537845735e-01
115 43 9.20603651537845957e-01
116 43 9.20603651537845846e-01
117 43 9.20603651537845846e-01
118 43 9.20603651537845735e-01
119 43 9.20603651537845735e-01
120 43 9.20603651537845624e-01
121 43 9.20603651537845846e-01
122 43 9.20603651537845624e-01
123 43 9.20603651537845624e-01
124 43 9.20603651537845846e-01
125 43 9.20603651537845735e-01
126 43 9.20603651537845957e-01
127 43 9.20603651537845735e-01
128 43 9.20603651537845846e-01
129 43 9.20603651537845735e-01
130 43 9.20603651537845735e-01
131 43 9.20603651537845735e-01
132 43 9.20603651537845735e-01
133 43 9.20603651537845513e-01
1 44 8.99848849919983595e-01
2 44 8.99848849919983818e-01
3 44 8.99848849919983929e-01
4 44 8.99848849919983818e-01
5 44 8.99848849919983818e-01
6 44 8.99848849919983929e-01
7 44 8.99848849919983818e-01
8 44 8.99848849919983929e-01
9 44 8.99848849919983818e-01
10 44 8.99848849919983929e-01
11 44 8.99848849919983929e-01
12 44 8.99848849919983929e-01
13 44 8.99848849919983707e-01
14 44 8.99848849919983707e-01
15 44 8.99848849919983818e-01
16 44 8.99848849919983929e-01
17 44 8.99848849919983818e-01
18 44 8.99848849919983818e-01
19 44 8.99848849919983818e-01
20 44 8.99848849919983707e-01
21 44 8.99848849919983707e-01
22 44 8.99848849919984040e-01
23 44 8.99848849919983929e-01
24 44 8.99848849919983595e-01
25 44 8.99848849919983929e-01
26 44 8.99848849919983818e-01
27 44 8.99848849919983929e-01
28 44 8.99848849919983818e-01
29 44 8.99848849919983929e-01
30 44 8.99848849919983818e-01
31 44 8.99848849919983818e-01
32 44 8.99848849919983818e-01
33 44 8.99848849919983818e-01
34 44 8.99848849919983595e-01
35 44 8.99848849919983818e-01
36 44 8.99848849919983929e-01
37 44 8.99848849919983818e-01
38 44 8.99848849919983818e-01
39 44 8.99848849919983929e-01
40 44 8.99848849919983818e-01
41 44 8.99848849919983929e-01
42 44 8.99848849919983818e-01
43 44 8.99848849919983929e-01
44 44 8.99848849919983929e-01
45 44 8.99848849919983929e-01
46 44 8.99848849919983707e-01
47 44 8.99848849919983707e-01
48 44 8.99848849919983818e-01
49 44 8.99848849919983929e-01
50 44 8.99848849919983818e-01
51 44 8.99848849919983818e-01
52 44 8.99848849919983818e-01
53 44 8.99848849919983707e-01
54 44 8.99848849919983707e-01
55 44 8.99848849919984040e-01
56 44 8.99848849919983929e-01
57 44 8.99848849919983595e-01
58 44 8.99848849919983929e-01
59 44 8.99848849919983818e-01
60 44 8.99848849919983929e-01
61 44 8.99848849919983818e-01
62 44 8.99848849919983929e-01
63 44 8.99848849919983818e-01
64 44 8.99848849919983818e-01
65 44 8.99848849919983818e-01
66 44 8.99848849919983818e-01
67 44 8.99848849919983595e-01
68 44 8.99848849919983818e-01
69 44 8.99848849919983929e-01
70 44 8.99848849919983818e-01
71 44 8.99848849919983818e-01
72 44 8.99848849919983929e-01
73 44 8.99848849919983818e-01
74 44 8.99848849919983929e-01
75 44 8.99848849919983818e-01
76 44 8.99848849919983929e-01
77 44 8.99848849919983929e-01
78 44 8.99848849919983929e-01
79 44 8.99848849919983707e-01
80 44 8.99848849919983707e-01
81 44 8.99848849919983818e-01
82 44 8.99848849919983929e-01
83 44 8.99848849919983818e-01
84 44 8.99848849919983818e-01
85 44 8.99848849919983818e-01
86 44 8.99848849919983707e-01
87 44 8.99848849919983707e-01
88 44 8.99848849919984040e-01
89 44 8.99848849919983929e-01
90 44 8.99848849919983595e-01
91 44 8.99848849919983929e-01
92 44 8.99848849919983818e-01
93 44 8.99848849919983929e-01
94 44 8.99848849919983818e-01
95 44 8.99848849919983929e-01
96 44 8.99848849919983818e-01
97 44 8.99848849919983818e-01
98 44 8.99848849919983818e-01
99 44 8.99848849919983818e-01
100 44 8.99848849919983595e-01
101 44 8.99848849919983818e-01
102 44 8.99848849919983929e-01
103 44 8.99848849919983818e-01
104 44 8.99848849919983818e-01
105 44 8.99848849919983929e-01
106 44 8.99848849919983818e-01
107 44 8.99848849919983929e-01
108 44 8.99848849919983818e-01
109 44 8.99848849919983929e-01
110 44 8.99848849919983929e-01
111 44 8.99848849919983929e-01
112 44 8.99848849919983707e-01
113 44 8.99848849919983707e-01
114 44 8.99848849919983818e-01
115 44 8.99848849919983929e-01
116 44 8.99848849919983818e-01
117 44 8.99848849919983818e-01
118 44 8.99848849919983818e-01
119 44 8.99848849919983707e-01
120 44 8.99848849919983707e-01
121 44 8.99848849919984040e-01
122 44 8.99848849919983929e-01
123 44 8.99848849919983595e-01
124 44 8.99848849919983929e-01
125 44 8.99848849919983818e-01
126 44 8.99848849919983929e-01
127 44 8.99848849919983818e-01
128 44 8.99848849919983929e-01
129 44 8.99848849919983818e-01
130 44 8.99848849919983818e-01
131 44 8.99848849919983818e-01
132 44 8.99848849919983818e-01
133 44 8.99848849919983595e-01
1 45 8.76627986955611171e-01
2 45 8.76627986955611394e-01
3 45 8.76627986955611505e-01
4 45 8.76627986955611505e-01
5 45 8.76627986955611505e-01
6 45 8.76627986955611505e-01
7 45 8.76627986955611394e-01
8 45 8.76627986955611505e-01
9 45 8.76627986955611394e-01
10 45 8.76627986955611505e-01
11 45 8.76627986955611505e-01
12 45 8.76627986955611505e-01
13 45 8.76627986955611282e-01
14 45 8.76627986955611282e-01
15 45 8.76627986955611282e-01
16 45 8.76627986955611616e-01
17 45 8.76627986955611282e-01
18 45 8.76627986955611282e-01
19 45 8.76627986955611394e-01
20 45 8.76627986955611394e-01
21 45 8.76627986955611282e-01
22 45 8.76627986955611616e-01
23 45 8.76627986955611505e-01
24 45 8.76627986955611394e-01
25 45 8.76627986955611505e-01
26 45 8.76627986955611282e-01
27 45 8.76627986955611505e-01
28 45 8.76627986955611394e-01
29 45 8.76627986955611616e-01
30 45 8.76627986955611394e-01
31 45 8.76627986955611505e-01
32 45 8.76627986955611505e-01
33 45 8.76627986955611394e-01
34 45 8.76627986955611171e-01
35 45 8.76627986955611394e-01
36 45 8.76627986955611505e-01
37 45 8.76627986955611505e-01
38 45 8.76627986955611505e-01
39 45 8.76627986955611505e-01
40 45 8.76627986955611394e-01
41 45 8.76627986955611505e-01
42 45 8.76627986955611394e-01
43 45 8.76627986955611505e-01
44 45 8.76627986955611505e-01
45 45 8.76627986955611505e-01
46 45 8.76627986955611282e-01
47 45 8.76627986955611282e-01
48 45 8.76627986955611282e-01
49 45 8.76627986955611616e-01
50 45 8.76627986955611282e-01
51 45 8.76627986955611282e-01
52 45 8.76627986955611394e-01
53 45 8.76627986955611394e-01
54 45 8.76627986955611282e-01
55 45 8.76627986955611616e-01
56 45 8.76627986955611505e-01
57 45 8.76627986955611394e-01
58 45 8.76627986955611505e-01
59 45 8.76627986955611282e-01
60 45 8.76627986955611505e-01
61 45 8.76627986955611394e-01
62 45 8.76627986955611616e-01
63 45 8.76627986955611394e-01
64 45 8.76627986955611505e-01
65 45 8.76627986955611505e-01
66 45 8.76627986955611394e-01
67 45 8.76627986955611171e-01
68 45 8.76627986955611394e-01
69 45 8.76627986955611505e-01
70 45 8.76627986955611505e-01
71 45 8.76627986955611505e-01
72 45 8.76627986955611505e-01
73 45 8.76627986955611394e-01
74 45 8.76627986955611505e-01
75 45 8.76627986955611394e-01
76 45 8.76627986955611505e-01
77 45 8.76627986955611505e-01
78 45 8.76627986955611505e-01
79 45 8.76627986955611282e-01
80 45 8.76627986955611282e-01
81 45 8.76627986955611282e-01
82 45 8.76627986955611616e-01
83 45 8.76627986955611282e-01
84 45 8.76627986955611282e-01
85 45 8.76627986955611394e-01
86 45 8.76627986955611394e-01
87 45 8.76627986955611282e-01
88 45 8.76627986955611616e-01
89 45 8.76627986955611505e-01
90 45 8.76627986955611394e-01
91 45 8.76627986955611505e-01
92 45 8.76627986955611282e-01
93 45 8.76627986955611505e-01
94 45 8.76627986955611394e-01
95 45 8.76627986955611616e-01
96 45 8.76627986955611394e-01
97 45 8.76627986955611505e-01
98 45 8.76627986955611505e-01
99 45 8.76627986955611394e-01
100 45 8.76627986955611171e-01
101 45 8.76627986955611394e-01
102 45 8.76627986955611505e-01
103 45 8.76627986955611505e-01
104 45 8.76627986955611505e-01
105 45 8.76627986955611505e-01
106 45 8.76627986955611394e-01
107 45 8.76627986955611505e-01
108 45 8.76627986955611394e-01
109 45 8.76627986955611505e-01
110 45 8.76627986955611505e-01
111 45 8.76627986955611505e-01
112 45 8.76627986955611282e-01
113 45 8.76627986955611282e-01
114 45 8.76627986955611282e-01
115 45 8.76627986955611616e-01
116 45 8.76627986955611282e-01
117 45 8.76627986955611282e-01
118 45 8.76627986955611394e-01
119 45 8.76627986955611394e-01
120 45 8.76627986955611282e-01
121 45 8.76627986955611616e-01
122 45 8.76627986955611505e-01
123 45 8.76627986955611394e-01
124 45 8.76627986955611505e-01
125 45 8.76627986955611282e-01
126 45 8.76627986955611505e-01
127 45 8.76627986955611394e-01
128 45 8.76627986955611616e-01
129 45 8.76627986955611394e-01
130 45 8.76627986955611505e-01
131 45 8.76627986955611505e-01
132 45 8.76627986955611394e-01
133 45 8.76627986955611171e-01
1 46 8.50974491469989602e-01
2 46 8.50974491469989713e-01
3 46 8.50974491469989824e-01
4 46 8.50974491469989824e-01
5 46 8.50974491469989935e-01
6 46 8.50974491469989824e-01
7 46 8.50974491469989713e-01
8 46 8.50974491469989935e-01
9 46 8.50974491469989713e-01
10 46 8.50974491469989824e-01
11 46 8.50974491469989713e-01
12 46 8.50974491469989824e-01
13 46 8.50974491469989713e-01
14 46 8.50974491469989713e-01
15 46 8.50974491469989602e-01
16 46 8.50974491469989935e-01
17 46 8.50974491469989713e-01
18 46 8.50974491469989713e-01
19 46 8.50974491469989713e-01
20 46 8.50974491469989713e-01
21 46 8.50974491469989713e-01
22 46 8.50974491469989713e-01
23 46 8.50974491469989824e-01
24 46 8.50974491469989713e-01
25 46 8.50974491469989824e-01
26 46 8.50974491469989713e-01
27 46 8.50974491469989935e-01
28 46 8.50974491469989713e-01
29 46 8.50974491469989824e-01
30 46 8.50974491469989713e-01
31 46 8.50974491469989824e-01
32 46 8.50974491469989824e-01
33 46 8.50974491469989713e-01
34 46 8.50974491469989602e-01
35 46 8.50974491469989713e-01
36 46 8.50974491469989824e-01
37 46 8.50974491469989824e-01
38 46 8.50974491469989935e-01
39 46 8.50974491469989824e-01
40 46 8.50974491469989713e-01
41 46 8.50974491469989935e-01
42 46 8.50974491469989713e-01
43 46 8.50974491469989824e-01
44 46 8.50974491469989713e-01
45 46 8.50974491469989824e-01
46 46 8.50974491469989713e-01
47 46 8.50974491469989713e-01
48 46 8.50974491469989602e-01
49 46 8.50974491469989935e-01
50 46 8.50974491469989713e-01
51 46 8.50974491469989713e-01
52 46 8.50974491469989713e-01
53 46 8.50974491469989713e-01
54 46 8.50974491469989713e-01
55 46 8.50974491469989713e-01
56 46 8.50974491469989824e-01
57 46 8.50974491469989713e-01
58 46 8.50974491469989824e-01
59 46 8.50974491469989713e-01
60 46 8.50974491469989935e-01
61 46 8.50974491469989713e-01
62 46 8.50974491469989824e-01
63 46 8.50974491469989713e-01
64 46 8.50974491469989824e-01
65 46 8.50974491469989824e-01
66 46 8.50974491469989713e-01
67 46 8.50974491469989602e-01
68 46 8.50974491469989713e-01
69 46 8.50974491469989824e-01
70 46 8.50974491469989824e-01
71 46 8.50974491469989935e-01
72 46 8.50974491469989824e-01
73 46 8.50974491469989713e-01
74 46 8.50974491469989935e-01
75 46 8.50974491469989713e-01
76 46 8.50974491469989824e-01
77 46 8.50974491469989713e-01
78 46 8.50974491469989824e-01
79 46 8.50974491469989713e-01
80 46 8.50974491469989713e-01
81 46 8.50974491469989602e-01
82 46 8.50974491469989935e-01
83 46 8.50974491469989713e-01
84 46 8.50974491469989713e-01
85 46 8.50974491469989713e-01
86 46 8.50974491469989713e-01
87 46 8.50974491469989713e-01
88 46 8.50974491469989713e-01
89 46 8.50974491469989824e-01
90 46 8.50974491469989713e-01
91 46 8.50974491469989824e-01
92 46 8.50974491469989713e-01
93 46 8.50974491469989935e-01
94 46 8.50974491469989713e-01
95 46 8.50974491469989824e-01
96 46 8.50974491469989713e-01
97 46 8.50974491469989824e-01
98 46 8.50974491469989824e-01
99 46 8.50974491469989713e-01
100 46 8.50974491469989602e-01
101 46 8.50974491469989713e-01
102 46 8.50974491469989824e-01
103 46 8.50974491469989824e-01
104 46 8.50974491469989935e-01
105 46 8.50974491469989824e-01
106 46 8.50974491469989713e-01
107 46 8.50974491469989935e-01
108 46 8.50974491469989713e-01
109 46 8.50974491469989824e-01
110 46 8.50974491469989713e-01
111 46 8.50974491469989824e-01
112 46 8.50974491469989713e-01
113 46 8.50974491469989713e-01
114 46 8.50974491469989602e-01
115 46 8.50974491469989935e-01
116 46 8.50974491469989713e-01
117 46 8.50974491469989713e-01
118 46 8.50974491469989713e-01
119 46 8.50974491469989713e-01
120 46 8.50974491469989713e-01
121 46 8.50974491469989713e-01
122 46 8.50974491469989824e-01
123 46 8.50974491469989713e-01
124 46 8.50974491469989824e-01
125 46 8.50974491469989713e-01
126 46 8.50974491469989935e-01
127 46 8.50974491469989713e-01
128 46 8.50974491469989824e-01
129 46 8.50974491469989713e-01
130 46 8.50974491469989824e-01
131 46 8.50974491469989824e-01
132 46 8.50974491469989713e-01
133 46 8.50974491469989602e-01
1 47 8.22942178512991451e-01
2 47 8.22942178512991562e-01
3 47 8.22942178512991673e-01
4 47 8.22942178512991673e-01
5 47 8.22942178512991673e-01
6 47 8.22942178512991673e-01
7 47 8.22942178512991562e-01
8 47 8.22942178512991784e-01
9 47 8.22942178512991451e-01
10 47 8.22942178512991673e-01
11 47 8.22942178512991562e-01
12 47 8.22942178512991562e-01
13 47 8.22942178512991451e-01
14 47 8.22942178512991562e-01
15 47 8.22942178512991451e-01
16 47 8.22942178512991673e-01
17 47 8.22942178512991562e-01
18 47 8.22942178512991562e-01
19 47 8.22942178512991451e-01
20 47 8.22942178512991562e-01
21 47 8.22942178512991562e-01
22 47 8.22942178512991451e-01
23 47 8.22942178512991562e-01
24 47 8.22942178512991562e-01
25 47 8.22942178512991562e-01
26 47 8.22942178512991451e-01
27 47 8.22942178512991784e-01
28 47 8.22942178512991562e-01
29 47 8.22942178512991562e-01
30 47 8.22942178512991562e-01
31 47 8.22942178512991673e-01
32 47 8.22942178512991673e-01
33 47 8.22942178512991562e-01
34 47 8.22942178512991451e-01
35 47 8.22942178512991562e-01
36 47 8.22942178512991673e-01
37 47 8.22942178512991673e-01
38 47 8.22942178512991673e-01
39 47 8.22942178512991673e-01
40 47 8.22942178512991562e-01
41 47 8.22942178512991784e-01
42 47 8.22942178512991451e-01
43 47 8.22942178512991673e-01
44 47 8.22942178512991562e-01
45 47 8.22942178512991562e-01
46 47 8.22942178512991451e-01
47 47 8.22942178512991562e-01
48 47 8.22942178512991451e-01
49 47 8.22942178512991673e-01
50 47 8.22942178512991562e-01
51 47 8.22942178512991562e-01
52 47 8.22942178512991451e-01
53 47 8.22942178512991562e-01
54 47 8.22942178512991562e-01
55 47 8.22942178512991451e-01
56 47 8.22942178512991562e-01
57 47 8.22942178512991562e-01
58 47 8.22942178512991562e-01
59 47 8.22942178512991451e-01
60 47 8.22942178512991784e-01
61 47 8.22942178512991562e-01
62 47 8.22942178512991562e-01
63 47 8.22942178512991562e-01
64 47 8.22942178512991673e-01
65 47 8.22942178512991673e-01
66 47 8.22942178512991562e-01
67 47 8.22942178512991451e-01
68 47 8.22942178512991562e-01
69 47 8.22942178512991673e-01
70 47 8.22942178512991673e-01
71 47 8.22942178512991673e-01
72 47 8.22942178512991673e-01
73 47 8.22942178512991562e-01
74 47 8.22942178512991784e-01
75 47 8.22942178512991451e-01
76 47 8.22942178512991673e-01
77 47 8.22942178512991562e-01
78 47 8.22942178512991562e-01
79 47 8.22942178512991451e-01
80 47 8.22942178512991562e-01
81 47 8.22942178512991451e-01
82 47 8.22942178512991673e-01
83 47 8.22942178512991562e-01
84 47 8.22942178512991562e-01
85 47 8.22942178512991451e-01
86 47 8.22942178512991562e-01
87 47 8.22942178512991562e-01
88 47 8.22942178512991451e-01
89 47 8.22942178512991562e-01
90 47 8.22942178512991562e-01
91 47 8.22942178512991562e-01
92 47 8.22942178512991451e-01
93 47 8.22942178512991784e-01
94 47 8.22942178512991562e-01
95 47 8.22942178512991562e-01
96 47 8.22942178512991562e-01
97 47 8.22942178512991673e-01
98 47 8.22942178512991673e-01
99 47 8.22942178512991562e-01
100 47 8.22942178512991451e-01
101 47 8.22942178512991562e-01
102 47 8.22942178512991673e-01
103 47 8.22942178512991673e-01
104 47 8.22942178512991673e-01
105 47 8.22942178512991673e-01
106 47 8.22942178512991562e-01
107 47 8.22942178512991784e-01
108 47 8.22942178512991451e-01
109 47 8.22942178512991673e-01
110 47 8.22942178512991562e-01
111 47 8.22942178512991562e-01
112 47 8.22942178512991451e-01
113 47 8.22942178512991562e-01
114 47 8.22942178512991451e-01
115 47 8.22942178512991673e-01
116 47 8.22942178512991562e-01
117 47 8.22942178512991562e-01
118 47 8.22942178512991451e-01
119 47 8.22942178512991562e-01
120 47 8.22942178512991562e-01
121 47 8.22942178512991451e-01
122 47 8.22942178512991562e-01
123 47 8.22942178512991562e-01
124 47 8.22942178512991562e-01
125 47 8.22942178512991451e-01
126 47 8.22942178512991784e-01
127 47 8.22942178512991562e-01
128 47 8.22942178512991562e-01
129 47 8.22942178512991562e-01
130 47 8.22942178512991673e-01
131 47 8.22942178512991673e-01
132 47 8.22942178512991562e-01
133 47 8.22942178512991451e-01
1 48 7.92605211317161995e-01
2 48 7.92605211317161995e-01
3 48 7.92605211317162106e-01
4 48 7.92605211317162106e-01
5 48 7.92605211317162217e-01
6 48 7.92605211317162106e-01
7 48 7.92605211317162106e-01
8 48 7.92605211317162328e-01
9 48 7.92605211317161884e-01
10 48 7.92605211317162106e-01
11 48 7.92605211317161995e-01
12 48 7.92605211317161995e-01
13 48 7.92605211317161884e-01
14 48 7.92605211317161995e-01
15 48 7.92605211317161884e-01
16 48 7.92605211317162106e-01
17 48 7.92605211317162106e-01
18 48 7.92605211317162106e-01
19 48 7.92605211317161884e-01
20 48 7.92605211317161995e-01
21 48 7.92605211317161995e-01
22 48 7.92605211317161884e-01
23 48 7.92605211317161995e-01
24 48 7.92605211317161995e-01
25 48 7.92605211317162106e-01
26 48 7.92605211317161995e-01
27 48 7.92605211317162328e-01
28 48 7.92605211317162106e-01
29 48 7.92605211317162106e-01
30 48 7.92605211317161995e-01
31 48 7.92605211317162106e-01
32 48 7.92605211317162106e-01
33 48 7.92605211317161995e-01
34 48 7.92605211317161995e-01
35 48 7.92605211317161995e-01
36 48 7.92605211317162106e-01
37 48 7.92605211317162106e-01
38 48 7.92605211317162217e-01
39 48 7.92605211317162106e-01
40 48 7.92605211317162106e-01
41 48 7.92605211317162328e-01
42 48 7.92605211317161884e-01
43 48 7.92605211317162106e-01
44 48 7.92605211317161995e-01
45 48 7.92605211317161995e-01
46 48 7.92605211317161884e-01
47 48 7.92605211317161995e-01
48 48 7.92605211317161884e-01
49 48 7.92605211317162106e-01
50 48 7.92605211317162106e-01
51 48 7.92605211317162106e-01
52 48 7.92605211317161884e-01
53 48 7.92605211317161995e-01
54 48 7.92605211317161995e-01
55 48 7.92605211317161884e-01
56 48 7.92605211317161995e-01
57 48 7.92605211317161995e-01
58 48 7.92605211317162106e-01
59 48 7.92605211317161995e-01
60 48 7.92605211317162328e-01
61 48 7.92605211317162106e-01
62 48 7.92605211317162106e-01
63 48 7.92605211317161995e-01
64 48 7.92605211317162106e-01
65 48 7.92605211317162106e-01
66 48 7.92605211317161995e-01
67 48 7.92605211317161995e-01
68 48 7.92605211317161995e-01
69 48 7.92605211317162106e-01
70 48 7.92605211317162106e-01
71 48 7.92605211317162217e-01
72 48 7.92605211317162106e-01
73 48 7.92605211317162106e-01
74 48 7.92605211317162328e-01
75 48 7.92605211317161884e-01
76 48 7.92605211317162106e-01
77 48 7.92605211317161995e-01
78 48 7.92605211317161995e-01
79 48 7.92605211317161884e-01
80 48 7.92605211317161995e-01
81 48 7.92605211317161884e-01
82 48 7.92605211317162106e-01
83 48 7.92605211317162106e-01
84 48 7.92605211317162106e-01
85 48 7.92605211317161884e-01
86 48 7.92605211317161995e-01
87 48 7.92605211317161995e-01
88 48 7.92605211317161884e-01
89 48 7.92605211317161995e-01
90 48 7.92605211317161995e-01
91 48 7.92605211317162106e-01
92 48 7.92605211317161995e-01
93 48 7.92605211317162328e-01
94 48 7.92605211317162106e-01
95 48 7.92605211317162106e-01
96 48 7.92605211317161995e-01
97 48 7.92605211317162106e-01
98 48 7.92605211317162106e-01
99 48 7.92605211317161995e-01
100 48 7.92605211317161995e-01
101 48 7.92605211317161995e-01
102 48 7.92605211317162106e-01
103 48 7.92605211317162106e-01
104 48 7.92605211317162217e-01
105 48 7.92605211317162106e-01
106 48 7.92605211317162106e-01
107 48 7.92605211317162328e-01
108 48 7.92605211317161884e-01
109 48 7.92605211317162106e-01
110 48 7.92605211317161995e-01
111 48 7.92605211317161995e-01
112 48 7.92605211317161884e-01
113 48 7.92605211317161995e-01
114 48 7.92605211317161884e-01
115 48 7.92605211317162106e-01
116 48 7.92605211317162106e-01
117 48 7.92605211317162106e-01
118 48 7.92605211317161884e-01
119 48 7.92605211317161995e-01
120 48 7.92605211317161995e-01
121 48 7.92605211317161884e-01
122 48 7.92605211317161995e-01
123 48 7.92605211317161995e-01
124 48 7.92605211317162106e-01
125 48 7.92605211317161995e-01
126 48 7.92605211317162328e-01
127 48 7.92605211317162106e-01
128 48 7.92605211317162106e-01
129 48 7.92605211317161995e-01
130 48 7.92605211317162106e-01
131 48 7.92605211317162106e-01
132 48 7.92605211317161995e-01
133 48 7.92605211317161995e-01
1 49 7.60057653303947478e-01
2 49 7.60057653303947478e-01
3 49 7.60057653303947589e-01
4 49 7.60057653303947478e-01
5 49 7.60057653303947700e-01
6 49 7.60057653303947478e-01
7 49 7.60057653303947589e-01
8 49 7.60057653303947811e-01
9 49 7.60057653303947367e-01
10 49 7.60057653303947589e-01
11 49 7.60057653303947589e-01
12 49 7.60057653303947589e-01
13 49 7.60057653303947367e-01
14 49 7.60057653303947589e-01
15 49 7.60057653303947367e-01
16 49 7.60057653303947478e-01
17 49 7.60057653303947589e-01
18 49 7.60057653303947589e-01
19 49 7.60057653303947367e-01
20 49 7.60057653303947478e-01
21 49 7.60057653303947589e-01
22 49 7.60057653303947367e-01
23 49 7.60057653303947478e-01
24 49 7.60057653303947478e-01
25 49 7.60057653303947478e-01
26 49 7.60057653303947589e-01
27 49 7.60057653303947811e-01
28 49 7.60057653303947589e-01
29 49 7.60057653303947478e-01
30 49 7.60057653303947478e-01
31 49 7.60057653303947478e-01
32 49 7.60057653303947700e-01
33 49 7.60057653303947478e-01
34 49 7.60057653303947478e-01
35 49 7.60057653303947478e-01
36 49 7.60057653303947589e-01
37 49 7.60057653303947478e-01
38 49 7.60057653303947700e-01
39 49 7.60057653303947478e-01
40 49 7.60057653303947589e-01
41 49 7.60057653303947811e-01
42 49 7.60057653303947367e-01
43 49 7.60057653303947589e-01
44 49 7.60057653303947589e-01
45 49 7.60057653303947589e-01
46 49 7.60057653303947367e-01
47 49 7.60057653303947589e-01
48 49 7.60057653303947367e-01
49 49 7.60057653303947478e-01
50 49 7.60057653303947589e-01
51 49 7.60057653303947589e-01
52 49 7.60057653303947367e-01
53 49 7.60057653303947478e-01
54 49 7.60057653303947589e-01
55 49 7.60057653303947367e-01
56 49 7.60057653303947478e-01
57 49 7.60057653303947478e-01
58 49 7.60057653303947478e-01
59 49 7.60057653303947589e-01
60 49 7.60057653303947811e-01
61 49 7.60057653303947589e-01
62 49 7.60057653303947478e-01
63 49 7.60057653303947478e-01
64 49 7.60057653303947478e-01
65 49 7.60057653303947700e-01
66 49 7.60057653303947478e-01
67 49 7.60057653303947478e-01
68 49 7.60057653303947478e-01
69 49 7.60057653303947589e-01
70 49 7.60057653303947478e-01
71 49 7.60057653303947700e-01
72 49 7.60057653303947478e-01
73 49 7.60057653303947589e-01
74 49 7.60057653303947811e-01
75 49 7.60057653303947367e-01
76 49 7.60057653303947589e-01
77 49 7.60057653303947589e-01
78 49 7.60057653303947589e-01
79 49 7.60057653303947367e-01
80 49 7.60057653303947589e-01
81 49 7.60057653303947367e-01
82 49 7.60057653303947478e-01
83 49 7.60057653303947589e-01
84 49 7.60057653303947589e-01
85 49 7.60057653303947367e-01
86 49 7.60057653303947478e-01
87 49 7.60057653303947589e-01
88 49 7.60057653303947367e-01
89 49 7.60057653303947478e-01
90 49 7.60057653303947478e-01
91 49 7.60057653303947478e-01
92 49 7.60057653303947589e-01
93 49 7.60057653303947811e-01
94 49 7.60057653303947589e-01
95 49 7.60057653303947478e-01
96 49 7.60057653303947478e-01
97 49 7.60057653303947478e-01
98 49 7.60057653303947700e-01
99 49 7.60057653303947478e-01
100 49 7.60057653303947478e-01
101 49 7.60057653303947478e-01
102 49 7.60057653303947589e-01
103 49 7.60057653303947478e-01
104 49 7.60057653303947700e-01
105 49 7.60057653303947478e-01
106 49 7.60057653303947589e-01
107 49 7.60057653303947811e-01
108 49 7.60057653303947367e-01
109 49 7.60057653303947589e-01
110 49 7.60057653303947589e-01
111 49 7.60057653303947589e-01
112 49 7.60057653303947367e-01
113 49 7.60057653303947589e-01
114 49 7.60057653303947367e-01
115 49 7.60057653303947478e-01
116 49 7.60057653303947589e-01
117 49 7.60057653303947589e-01
118 49 7.60057653303947367e-01
119 49 7.60057653303947478e-01
120 49 7.60057653303947589e-01
121 49 7.60057653303947367e-01
122 49 7.60057653303947478e-01
123 49 7.60057653303947478e-01
124 49 7.60057653303947478e-01
125 49 7.60057653303947589e-01
126 49 7.60057653303947811e-01
127 49 7.60057653303947589e-01
128 49 7.60057653303947478e-01
129 49 7.60057653303947478e-01
130 49 7.60057653303947478e-01
131 49 7.60057653303947700e-01
132 49 7.60057653303947478e-01
133 49 7.60057653303947478e-01
1 50 7.25412607362388218e-01
2 50 7.25412607362388329e-01
3 50 7.25412607362388440e-01
4 50 7.25412607362388329e-01
5 50 7.25412607362388551e-01
6 50 7.25412607362388329e-01
7 50 7.25412607362388329e-01
8 50 7.25412607362388662e-01
9 50 7.25412607362388107e-01
10 50 7.25412607362388440e-01
11 50 7.25412607362388440e-01
12 50 7.25412607362388329e-01
13 50 7.25412607362388218e-01
14 50 7.25412607362388329e-01
15 50 7.25412607362388329e-01
16 50 7.25412607362388329e-01
17 50 7.25412607362388329e-01
18 50 7.25412607362388329e-01
19 50 7.25412607362388107e-01
20 50 7.25412607362388329e-01
21 50 7.25412607362388329e-01
22 50 7.25412607362388218e-01
23 50 7.25412607362388218e-01
24 50 7.25412607362388329e-01
25 50 7.25412607362388329e-01
26 50 7.25412607362388329e-01
27 50 7.25412607362388662e-01
28 50 7.25412607362388329e-01
29 50 7.25412607362388218e-01
30 50 7.25412607362388329e-01
31 50 7.25412607362388440e-01
32 50 7.25412607362388551e-01
33 50 7.25412607362388329e-01
34 50 7.25412607362388218e-01
35 50 7.25412607362388329e-01
36 50 7.25412607362388440e-01
37 50 7.25412607362388329e-01
38 50 7.25412607362388551e-01
39 50 7.25412607362388329e-01
40 50 7.25412607362388329e-01
41 50 7.25412607362388662e-01
42 50 7.25412607362388107e-01
43 50 7.25412607362388440e-01
44 50 7.25412607362388440e-01
45 50 7.25412607362388329e-01
46 50 7.25412607362388218e-01
47 50 7.25412607362388329e-01
48 50 7.25412607362388329e-01
49 50 7.25412607362388329e-01
50 50 7.25412607362388329e-01
51 50 7.25412607362388329e-01
52 50 7.25412607362388107e-01
53 50 7.25412607362388329e-01
54 50 7.25412607362388329e-01
55 50 7.25412607362388218e-01
56 50 7.25412607362388218e-01
57 50 7.25412607362388329e-01
58 50 7.25412607362388329e-01
59 50 7.25412607362388329e-01
60 50 7.25412607362388662e-01
61 50 7.25412607362388329e-01
62 50 7.25412607362388218e-01
63 50 7.25412607362388329e-01
64 50 7.25412607362388440e-01
65 50 7.25412607362388551e-01
66 50 7.25412607362388329e-01
67 50 7.25412607362388218e-01
68 50 7.25412607362388329e-01
69 50 7.25412607362388440e-01
70 50 7.25412607362388329e-01
71 50 7.25412607362388551e-01
72 50 7.25412607362388329e-01
73 50 7.25412607362388329e-01
74 50 7.25412607362388662e-01
75 50 7.25412607362388107e-01
76 50 7.25412607362388440e-01
77 50 7.25412607362388440e-01
78 50 7.25412607362388329e-01
79 50 7.25412607362388218e-01
80 50 7.25412607362388329e-01
81 50 7.25412607362388329e-01
82 50 7.25412607362388329e-01
83 50 7.25412607362388329e-01
84 50 7.25412607362388329e-01
85 50 7.25412607362388107e-01
86 50 7.25412607362388329e-01
87 50 7.25412607362388329e-01
88 50 7.25412607362388218e-01
89 50 7.25412607362388218e-01
90 50 7.25412607362388329e-01
91 50 7.25412607362388329e-01
92 50 7.25412607362388329e-01
93 50 7.25412607362388662e-01
94 50 7.25412607362388329e-01
95 50 7.25412607362388218e-01
96 50 7.25412607362388329e-01
97 50 7.25412607362388440e-01
98 50 7.25412607362388551e-01
99 50 7.25412607362388329e-01
100 50 7.25412607362388218e-01
101 50 7.25412607362388329e-01
102 50 7.25412607362388440e-01
103 50 7.25412607362388329e-01
104 50 7.25412607362388551e-01
105 50 7.25412607362388329e-01
106 50 7.25412607362388329e-01
107 50 7.25412607362388662e-01
108 50 7.25412607362388107e-01
109 50 7.25412607362388440e-01
110 50 7.25412607362388440e-01
111 50 7.25412607362388329e-01
112 50 7.25412607362388218e-01
113 50 7.25412607362388329e-01
114 50 7.25412607362388329e-01
115 50 7.25412607362388329e-01
116 50 7.25412607362388329e-01
117 50 7.25412607362388329e-01
118 50 7.25412607362388107e-01
119 50 7.25412607362388329e-01
120 50 7.25412607362388329e-01
121 50 7.25412607362388218e-01
122 50 7.25412607362388218e-01
123 50 7.25412607362388329e-01
124 50 7.25412607362388329e-01
125 50 7.25412607362388329e-01
126 50 7.25412607362388662e-01
127 50 7.25412607362388329e-01
128 50 7.25412607362388218e-01
129 50 7.25412607362388329e-01
130 50 7.25412607362388440e-01
131 50 7.25412607362388551e-01
132 50 7.25412607362388329e-01
133 50 7.25412607362388218e-01
1 51 6.88800955010706706e-01
2 51 6.88800955010706817e-01
3 51 6.88800955010706817e-01
4 51 6.88800955010706706e-01
5 51 6.88800955010706928e-01
6 51 6.88800955010706817e-01
7 51 6.88800955010706706e-01
8 51 6.88800955010707150e-01
9 51 6.88800955010706484e-01
10 51 6.88800955010706928e-01
11 51 6.88800955010706817e-01
12 51 6.88800955010706817e-01
13 51 6.88800955010706706e-01
14 51 6.88800955010706817e-01
15 51 6.88800955010706817e-01
16 51 6.88800955010706706e-01
17 51 6.88800955010706817e-01
18 51 6.88800955010706817e-01
19 51 6.88800955010706706e-01
20 51 6.88800955010706817e-01
21 51 6.88800955010706817e-01
22 51 6.88800955010706706e-01
23 51 6.88800955010706706e-01
24 51 6.88800955010706706e-01
25 51 6.88800955010706817e-01
26 51 6.88800955010706706e-01
27 51 6.88800955010707150e-01
28 51 6.88800955010706706e-01
29 51 6.88800955010706706e-01
30 51 6.88800955010706706e-01
31 51 6.88800955010706817e-01
32 51 6.88800955010707039e-01
33 51 6.88800955010706817e-01
34 51 6.88800955010706706e-01
35 51 6.88800955010706817e-01
36 51 6.88800955010706817e-01
37 51 6.88800955010706706e-01
38 51 6.88800955010706928e-01
39 51 6.88800955010706817e-01
40 51 6.88800955010706706e-01
41 51 6.88800955010707150e-01
42 51 6.88800955010706484e-01
43 51 6.88800955010706928e-01
44 51 6.88800955010706817e-01
45 51 6.88800955010706817e-01
46 51 6.88800955010706706e-01
47 51 6.88800955010706817e-01
48 51 6.88800955010706817e-01
49 51 6.88800955010706706e-01
50 51 6.88800955010706817e-01
51 51 6.88800955010706817e-01
52 51 6.88800955010706706e-01
53 51 6.88800955010706817e-01
54 51 6.88800955010706817e-01
55 51 6.88800955010706706e-01
56 51 6.88800955010706706e-01
57 51 6.88800955010706706e-01
58 51 6.88800955010706817e-01
59 51 6.88800955010706706e-01
60 51 6.88800955010707150e-01
61 51 6.88800955010706706e-01
62 51 6.88800955010706706e-01
63 51 6.88800955010706706e-01
64 51 6.88800955010706817e-01
65 51 6.88800955010707039e-01
66 51 6.88800955010706817e-01
67 51 6.88800955010706706e-01
68 51 6.88800955010706817e-01
69 51 6.88800955010706817e-01
70 51 6.88800955010706706e-01
71 51 6.88800955010706928e-01
72 51 6.88800955010706817e-01
73 51 6.88800955010706706e-01
74 51 6.88800955010707150e-01
75 51 6.88800955010706484e-01
76 51 6.88800955010706928e-01
77 51 6.88800955010706817e-01
78 51 6.88800955010706817e-01
79 51 6.88800955010706706e-01
80 51 6.88800955010706817e-01
81 51 6.88800955010706817e-01
82 51 6.88800955010706706e-01
83 51 6.88800955010706817e-01
84 51 6.88800955010706817e-01
85 51 6.88800955010706706e-01
86 51 6.88800955010706817e-01
87 51 6.88800955010706817e-01
88 51 6.88800955010706706e-01
89 51 6.88800955010706706e-01
90 51 6.88800955010706706e-01
91 51 6.88800955010706817e-01
92 51 6.88800955010706706e-01
93 51 6.88800955010707150e-01
94 51 6.88800955010706706e-01
95 51 6.88800955010706706e-01
96 51 6.88800955010706706e-01
97 51 6.88800955010706817e-01
98 51 6.88800955010707039e-01
99 51 6.88800955010706817e-01
100 51 6.88800955010706706e-01
101 51 6.88800955010706817e-01
102 51 6.88800955010706817e-01
103 51 6.88800955010706706e-01
104 51 6.88800955010706928e-01
105 51 6.88800955010706817e-01
106 51 6.88800955010706706e-01
107 51 6.88800955010707150e-01
108 51 6.88800955010706484e-01
109 51 6.88800955010706928e-01
110 51 6.88800955010706817e-01
111 51 6.88800955010706817e-01
112 51 6.88800955010706706e-01
113 51 6.88800955010706817e-01
114 51 6.88800955010706817e-01
115 51 6.88800955010706706e-01
116 51 6.88800955010706817e-01
117 51 6.88800955010706817e-01
118 51 6.88800955010706706e-01
119 51 6.88800955010706817e-01
120 51 6.88800955010706817e-01
121 51 6.88800955010706706e-01
122 51 6.88800955010706706e-01
123 51 6.88800955010706706e-01
124 51 6.88800955010706817e-01
125 51 6.88800955010706706e-01
126 51 6.88800955010707150e-01
127 51 6.88800955010706706e-01
128 51 6.88800955010706706e-01
129 51 6.88800955010706706e-01
130 51 6.88800955010706817e-01
131 51 6.88800955010707039e-01
132 51 6.88800955010706817e-01
133 51 6.88800955010706706e-01
1 52 6.50369723385751941e-01
2 52 6.50369723385752052e-01
3 52 6.50369723385752163e-01
4 52 6.50369723385752052e-01
5 52 6.50369723385752274e-01
6 52 6.50369723385752052e-01
7 52 6.50369723385752163e-01
8 52 6.50369723385752385e-01
9 52 6.50369723385751719e-01
10 52 6.50369723385752274e-01
11 52 6.50369723385752163e-01
12 52 6.50369723385752163e-01
13 52 6.50369723385751941e-01
14 52 6.50369723385752163e-01
15 52 6.50369723385752052e-01
16 52 6.50369723385752052e-01
17 52 6.50369723385752052e-01
18 52 6.50369723385752052e-01
19 52 6.50369723385752052e-01
20 52 6.50369723385752052e-01
21 52 6.50369723385752163e-01
22 52 6.50369723385751941e-01
23 52 6.50369723385751941e-01
24 52 6.50369723385751941e-01
25 52 6.50369723385752052e-01
26 52 6.50369723385752052e-01
27 52 6.50369723385752385e-01
28 52 6.50369723385752052e-01
29 52 6.50369723385751941e-01
30 52 6.50369723385751941e-01
31 52 6.50369723385752163e-01
32 52 6.50369723385752385e-01
33 52 6.50369723385752052e-01
34 52 6.50369723385751941e-01
35 52 6.50369723385752052e-01
36 52 6.50369723385752163e-01
37 52 6.50369723385752052e-01
38 52 6.50369723385752274e-01
39 52 6.50369723385752052e-01
40 52 6.50369723385752163e-01
41 52 6.50369723385752385e-01
42 52 6.50369723385751719e-01
43 52 6.50369723385752274e-01
44 52 6.50369723385752163e-01
45 52 6.50369723385752163e-01
46 52 6.50369723385751941e-01
47 52 6.50369723385752163e-01
48 52 6.50369723385752052e-01
49 52 6.50369723385752052e-01
50 52 6.50369723385752052e-01
51 52 6.50369723385752052e-01
52 52 6.50369723385752052e-01
53 52 6.50369723385752052e-01
54 52 6.50369723385752163e-01
55 52 6.50369723385751941e-01
56 52 6.50369723385751941e-01
57 52 6.50369723385751941e-01
58 52 6.50369723385752052e-01
59 52 6.50369723385752052e-01
60 52 6.50369723385752385e-01
61 52 6.50369723385752052e-01
62 52 6.50369723385751941e-01
63 52 6.50369723385751941e-01
64 52 6.50369723385752163e-01
65 52 6.50369723385752385e-01
66 52 6.50369723385752052e-01
67 52 6.50369723385751941e-01
68 52 6.50369723385752052e-01
69 52 6.50369723385752163e-01
70 52 6.50369723385752052e-01
71 52 6.50369723385752274e-01
72 52 6.50369723385752052e-01
73 52 6.50369723385752163e-01
74 52 6.50369723385752385e-01
75 52 6.50369723385751719e-01
76 52 6.50369723385752274e-01
77 52 6.50369723385752163e-01
78 52 6.50369723385752163e-01
79 52 6.50369723385751941e-01
80 52 6.50369723385752163e-01
81 52 6.50369723385752052e-01
82 52 6.50369723385752052e-01
83 52 6.50369723385752052e-01
84 52 6.50369723385752052e-01
85 52 6.50369723385752052e-01
86 52 6.50369723385752052e-01
87 52 6.50369723385752163e-01
88 52 6.50369723385751941e-01
89 52 6.50369723385751941e-01
90 52 6.50369723385751941e-01
91 52 6.50369723385752052e-01
92 52 6.50369723385752052e-01
93 52 6.50369723385752385e-01
94 52 6.50369723385752052e-01
95 52 6.50369723385751941e-01
96 52 6.50369723385751941e-01
97 52 6.50369723385752163e-01
98 52 6.50369723385752385e-01
99 52 6.50369723385752052e-01
100 52 6.50369723385751941e-01
101 52 6.50369723385752052e-01
102 52 6.50369723385752163e-01
103 52 6.50369723385752052e-01
104 52 6.50369723385752274e-01
105 52 6.50369723385752052e-01
106 52 6.50369723385752163e-01
107 52 6.50369723385752385e-01
108 52 6.50369723385751719e-01
109 52 6.50369723385752274e-01
110 52 6.50369723385752163e-01
111 52 6.50369723385752163e-01
112 52 6.50369723385751941e-01
113 52 6.50369723385752163e-01
114 52 6.50369723385752052e-01
115 52 6.50369723385752052e-01
116 52 6.50369723385752052e-01
117 52 6.50369723385752052e-01
118 52 6.50369723385752052e-01
119 52 6.50369723385752052e-01
120 52 6.50369723385752163e-01
121 52 6.50369723385751941e-01
122 52 6.50369723385751941e-01
123 52 6.50369723385751941e-01
124 52 6.50369723385752052e-01
125 52 6.50369723385752052e-01
126 52 6.50369723385752385e-01
127 52 6.50369723385752052e-01
128 52 6.50369723385751941e-01
129 52 6.50369723385751941e-01
130 52 6.50369723385752163e-01
131 52 6.50369723385752385e-01
132 52 6.50369723385752052e-01
133 52 6.50369723385751941e-01
1 53 6.10280122365216449e-01
2 53 6.10280122365216449e-01
3 53 6.10280122365216671e-01
4 53 6.10280122365216560e-01
5 53 6.10280122365216671e-01
6 53 6.10280122365216449e-01
7 53 6.10280122365216671e-01
8 53 6.10280122365216782e-01
9 53 6.10280122365216227e-01
10 53 6.10280122365216671e-01
11 53 6.10280122365216560e-01
12 53 6.10280122365216560e-01
13 53 6.10280122365216449e-01
14 53 6.10280122365216671e-01
15 53 6.10280122365216449e-01
16 53 6.10280122365216560e-01
17 53 6.10280122365216560e-01
18 53 6.10280122365216560e-01
19 53 6.10280122365216560e-01
20 53 6.10280122365216560e-01
21 53 6.10280122365216671e-01
22 53 6.10280122365216449e-01
23 53 6.10280122365216338e-01
24 53 6.10280122365216449e-01
25 53 6.10280122365216449e-01
26 53 6.10280122365216449e-01
27 53 6.10280122365216782e-01
28 53 6.10280122365216560e-01
29 53 6.10280122365216338e-01
30 53 6.10280122365216449e-01
31 53 6.10280122365216671e-01
32 53 6.10280122365216782e-01
33 53 6.10280122365216449e-01
34 53 6.10280122365216449e-01
35 53 6.10280122365216449e-01
36 53 6.10280122365216671e-01
37 53 6.10280122365216560e-01
38 53 6.10280122365216671e-01
39 53 6.10280122365216449e-01
40 53 6.10280122365216671e-01
41 53 6.10280122365216782e-01
42 53 6.10280122365216227e-01
43 53 6.10280122365216671e-01
44 53 6.10280122365216560e-01
45 53 6.10280122365216560e-01
46 53 6.10280122365216449e-01
47 53 6.10280122365216671e-01
48 53 6.10280122365216449e-01
49 53 6.10280122365216560e-01
50 53 6.10280122365216560e-01
51 53 6.10280122365216560e-01
52 53 6.10280122365216560e-01
53 53 6.10280122365216560e-01
54 53 6.10280122365216671e-01
55 53 6.10280122365216449e-01
56 53 6.10280122365216338e-01
57 53 6.10280122365216449e-01
58 53 6.10280122365216449e-01
59 53 6.10280122365216449e-01
60 53 6.10280122365216782e-01
61 53 6.10280122365216560e-01
62 53 6.10280122365216338e-01
63 53 6.10280122365216449e-01
64 53 6.10280122365216671e-01
65 53 6.10280122365216782e-01
66 53 6.10280122365216449e-01
67 53 6.10280122365216449e-01
68 53 6.10280122365216449e-01
69 53 6.10280122365216671e-01
70 53 6.10280122365216560e-01
71 53 6.10280122365216671e-01
72 53 6.10280122365216449e-01
73 53 6.10280122365216671e-01
74 53 6.10280122365216782e-01
75 53 6.10280122365216227e-01
76 53 6.10280122365216671e-01
77 53 6.10280122365216560e-01
78 53 6.10280122365216560e-01
79 53 6.10280122365216449e-01
80 53 6.10280122365216671e-01
81 53 6.10280122365216449e-01
82 53 6.10280122365216560e-01
83 53 6.10280122365216560e-01
84 53 6.10280122365216560e-01
85 53 6.10280122365216560e-01
86 53 6.10280122365216560e-01
87 53 6.10280122365216671e-01
88 53 6.10280122365216449e-01
89 53 6.10280122365216338e-01
90 53 6.10280122365216449e-01
91 53 6.10280122365216449e-01
92 53 6.10280122365216449e-01
93 53 6.10280122365216782e-01
94 53 6.10280122365216560e-01
95 53 6.10280122365216338e-01
96 53 6.10280122365216449e-01
97 53 6.10280122365216671e-01
98 53 6.10280122365216782e-01
99 53 6.10280122365216449e-01
100 53 6.10280122365216449e-01
101 53 6.10280122365216449e-01
102 53 6.10280122365216671e-01
103 53 6.10280122365216560e-01
104 53 6.10280122365216671e-01
105 53 6.10280122365216449e-01
106 53 6.10280122365216671e-01
107 53 6.10280122365216782e-01
108 53 6.10280122365216227e-01
109 53 6.10280122365216671e-01
110 53 6.10280122365216560e-01
111 53 6.10280122365216560e-01
112 53 6.10280122365216449e-01
113 53 6.10280122365216671e-01
114 53 6.10280122365216449e-01
115 53 6.10280122365216560e-01
116 53 6.10280122365216560e-01
117 53 6.10280122365216560e-01
118 53 6.10280122365216560e-01
119 53 6.10280122365216560e-01
120 53 6.10280122365216671e-01
121 53 6.10280122365216449e-01
122 53 6.10280122365216338e-01
123 53 6.10280122365216449e-01
124 53 6.10280122365216449e-01
125 53 6.10280122365216449e-01
126 53 6.10280122365216782e-01
127 53 6.10280122365216560e-01
128 53 6.10280122365216338e-01
129 53 6.10280122365216449e-01
130 53 6.10280122365216671e-01
131 53 6.10280122365216782e-01
132 53 6.10280122365216449e-01
133 53 6.10280122365216449e-01
1 54 5.68705306634210039e-01
2 54 5.68705306634210150e-01
3 54 5.68705306634210372e-01
4 54 5.68705306634210150e-01
5 54 5.68705306634210372e-01
6 54 5.68705306634210150e-01
7 54 5.68705306634210372e-01
8 54 5.68705306634210372e-01
9 54 5.68705306634209928e-01
10 54 5.68705306634210261e-01
11 54 5.68705306634210261e-01
12 54 5.68705306634210261e-01
13 54 5.68705306634210150e-01
14 54 5.68705306634210261e-01
15 54 5.68705306634210150e-01
16 54 5.68705306634210261e-01
17 54 5.68705306634210261e-01
18 54 5.68705306634210261e-01
19 54 5.68705306634210150e-01
20 54 5.68705306634210261e-01
21 54 5.68705306634210261e-01
22 54 5.68705306634210150e-01
23 54 5.68705306634210039e-01
24 54 5.68705306634210150e-01
25 54 5.68705306634210150e-01
26 54 5.68705306634210150e-01
27 54 5.68705306634210372e-01
28 54 5.68705306634210261e-01
29 54 5.68705306634210039e-01
30 54 5.68705306634210150e-01
31 54 5.68705306634210261e-01
32 54 5.68705306634210483e-01
33 54 5.68705306634210150e-01
34 54 5.68705306634210039e-01
35 54 5.68705306634210150e-01
36 54 5.68705306634210372e-01
37 54 5.68705306634210150e-01
38 54 5.68705306634210372e-01
39 54 5.68705306634210150e-01
40 54 5.68705306634210372e-01
41 54 5.68705306634210372e-01
42 54 5.68705306634209928e-01
43 54 5.68705306634210261e-01
44 54 5.68705306634210261e-01
45 54 5.68705306634210261e-01
46 54 5.68705306634210150e-01
47 54 5.68705306634210261e-01
48 54 5.68705306634210150e-01
49 54 5.68705306634210261e-01
50 54 5.68705306634210261e-01
51 54 5.68705306634210261e-01
52 54 5.68705306634210150e-01
53 54 5.68705306634210261e-01
54 54 5.68705306634210261e-01
55 54 5.68705306634210150e-01
56 54 5.68705306634210039e-01
57 54 5.68705306634210150e-01
58 54 5.68705306634210150e-01
59 54 5.68705306634210150e-01
60 54 5.68705306634210372e-01
61 54 5.68705306634210261e-01
62 54 5.68705306634210039e-01
63 54 5.68705306634210150e-01
64 54 5.68705306634210261e-01
65 54 5.68705306634210483e-01
66 54 5.68705306634210150e-01
67 54 5.68705306634210039e-01
68 54 5.68705306634210150e-01
69 54 5.68705306634210372e-01
70 54 5.68705306634210150e-01
71 54 5.68705306634210372e-01
72 54 5.68705306634210150e-01
73 54 5.68705306634210372e-01
74 54 5.68705306634210372e-01
75 54 5.68705306634209928e-01
76 54 5.68705306634210261e-01
77 54 5.68705306634210261e-01
78 54 5.68705306634210261e-01
79 54 5.68705306634210150e-01
80 54 5.68705306634210261e-01
81 54 5.68705306634210150e-01
82 54 5.68705306634210261e-01
83 54 5.68705306634210261e-01
84 54 5.68705306634210261e-01
85 54 5.68705306634210150e-01
86 54 5.68705306634210261e-01
87 54 5.68705306634210261e-01
88 54 5.68705306634210150e-01
89 54 5.68705306634210039e-01
90 54 5.68705306634210150e-01
91 54 5.68705306634210150e-01
92 54 5.68705306634210150e-01
93 54 5.68705306634210372e-01
94 54 5.68705306634210261e-01
95 54 5.68705306634210039e-01
96 54 5.68705306634210150e-01
97 54 5.68705306634210261e-01
98 54 5.68705306634210483e-01
99 54 5.68705306634210150e-01
100 54 5.68705306634210039e-01
101 54 5.68705306634210150e-01
102 54 5.68705306634210372e-01
103 54 5.68705306634210150e-01
104 54 5.68705306634210372e-01
105 54 5.68705306634210150e-01
106 54 5.68705306634210372e-01
107 54 5.68705306634210372e-01
108 54 5.68705306634209928e-01
109 54 5.68705306634210261e-01
110 54 5.68705306634210261e-01
111 54 5.68705306634210261e-01
112 54 5.68705306634210150e-01
113 54 5.68705306634210261e-01
114 54 5.68705306634210150e-01
115 54 5.68705306634210261e-01
116 54 5.68705306634210261e-01
117 54 5.68705306634210261e-01
118 54 5.68705306634210150e-01
119 54 5.68705306634210261e-01
120 54 5.68705306634210261e-01
121 54 5.68705306634210150e-01
122 54 5.68705306634210039e-01
123 54 5.68705306634210150e-01
124 54 5.68705306634210150e-01
125 54 5.68705306634210150e-01
126 54 5.68705306634210372e-01
127 54 5.68705306634210261e-01
128 54 5.68705306634210039e-01
129 54 5.68705306634210150e-01
130 54 5.68705306634210261e-01
131 54 5.68705306634210483e-01
132 54 5.68705306634210150e-01
133 54 5.68705306634210039e-01
1 55 5.25827927404512674e-01
2 55 5.25827927404512785e-01
3 55 5.25827927404513007e-01
4 55 5.25827927404512785e-01
5 55 5.25827927404513007e-01
6 55 5.25827927404512785e-01
7 55 5.25827927404513007e-01
8 55 5.25827927404513007e-01
9 55 5.25827927404512674e-01
10 55 5.25827927404512896e-01
11 55 5.25827927404512896e-01
12 55 5.25827927404512896e-01
13 55 5.25827927404512785e-01
14 55 5.25827927404512896e-01
15 55 5.25827927404512785e-01
16 55 5.25827927404513007e-01
17 55 5.25827927404512896e-01
18 55 5.25827927404512896e-01
19 55 5.25827927404512785e-01
20 55 5.25827927404512785e-01
21 55 5.25827927404512896e-01
22 55 5.25827927404512785e-01
23 55 5.25827927404512674e-01
24 55 5.25827927404512896e-01
25 55 5.25827927404512785e-01
26 55 5.25827927404512785e-01
27 55 5.25827927404512896e-01
28 55 5.25827927404512896e-01
29 55 5.25827927404512674e-01
30 55 5.25827927404512785e-01
31 55 5.25827927404512896e-01
32 55 5.25827927404513007e-01
33 55 5.25827927404512674e-01
34 55 5.25827927404512674e-01
35 55 5.25827927404512785e-01
36 55 5.25827927404513007e-01
37 55 5.25827927404512785e-01
38 55 5.25827927404513007e-01
39 55 5.25827927404512785e-01
40 55 5.25827927404513007e-01
41 55 5.25827927404513007e-01
42 55 5.25827927404512674e-01
43 55 5.25827927404512896e-01
44 55 5.25827927404512896e-01
45 55 5.25827927404512896e-01
46 55 5.25827927404512785e-01
47 55 5.25827927404512896e-01
48 55 5.25827927404512785e-01
49 55 5.25827927404513007e-01
50 55 5.25827927404512896e-01
51 55 5.25827927404512896e-01
52 55 5.25827927404512785e-01
53 55 5.25827927404512785e-01
54 55 5.25827927404512896e-01
55 55 5.25827927404512785e-01
56 55 5.25827927404512674e-01
57 55 5.25827927404512896e-01
58 55 5.25827927404512785e-01
59 55 5.25827927404512785e-01
60 55 5.25827927404512896e-01
61 55 5.25827927404512896e-01
62 55 5.25827927404512674e-01
63 55 5.25827927404512785e-01
64 55 5.25827927404512896e-01
65 55 5.25827927404513007e-01
66 55 5.25827927404512674e-01
67 55 5.25827927404512674e-01
68 55 5.25827927404512785e-01
69 55 5.25827927404513007e-01
70 55 5.25827927404512785e-01
71 55 5.25827927404513007e-01
72 55 5.25827927404512785e-01
73 55 5.25827927404513007e-01
74 55 5.25827927404513007e-01
75 55 5.25827927404512674e-01
76 55 5.25827927404512896e-01
77 55 5.25827927404512896e-01
78 55 5.25827927404512896e-01
79 55 5.25827927404512785e-01
80 55 5.25827927404512896e-01
81 55 5.25827927404512785e-01
82 55 5.25827927404513007e-01
83 55 5.25827927404512896e-01
84 55 5.25827927404512896e-01
85 55 5.25827927404512785e-01
86 55 5.25827927404512785e-01
87 55 5.25827927404512896e-01
88 55 5.25827927404512785e-01
89 55 5.25827927404512674e-01
90 55 5.25827927404512896e-01
91 55 5.25827927404512785e-01
92 55 5.25827927404512785e-01
93 55 5.25827927404512896e-01
94 55 5.25827927404512896e-01
95 55 5.25827927404512674e-01
96 55 5.25827927404512785e-01
97 55 5.25827927404512896e-01
98 55 5.25827927404513007e-01
99 55 5.25827927404512674e-01
100 55 5.25827927404512674e-01
101 55 5.25827927404512785e-01
102 55 5.25827927404513007e-01
103 55 5.25827927404512785e-01
104 55 5.25827927404513007e-01
105 55 5.25827927404512785e-01
106 55 5.25827927404513007e-01
107 55 5.25827927404513007e-01
108 55 5.25827927404512674e-01
109 55 5.25827927404512896e-01
110 55 5.25827927404512896e-01
111 55 5.25827927404512896e-01
112 55 5.25827927404512785e-01
113 55 5.25827927404512896e-01
114 55 5.25827927404512785e-01
115 55 5.25827927404513007e-01
116 55 5.25827927404512896e-01
117 55 5.25827927404512896e-01
118 55 5.25827927404512785e-01
119 55 5.25827927404512785e-01
120 55 5.25827927404512896e-01
121 55 5.25827927404512785e-01
122 55 5.25827927404512674e-01
123 55 5.25827927404512896e-01
124 55 5.25827927404512785e-01
125 55 5.25827927404512785e-01
126 55 5.25827927404512896e-01
127 55 5.25827927404512896e-01
128 55 5.25827927404512674e-01
129 55 5.25827927404512785e-01
130 55 5.25827927404512896e-01
131 55 5.25827927404513007e-01
132 55 5.25827927404512674e-01
133 55 5.25827927404512674e-01
1 56 4.81837545213567753e-01
2 56 4.81837545213567864e-01
3 56 4.81837545213567919e-01
4 56 4.81837545213567864e-01
5 56 4.81837545213568030e-01
6 56 4.81837545213567864e-01
7 56 4.81837545213568086e-01
8 56 4.81837545213568086e-01
9 56 4.81837545213567753e-01
10 56 4.81837545213567919e-01
11 56 4.81837545213567919e-01
12 56 4.81837545213567975e-01
13 56 4.81837545213567753e-01
14 56 4.81837545213567919e-01
15 56 4.81837545213567753e-01
16 56 4.81837545213567919e-01
17 56 4.81837545213567919e-01
18 56 4.81837545213567919e-01
19 56 4.81837545213567808e-01
20 56 4.81837545213567808e-01
21 56 4.81837545213567919e-01
22 56 4.81837545213567753e-01
23 56 4.81837545213567753e-01
24 56 4.81837545213567919e-01
25 56 4.81837545213567753e-01
26 56 4.81837545213567808e-01
27 56 4.81837545213567975e-01
28 56 4.81837545213567919e-01
29 56 4.81837545213567753e-01
30 56 4.81837545213567808e-01
31 56 4.81837545213567864e-01
32 56 4.81837545213568030e-01
33 56 4.81837545213567753e-01
34 56 4.81837545213567753e-01
35 56 4.81837545213567864e-01
36 56 4.81837545213567919e-01
37 56 4.81837545213567864e-01
38 56 4.81837545213568030e-01
39 56 4.81837545213567864e-01
40 56 4.81837545213568086e-01
41 56 4.81837545213568086e-01
42 56 4.81837545213567753e-01
43 56 4.81837545213567919e-01
44 56 4.81837545213567919e-01
45 56 4.81837545213567975e-01
46 56 4.81837545213567753e-01
47 56 4.81837545213567919e-01
48 56 4.81837545213567753e-01
49 56 4.81837545213567919e-01
50 56 4.81837545213567919e-01
51 56 4.81837545213567919e-01
52 56 4.81837545213567808e-01
53 56 4.81837545213567808e-01
54 56 4.81837545213567919e-01
55 56 4.81837545213567753e-01
56 56 4.81837545213567753e-01
57 56 4.81837545213567919e-01
58 56 4.81837545213567753e-01
59 56 4.81837545213567808e-01
60 56 4.81837545213567975e-01
61 56 4.81837545213567919e-01
62 56 4.81837545213567753e-01
63 56 4.81837545213567808e-01
64 56 4.81837545213567864e-01
65 56 4.81837545213568030e-01
66 56 4.81837545213567753e-01
67 56 4.81837545213567753e-01
68 56 4.81837545213567864e-01
69 56 4.81837545213567919e-01
70 56 4.81837545213567864e-01
71 56 4.81837545213568030e-01
72 56 4.81837545213567864e-01
73 56 4.81837545213568086e-01
74 56 4.81837545213568086e-01
75 56 4.81837545213567753e-01
76 56 4.81837545213567919e-01
77 56 4.81837545213567919e-01
78 56 4.81837545213567975e-01
79 56 4.81837545213567753e-01
80 56 4.81837545213567919e-01
81 56 4.81837545213567753e-01
82 56 4.81837545213567919e-01
83 56 4.81837545213567919e-01
84 56 4.81837545213567919e-01
85 56 4.81837545213567808e-01
86 56 4.81837545213567808e-01
87 56 4.81837545213567919e-01
88 56 4.81837545213567753e-01
89 56 4.81837545213567753e-01
90 56 4.81837545213567919e-01
91 56 4.81837545213567753e-01
92 56 4.81837545213567808e-01
93 56 4.81837545213567975e-01
94 56 4.81837545213567919e-01
95 56 4.81837545213567753e-01
96 56 4.81837545213567808e-01
97 56 4.81837545213567864e-01
98 56 4.81837545213568030e-01
99 56 4.81837545213567753e-01
100 56 4.81837545213567753e-01
101 56 4.81837545213567864e-01
102 56 4.81837545213567919e-01
103 56 4.81837545213567864e-01
104 56 4.81837545213568030e-01
105 56 4.81837545213567864e-01
106 56 4.81837545213568086e-01
107 56 4.81837545213568086e-01
108 56 4.81837545213567753e-01
109 56 4.81837545213567919e-01
110 56 4.81837545213567919e-01
111 56 4.81837545213567975e-01
112 56 4.81837545213567753e-01
113 56 4.81837545213567919e-01
114 56 4.81837545213567753e-01
115 56 4.81837545213567919e-01
116 56 4.81837545213567919e-01
117 56 4.81837545213567919e-01
118 56 4.81837545213567808e-01
119 56 4.81837545213567808e-01
120 56 4.81837545213567919e-01
121 56 4.81837545213567753e-01
122 56 4.81837545213567753e-01
123 56 4.81837545213567919e-01
124 56 4.81837545213567753e-01
125 56 4.81837545213567808e-01
126 56 4.81837545213567975e-01
127 56 4.81837545213567919e-01
128 56 4.81837545213567753e-01
129 56 4.81837545213567808e-01
130 56 4.81837545213567864e-01
131 56 4.81837545213568030e-01
132 56 4.81837545213567753e-01
133 56 4.81837545213567753e-01
1 57 4.36927978439019982e-01
2 57 4.36927978439020093e-01
3 57 4.36927978439020148e-01
4 57 4.36927978439020093e-01
5 57 4.36927978439020204e-01
6 57 4.36927978439020037e-01
7 57 4.36927978439020315e-01
8 57 4.36927978439020315e-01
9 57 4.36927978439019926e-01
10 57 4.36927978439020093e-01
11 57 4.36927978439020093e-01
12 57 4.36927978439020148e-01
13 57 4.36927978439020037e-01
14 57 4.36927978439020148e-01
15 57 4.36927978439019982e-01
16 57 4.36927978439020037e-01
17 57 4.36927978439020093e-01
18 57 4.36927978439020093e-01
19 57 4.36927978439020037e-01
20 57 4.36927978439019982e-01
21 57 4.36927978439020148e-01
22 57 4.36927978439020037e-01
23 57 4.36927978439019926e-01
24 57 4.36927978439020093e-01
25 57 4.36927978439019982e-01
26 57 4.36927978439020037e-01
27 57 4.36927978439020148e-01
28 57 4.36927978439020148e-01
29 57 4.36927978439019982e-01
30 57 4.36927978439020093e-01
31 57 4.36927978439020093e-01
32 57 4.36927978439020259e-01
33 57 4.36927978439019982e-01
34 57 4.36927978439019982e-01
35 57 4.36927978439020093e-01
36 57 4.36927978439020148e-01
37 57 4.36927978439020093e-01
38 57 4.36927978439020204e-01
39 57 4.36927978439020037e-01
40 57 4.36927978439020315e-01
41 57 4.36927978439020315e-01
42 57 4.36927978439019926e-01
43 57 4.36927978439020093e-01
44 57 4.36927978439020093e-01
45 57 4.36927978439020148e-01
46 57 4.36927978439020037e-01
47 57 4.36927978439020148e-01
48 57 4.36927978439019982e-01
49 57 4.36927978439020037e-01
50 57 4.36927978439020093e-01
51 57 4.36927978439020093e-01
52 57 4.36927978439020037e-01
53 57 4.36927978439019982e-01
54 57 4.36927978439020148e-01
55 57 4.36927978439020037e-01
56 57 4.36927978439019926e-01
57 57 4.36927978439020093e-01
58 57 4.36927978439019982e-01
59 57 4.36927978439020037e-01
60 57 4.36927978439020148e-01
61 57 4.36927978439020148e-01
62 57 4.36927978439019982e-01
63 57 4.36927978439020093e-01
64 57 4.36927978439020093e-01
65 57 4.36927978439020259e-01
66 57 4.36927978439019982e-01
67 57 4.36927978439019982e-01
68 57 4.36927978439020093e-01
69 57 4.36927978439020148e-01
70 57 4.36927978439020093e-01
71 57 4.36927978439020204e-01
72 57 4.36927978439020037e-01
73 57 4.36927978439020315e-01
74 57 4.36927978439020315e-01
75 57 4.36927978439019926e-01
76 57 4.36927978439020093e-01
77 57 4.36927978439020093e-01
78 57 4.36927978439020148e-01
79 57 4.36927978439020037e-01
80 57 4.36927978439020148e-01
81 57 4.36927978439019982e-01
82 57 4.36927978439020037e-01
83 57 4.36927978439020093e-01
84 57 4.36927978439020093e-01
85 57 4.36927978439020037e-01
86 57 4.36927978439019982e-01
87 57 4.36927978439020148e-01
88 57 4.36927978439020037e-01
89 57 4.36927978439019926e-01
90 57 4.36927978439020093e-01
91 57 4.36927978439019982e-01
92 57 4.36927978439020037e-01
93 57 4.36927978439020148e-01
94 57 4.36927978439020148e-01
95 57 4.36927978439019982e-01
96 57 4.36927978439020093e-01
97 57 4.36927978439020093e-01
98 57 4.36927978439020259e-01
99 57 4.36927978439019982e-01
100 57 4.36927978439019982e-01
101 57 4.36927978439020093e-01
102 57 4.36927978439020148e-01
103 57 4.36927978439020093e-01
104 57 4.36927978439020204e-01
105 57 4.36927978439020037e-01
106 57 4.36927978439020315e-01
107 57 4.36927978439020315e-01
108 57 4.36927978439019926e-01
109 57 4.36927978439020093e-01
110 57 4.36927978439020093e-01
111 57 4.36927978439020148e-01
112 57 4.36927978439020037e-01
113 57 4.36927978439020148e-01
114 57 4.36927978439019982e-01
115 57 4.36927978439020037e-01
116 57 4.36927978439020093e-01
117 57 4.36927978439020093e-01
118 57 4.36927978439020037e-01
119 57 4.36927978439019982e-01
120 57 4.36927978439020148e-01
121 57 4.36927978439020037e-01
122 57 4.36927978439019926e-01
123 57 4.36927978439020093e-01
124 57 4.36927978439019982e-01
125 57 4.36927978439020037e-01
126 57 4.36927978439020148e-01
127 57 4.36927978439020148e-01
128 57 4.36927978439019982e-01
129 57 4.36927978439020093e-01
130 57 4.36927978439020093e-01
131 57 4.36927978439020259e-01
132 57 4.36927978439019982e-01
133 57 4.36927978439019982e-01
1 58 3.91294661790150766e-01
2 58 3.91294661790150822e-01
3 58 3.91294661790150877e-01
4 58 3.91294661790150822e-01
5 58 3.91294661790150933e-01
6 58 3.91294661790150766e-01
7 58 3.91294661790150988e-01
8 58 3.91294661790150988e-01
9 58 3.91294661790150655e-01
10 58 3.91294661790150877e-01
11 58 3.91294661790150822e-01
12 58 3.91294661790150877e-01
13 58 3.91294661790150766e-01
14 58 3.91294661790150877e-01
15 58 3.91294661790150766e-01
16 58 3.91294661790150766e-01
17 58 3.91294661790150877e-01
18 58 3.91294661790150877e-01
19 58 3.91294661790150766e-01
20 58 3.91294661790150766e-01
21 58 3.91294661790150877e-01
22 58 3.91294661790150766e-01
23 58 3.91294661790150711e-01
24 58 3.91294661790150822e-01
25 58 3.91294661790150655e-01
26 58 3.91294661790150711e-01
27 58 3.91294661790150933e-01
28 58 3.91294661790150877e-01
29 58 3.91294661790150711e-01
30 58 3.91294661790150822e-01
31 58 3.91294661790150877e-01
32 58 3.91294661790150988e-01
33 58 3.91294661790150766e-01
34 58 3.91294661790150766e-01
35 58 3.91294661790150822e-01
36 58 3.91294661790150877e-01
37 58 3.91294661790150822e-01
38 58 3.91294661790150933e-01
39 58 3.91294661790150766e-01
40 58 3.91294661790150988e-01
41 58 3.91294661790150988e-01
42 58 3.91294661790150655e-01
43 58 3.91294661790150877e-01
44 58 3.91294661790150822e-01
45 58 3.91294661790150877e-01
46 58 3.91294661790150766e-01
47 58 3.91294661790150877e-01
48 58 3.91294661790150766e-01
49 58 3.91294661790150766e-01
50 58 3.91294661790150877e-01
51 58 3.91294661790150877e-01
52 58 3.91294661790150766e-01
53 58 3.91294661790150766e-01
54 58 3.91294661790150877e-01
55 58 3.91294661790150766e-01
56 58 3.91294661790150711e-01
57 58 3.91294661790150822e-01
58 58 3.91294661790150655e-01
59 58 3.91294661790150711e-01
60 58 3.91294661790150933e-01
61 58 3.91294661790150877e-01
62 58 3.91294661790150711e-01
63 58 3.91294661790150822e-01
64 58 3.91294661790150877e-01
65 58 3.91294661790150988e-01
66 58 3.91294661790150766e-01
67 58 3.91294661790150766e-01
68 58 3.91294661790150822e-01
69 58 3.91294661790150877e-01
70 58 3.91294661790150822e-01
71 58 3.91294661790150933e-01
72 58 3.91294661790150766e-01
73 58 3.91294661790150988e-01
74 58 3.91294661790150988e-01
75 58 3.91294661790150655e-01
76 58 3.91294661790150877e-01
77 58 3.91294661790150822e-01
78 58 3.91294661790150877e-01
79 58 3.91294661790150766e-01
80 58 3.91294661790150877e-01
81 58 3.91294661790150766e-01
82 58 3.91294661790150766e-01
83 58 3.91294661790150877e-01
84 58 3.91294661790150877e-01
85 58 3.91294661790150766e-01
86 58 3.91294661790150766e-01
87 58 3.91294661790150877e-01
88 58 3.91294661790150766e-01
89 58 3.91294661790150711e-01
90 58 3.91294661790150822e-01
91 58 3.91294661790150655e-01
92 58 3.91294661790150711e-01
93 58 3.91294661790150933e-01
94 58 3.91294661790150877e-01
95 58 3.91294661790150711e-01
96 58 3.91294661790150822e-01
97 58 3.91294661790150877e-01
98 58 3.91294661790150988e-01
99 58 3.91294661790150766e-01
100 58 3.91294661790150766e-01
101 58 3.91294661790150822e-01
102 58 3.91294661790150877e-01
103 58 3.91294661790150822e-01
104 58 3.91294661790150933e-01
105 58 3.91294661790150766e-01
106 58 3.91294661790150988e-01
107 58 3.91294661790150988e-01
108 58 3.91294661790150655e-01
109 58 3.91294661790150877e-01
110 58 3.91294661790150822e-01
111 58 3.91294661790150877e-01
112 58 3.91294661790150766e-01
113 58 3.91294661790150877e-01
114 58 3.91294661790150766e-01
115 58 3.91294661790150766e-01
116 58 3.91294661790150877e-01
117 58 3.91294661790150877e-01
118 58 3.91294661790150766e-01
119 58 3.91294661790150766e-01
120 58 3.91294661790150877e-01
121 58 3.91294661790150766e-01
122 58 3.91294661790150711e-01
123 58 3.91294661790150822e-01
124 58 3.91294661790150655e-01
125 58 3.91294661790150711e-01
126 58 3.91294661790150933e-01
127 58 3.91294661790150877e-01
128 58 3.91294661790150711e-01
129 58 3.91294661790150822e-01
130 58 3.91294661790150877e-01
131 58 3.91294661790150988e-01
132 58 3.91294661790150766e-01
133 58 3.91294661790150766e-01
1 59 3.45132085261840582e-01
2 59 3.45132085261840582e-01
3 59 3.45132085261840693e-01
4 59 3.45132085261840638e-01
5 59 3.45132085261840749e-01
6 59 3.45132085261840582e-01
7 59 3.45132085261840804e-01
8 59 3.45132085261840804e-01
9 59 3.45132085261840527e-01
10 59 3.45132085261840638e-01
11 59 3.45132085261840582e-01
12 59 3.45132085261840693e-01
13 59 3.45132085261840582e-01
14 59 3.45132085261840693e-01
15 59 3.45132085261840582e-01
16 59 3.45132085261840582e-01
17 59 3.45132085261840749e-01
18 59 3.45132085261840749e-01
19 59 3.45132085261840582e-01
20 59 3.45132085261840582e-01
21 59 3.45132085261840693e-01
22 59 3.45132085261840582e-01
23 59 3.45132085261840527e-01
24 59 3.45132085261840582e-01
25 59 3.45132085261840471e-01
26 59 3.45132085261840582e-01
27 59 3.45132085261840693e-01
28 59 3.45132085261840693e-01
29 59 3.45132085261840582e-01
30 59 3.45132085261840638e-01
31 59 3.45132085261840749e-01
32 59 3.45132085261840749e-01
33 59 3.45132085261840638e-01
34 59 3.45132085261840582e-01
35 59 3.45132085261840582e-01
36 59 3.45132085261840693e-01
37 59 3.45132085261840638e-01
38 59 3.45132085261840749e-01
39 59 3.45132085261840582e-01
40 59 3.45132085261840804e-01
41 59 3.45132085261840804e-01
42 59 3.45132085261840527e-01
43 59 3.45132085261840638e-01
44 59 3.45132085261840582e-01
45 59 3.45132085261840693e-01
46 59 3.45132085261840582e-01
47 59 3.45132085261840693e-01
48 59 3.45132085261840582e-01
49 59 3.45132085261840582e-01
50 59 3.45132085261840749e-01
51 59 3.45132085261840749e-01
52 59 3.45132085261840582e-01
53 59 3.45132085261840582e-01
54 59 3.45132085261840693e-01
55 59 3.45132085261840582e-01
56 59 3.45132085261840527e-01
57 59 3.45132085261840582e-01
58 59 3.45132085261840471e-01
59 59 3.45132085261840582e-01
60 59 3.45132085261840693e-01
61 59 3.45132085261840693e-01
62 59 3.45132085261840582e-01
63 59 3.45132085261840638e-01
64 59 3.45132085261840749e-01
65 59 3.45132085261840749e-01
66 59 3.45132085261840638e-01
67 59 3.45132085261840582e-01
68 59 3.45132085261840582e-01
69 59 3.45132085261840693e-01
70 59 3.45132085261840638e-01
71 59 3.45132085261840749e-01
72 59 3.45132085261840582e-01
73 59 3.45132085261840804e-01
74 59 3.45132085261840804e-01
75 59 3.45132085261840527e-01
76 59 3.45132085261840638e-01
77 59 3.45132085261840582e-01
78 59 3.45132085261840693e-01
79 59 3.45132085261840582e-01
80 59 3.45132085261840693e-01
81 59 3.45132085261840582e-01
82 59 3.45132085261840582e-01
83 59 3.45132085261840749e-01
84 59 3.45132085261840749e-01
85 59 3.45132085261840582e-01
86 59 3.45132085261840582e-01
87 59 3.45132085261840693e-01
88 59 3.45132085261840582e-01
89 59 3.45132085261840527e-01
90 59 3.45132085261840582e-01
91 59 3.45132085261840471e-01
92 59 3.45132085261840582e-01
93 59 3.45132085261840693e-01
94 59 3.45132085261840693e-01
95 59 3.45132085261840582e-01
96 59 3.45132085261840638e-01
97 59 3.45132085261840749e-01
98 59 3.45132085261840749e-01
99 59 3.45132085261840638e-01
100 59 3.45132085261840582e-01
101 59 3.45132085261840582e-01
102 59 3.45132085261840693e-01
103 59 3.45132085261840638e-01
104 59 3.45132085261840749e-01
105 59 3.45132085261840582e-01
106 59 3.45132085261840804e-01
107 59 3.45132085261840804e-01
108 59 3.45132085261840527e-01
109 59 3.45132085261840638e-01
110 59 3.45132085261840582e-01
111 59 3.45132085261840693e-01
112 59 3.45132085261840582e-01
113 59 3.45132085261840693e-01
114 59 3.45132085261840582e-01
115 59 3.45132085261840582e-01
116 59 3.45132085261840749e-01
117 59 3.45132085261840749e-01
118 59 3.45132085261840582e-01
119 59 3.45132085261840582e-01
120 59 3.45132085261840693e-01
121 59 3.45132085261840582e-01
122 59 3.45132085261840527e-01
123 59 3.45132085261840582e-01
124 59 3.45132085261840471e-01
125 59 3.45132085261840582e-01
126 59 3.45132085261840693e-01
127 59 3.45132085261840693e-01
128 59 3.45132085261840582e-01
129 59 3.45132085261840638e-01
130 59 3.45132085261840749e-01
131 59 3.45132085261840749e-01
132 59 3.45132085261840638e-01
133 59 3.45132085261840582e-01
1 60 2.98631377267970288e-01
2 60 2.98631377267970233e-01
3 60 2.98631377267970344e-01
4 60 2.98631377267970344e-01
5 60 2.98631377267970399e-01
6 60 2.98631377267970344e-01
7 60 2.98631377267970455e-01
8 60 2.98631377267970455e-01
9 60 2.98631377267970233e-01
10 60 2.98631377267970344e-01
11 60 2.98631377267970288e-01
12 60 2.98631377267970344e-01
13 60 2.98631377267970288e-01
14 60 2.98631377267970344e-01
15 60 2.98631377267970288e-01
16 60 2.98631377267970233e-01
17 60 2.98631377267970399e-01
18 60 2.98631377267970399e-01
19 60 2.98631377267970233e-01
20 60 2.98631377267970288e-01
21 60 2.98631377267970344e-01
22 60 2.98631377267970288e-01
23 60 2.98631377267970177e-01
24 60 2.98631377267970288e-01
25 60 2.98631377267970233e-01
26 60 2.98631377267970288e-01
27 60 2.98631377267970399e-01
28 60 2.98631377267970344e-01
29 60 2.98631377267970288e-01
30 60 2.98631377267970344e-01
31 60 2.98631377267970399e-01
32 60 2.98631377267970455e-01
33 60 2.98631377267970288e-01
34 60 2.98631377267970288e-01
35 60 2.98631377267970233e-01
36 60 2.98631377267970344e-01
37 60 2.98631377267970344e-01
38 60 2.98631377267970399e-01
39 60 2.98631377267970344e-01
40 60 2.98631377267970455e-01
41 60 2.98631377267970455e-01
42 60 2.98631377267970233e-01
43 60 2.98631377267970344e-01
44 60 2.98631377267970288e-01
45 60 2.98631377267970344e-01
46 60 2.98631377267970288e-01
47 60 2.98631377267970344e-01
48 60 2.98631377267970288e-01
49 60 2.98631377267970233e-01
50 60 2.98631377267970399e-01
51 60 2.98631377267970399e-01
52 60 2.98631377267970233e-01
53 60 2.98631377267970288e-01
54 60 2.98631377267970344e-01
55 60 2.98631377267970288e-01
56 60 2.98631377267970177e-01
57 60 2.98631377267970288e-01
58 60 2.98631377267970233e-01
59 60 2.98631377267970288e-01
60 60 2.98631377267970399e-01
61 60 2.98631377267970344e-01
62 60 2.98631377267970288e-01
63 60 2.98631377267970344e-01
64 60 2.98631377267970399e-01
65 60 2.98631377267970455e-01
66 60 2.98631377267970288e-01
67 60 2.98631377267970288e-01
68 60 2.98631377267970233e-01
69 60 2.98631377267970344e-01
70 60 2.98631377267970344e-01
71 60 2.98631377267970399e-01
72 60 2.98631377267970344e-01
73 60 2.98631377267970455e-01
74 60 2.98631377267970455e-01
75 60 2.98631377267970233e-01
76 60 2.98631377267970344e-01
77 60 2.98631377267970288e-01
78 60 2.98631377267970344e-01
79 60 2.98631377267970288e-01
80 60 2.98631377267970344e-01
81 60 2.98631377267970288e-01
82 60 2.98631377267970233e-01
83 60 2.98631377267970399e-01
84 60 2.98631377267970399e-01
85 60 2.98631377267970233e-01
86 60 2.98631377267970288e-01
87 60 2.98631377267970344e-01
88 60 2.98631377267970288e-01
89 60 2.98631377267970177e-01
90 60 2.98631377267970288e-01
91 60 2.98631377267970233e-01
92 60 2.98631377267970288e-01
93 60 2.98631377267970399e-01
94 60 2.98631377267970344e-01
95 60 2.98631377267970288e-01
96 60 2.98631377267970344e-01
97 60 2.98631377267970399e-01
98 60 2.98631377267970455e-01
99 60 2.98631377267970288e-01
100 60 2.98631377267970288e-01
101 60 2.98631377267970233e-01
102 60 2.98631377267970344e-01
103 60 2.98631377267970344e-01
104 60 2.98631377267970399e-01
105 60 2.98631377267970344e-01
106 60 2.98631377267970455e-01
107 60 2.98631377267970455e-01
108 60 2.98631377267970233e-01
109 60 2.98631377267970344e-01
110 60 2.98631377267970288e-01
111 60 2.98631377267970344e-01
112 60 2.98631377267970288e-01
113 60 2.98631377267970344e-01
114 60 2.98631377267970288e-01
115 60 2.98631377267970233e-01
116 60 2.98631377267970399e-01
117 60 2.98631377267970399e-01
118 60 2.98631377267970233e-01
119 60 2.98631377267970288e-01
120 60 2.98631377267970344e-01
121 60 2.98631377267970288e-01
122 60 2.98631377267970177e-01
123 60 2.98631377267970288e-01
124 60 2.98631377267970233e-01
125 60 2.98631377267970288e-01
126 60 2.98631377267970399e-01
127 60 2.98631377267970344e-01
128 60 2.98631377267970288e-01
129 60 2.98631377267970344e-01
130 60 2.98631377267970399e-01
131 60 2.98631377267970455e-01
132 60 2.98631377267970288e-01
133 60 2.98631377267970288e-01
1 61 2.51978086495205200e-01
2 61 2.51978086495205200e-01
3 61 2.51978086495205256e-01
4 61 2.51978086495205256e-01
5 61 2.51978086495205311e-01
6 61 2.51978086495205256e-01
7 61 2.51978086495205367e-01
8 61 2.51978086495205367e-01
9 61 2.51978086495205200e-01
10 61 2.51978086495205256e-01
11 61 2.51978086495205200e-01
12 61 2.51978086495205256e-01
13 61 2.51978086495205200e-01
14 61 2.51978086495205256e-01
15 61 2.51978086495205256e-01
16 61 2.51978086495205200e-01
17 61 2.51978086495205311e-01
18 61 2.51978086495205311e-01
19 61 2.51978086495205200e-01
20 61 2.51978086495205200e-01
21 61 2.51978086495205256e-01
22 61 2.51978086495205145e-01
23 61 2.51978086495205145e-01
24 61 2.51978086495205200e-01
25 61 2.51978086495205200e-01
26 61 2.51978086495205200e-01
27 61 2.51978086495205311e-01
28 61 2.51978086495205256e-01
29 61 2.51978086495205200e-01
30 61 2.51978086495205256e-01
31 61 2.51978086495205311e-01
32 61 2.51978086495205311e-01
33 61 2.51978086495205256e-01
34 61 2.51978086495205200e-01
35 61 2.51978086495205200e-01
36 61 2.51978086495205256e-01
37 61 2.51978086495205256e-01
38 61 2.51978086495205311e-01
39 61 2.51978086495205256e-01
40 61 2.51978086495205367e-01
41 61 2.51978086495205367e-01
42 61 2.51978086495205200e-01
43 61 2.51978086495205256e-01
44 61 2.51978086495205200e-01
45 61 2.51978086495205256e-01
46 61 2.51978086495205200e-01
47 61 2.51978086495205256e-01
48 61 2.51978086495205256e-01
49 61 2.51978086495205200e-01
50 61 2.51978086495205311e-01
51 61 2.51978086495205311e-01
52 61 2.51978086495205200e-01
53 61 2.51978086495205200e-01
54 61 2.51978086495205256e-01
55 61 2.51978086495205145e-01
56 61 2.51978086495205145e-01
57 61 2.51978086495205200e-01
58 61 2.51978086495205200e-01
59 61 2.51978086495205200e-01
60 61 2.51978086495205311e-01
61 61 2.51978086495205256e-01
62 61 2.51978086495205200e-01
63 61 2.51978086495205256e-01
64 61 2.51978086495205311e-01
65 61 2.51978086495205311e-01
66 61 2.51978086495205256e-01
67 61 2.51978086495205200e-01
68 61 2.51978086495205200e-01
69 61 2.51978086495205256e-01
70 61 2.51978086495205256e-01
71 61 2.51978086495205311e-01
72 61 2.51978086495205256e-01
73 61 2.51978086495205367e-01
74 61 2.51978086495205367e-01
75 61 2.51978086495205200e-01
76 61 2.51978086495205256e-01
77 61 2.51978086495205200e-01
78 61 2.51978086495205256e-01
79 61 2.51978086495205200e-01
80 61 2.51978086495205256e-01
81 61 2.51978086495205256e-01
82 61 2.51978086495205200e-01
83 61 2.51978086495205311e-01
84 61 2.51978086495205311e-01
85 61 2.51978086495205200e-01
86 61 2.51978086495205200e-01
87 61 2.51978086495205256e-01
88 61 2.51978086495205145e-01
89 61 2.51978086495205145e-01
90 61 2.51978086495205200e-01
91 61 2.51978086495205200e-01
92 61 2.51978086495205200e-01
93 61 2.51978086495205311e-01
94 61 2.51978086495205256e-01
95 61 2.51978086495205200e-01
96 61 2.51978086495205256e-01
97 61 2.51978086495205311e-01
98 61 2.51978086495205311e-01
99 61 2.51978086495205256e-01
100 61 2.51978086495205200e-01
101 61 2.51978086495205200e-01
102 61 2.51978086495205256e-01
103 61 2.51978086495205256e-01
104 61 2.51978086495205311e-01
105 61 2.51978086495205256e-01
106 61 2.51978086495205367e-01
107 61 2.51978086495205367e-01
108 61 2.51978086495205200e-01
109 61 2.51978086495205256e-01
110 61 2.51978086495205200e-01
111 61 2.51978086495205256e-01
112 61 2.51978086495205200e-01
113 61 2.51978086495205256e-01
114 61 2.51978086495205256e-01
115 61 2.51978086495205200e-01
116 61 2.51978086495205311e-01
117 61 2.51978086495205311e-01
118 61 2.51978086495205200e-01
119 61 2.51978086495205200e-01
120 61 2.51978086495205256e-01
121 61 2.51978086495205145e-01
122 61 2.51978086495205145e-01
123 61 2.51978086495205200e-01
124 61 2.51978086495205200e-01
125 61 2.51978086495205200e-01
126 61 2.51978086495205311e-01
127 61 2.51978086495205256e-01
128 61 2.51978086495205200e-01
129 61 2.51978086495205256e-01
130 61 2.51978086495205311e-01
131 61 2.51978086495205311e-01
132 61 2.51978086495205256e-01
133 61 2.51978086495205200e-01
1 62 2.05350206136080071e-01
2 62 2.05350206136080043e-01
3 62 2.05350206136080127e-01
4 62 2.05350206136080127e-01
5 62 2.05350206136080154e-01
6 62 2.05350206136080127e-01
7 62 2.05350206136080154e-01
8 62 2.05350206136080182e-01
9 62 2.05350206136080071e-01
10 62 2.05350206136080071e-01
11 62 2.05350206136080099e-01
12 62 2.05350206136080154e-01
13 62 2.05350206136080071e-01
14 62 2.05350206136080099e-01
15 62 2.05350206136080127e-01
16 62 2.05350206136080071e-01
17 62 2.05350206136080127e-01
18 62 2.05350206136080127e-01
19 62 2.05350206136080071e-01
20 62 2.05350206136080099e-01
21 62 2.05350206136080099e-01
22 62 2.05350206136080016e-01
23 62 2.05350206136080016e-01
24 62 2.05350206136080071e-01
25 62 2.05350206136080071e-01
26 62 2.05350206136080071e-01
27 62 2.05350206136080127e-01
28 62 2.05350206136080099e-01
29 62 2.05350206136080071e-01
30 62 2.05350206136080127e-01
31 62 2.05350206136080127e-01
32 62 2.05350206136080127e-01
33 62 2.05350206136080071e-01
34 62 2.05350206136080071e-01
35 62 2.05350206136080043e-01
36 62 2.05350206136080127e-01
37 62 2.05350206136080127e-01
38 62 2.05350206136080154e-01
39 62 2.05350206136080127e-01
40 62 2.05350206136080154e-01
41 62 2.05350206136080182e-01
42 62 2.05350206136080071e-01
43 62 2.05350206136080071e-01
44 62 2.05350206136080099e-01
45 62 2.05350206136080154e-01
46 62 2.05350206136080071e-01
47 62 2.05350206136080099e-01
48 62 2.05350206136080127e-01
49 62 2.05350206136080071e-01
50 62 2.05350206136080127e-01
51 62 2.05350206136080127e-01
52 62 2.05350206136080071e-01
53 62 2.05350206136080099e-01
54 62 2.05350206136080099e-01
55 62 2.05350206136080016e-01
56 62 2.05350206136080016e-01
57 62 2.05350206136080071e-01
58 62 2.05350206136080071e-01
59 62 2.05350206136080071e-01
60 62 2.05350206136080127e-01
61 62 2.05350206136080099e-01
62 62 2.05350206136080071e-01
63 62 2.05350206136080127e-01
64 62 2.05350206136080127e-01
65 62 2.05350206136080127e-01
66 62 2.05350206136080071e-01
67 62 2.05350206136080071e-01
68 62 2.05350206136080043e-01
69 62 2.05350206136080127e-01
70 62 2.05350206136080127e-01
71 62 2.05350206136080154e-01
72 62 2.05350206136080127e-01
73 62 2.05350206136080154e-01
74 62 2.05350206136080182e-01
75 62 2.05350206136080071e-01
76 62 2.05350206136080071e-01
77 62 2.05350206136080099e-01
78 62 2.05350206136080154e-01
79 62 2.05350206136080071e-01
80 62 2.05350206136080099e-01
81 62 2.05350206136080127e-01
82 62 2.05350206136080071e-01
83 62 2.05350206136080127e-01
84 62 2.05350206136080127e-01
85 62 2.05350206136080071e-01
86 62 2.05350206136080099e-01
87 62 2.05350206136080099e-01
88 62 2.05350206136080016e-01
89 62 2.05350206136080016e-01
90 62 2.05350206136080071e-01
91 62 2.05350206136080071e-01
92 62 2.05350206136080071e-01
93 62 2.05350206136080127e-01
94 62 2.05350206136080099e-01
95 62 2.05350206136080071e-01
96 62 2.05350206136080127e-01
97 62 2.05350206136080127e-01
98 62 2.05350206136080127e-01
99 62 2.05350206136080071e-01
100 62 2.05350206136080071e-01
101 62 2.05350206136080043e-01
102 62 2.05350206136080127e-01
103 62 2.05350206136080127e-01
104 62 2.05350206136080154e-01
105 62 2.05350206136080127e-01
106 62 2.05350206136080154e-01
107 62 2.05350206136080182e-01
108 62 2.05350206136080071e-01
109 62 2.05350206136080071e-01
110 62 2.05350206136080099e-01
111 62 2.05350206136080154e-01
112 62 2.05350206136080071e-01
113 62 2.05350206136080099e-01
114 62 2.05350206136080127e-01
115 62 2.05350206136080071e-01
116 62 2.05350206136080127e-01
117 62 2.05350206136080127e-01
118 62 2.05350206136080071e-01
119 62 2.05350206136080099e-01
120 62 2.05350206136080099e-01
121 62 2.05350206136080016e-01
122 62 2.05350206136080016e-01
123 62 2.05350206136080071e-01
124 62 2.05350206136080071e-01
125 62 2.05350206136080071e-01
126 62 2.05350206136080127e-01
127 62 2.05350206136080099e-01
128 62 2.05350206136080071e-01
129 62 2.05350206136080127e-01
130 62 2.05350206136080127e-01
131 62 2.05350206136080127e-01
132 62 2.05350206136080071e-01
133 62 2.05350206136080071e-01
1 63 1.58916472321746660e-01
2 63 1.58916472321746632e-01
3 63 1.58916472321746688e-01
4 63 1.58916472321746688e-01
5 63 1.58916472321746716e-01
6 63 1.58916472321746688e-01
7 63 1.58916472321746688e-01
8 63 1.58916472321746716e-01
9 63 1.58916472321746660e-01
10 63 1.58916472321746660e-01
11 63 1.58916472321746688e-01
12 63 1.58916472321746688e-01
13 63 1.58916472321746660e-01
14 63 1.58916472321746660e-01
15 63 1.58916472321746688e-01
16 63 1.58916472321746632e-01
17 63 1.58916472321746660e-01
18 63 1.58916472321746660e-01
19 63 1.58916472321746632e-01
20 63 1.58916472321746632e-01
21 63 1.58916472321746660e-01
22 63 1.58916472321746605e-01
23 63 1.58916472321746605e-01
24 63 1.58916472321746632e-01
25 63 1.58916472321746632e-01
26 63 1.58916472321746632e-01
27 63 1.58916472321746660e-01
28 63 1.58916472321746660e-01
29 63 1.58916472321746632e-01
30 63 1.58916472321746660e-01
31 63 1.58916472321746688e-01
32 63 1.58916472321746688e-01
33 63 1.58916472321746660e-01
34 63 1.58916472321746660e-01
35 63 1.58916472321746632e-01
36 63 1.58916472321746688e-01
37 63 1.58916472321746688e-01
38 63 1.58916472321746716e-01
39 63 1.58916472321746688e-01
40 63 1.58916472321746688e-01
41 63 1.58916472321746716e-01
42 63 1.58916472321746660e-01
43 63 1.58916472321746660e-01
44 63 1.58916472321746688e-01
45 63 1.58916472321746688e-01
46 63 1.58916472321746660e-01
47 63 1.58916472321746660e-01
48 63 1.58916472321746688e-01
49 63 1.58916472321746632e-01
50 63 1.58916472321746660e-01
51 63 1.58916472321746660e-01
52 63 1.58916472321746632e-01
53 63 1.58916472321746632e-01
54 63 1.58916472321746660e-01
55 63 1.58916472321746605e-01
56 63 1.58916472321746605e-01
57 63 1.58916472321746632e-01
58 63 1.58916472321746632e-01
59 63 1.58916472321746632e-01
60 63 1.58916472321746660e-01
61 63 1.58916472321746660e-01
62 63 1.58916472321746632e-01
63 63 1.58916472321746660e-01
64 63 1.58916472321746688e-01
65 63 1.58916472321746688e-01
66 63 1.58916472321746660e-01
67 63 1.58916472321746660e-01
68 63 1.58916472321746632e-01
69 63 1.58916472321746688e-01
70 63 1.58916472321746688e-01
71 63 1.58916472321746716e-01
72 63 1.58916472321746688e-01
73 63 1.58916472321746688e-01
74 63 1.58916472321746716e-01
75 63 1.58916472321746660e-01
76 63 1.58916472321746660e-01
77 63 1.58916472321746688e-01
78 63 1.58916472321746688e-01
79 63 1.58916472321746660e-01
80 63 1.58916472321746660e-01
81 63 1.58916472321746688e-01
82 63 1.58916472321746632e-01
83 63 1.58916472321746660e-01
84 63 1.58916472321746660e-01
85 63 1.58916472321746632e-01
86 63 1.58916472321746632e-01
87 63 1.58916472321746660e-01
88 63 1.58916472321746605e-01
89 63 1.58916472321746605e-01
90 63 1.58916472321746632e-01
91 63 1.58916472321746632e-01
92 63 1.58916472321746632e-01
93 63 1.58916472321746660e-01
94 63 1.58916472321746660e-01
95 63 1.58916472321746632e-01
96 63 1.58916472321746660e-01
97 63 1.58916472321746688e-01
98 63 1.58916472321746688e-01
99 63 1.58916472321746660e-01
100 63 1.58916472321746660e-01
101 63 1.58916472321746632e-01
102 63 1.58916472321746688e-01
103 63 1.58916472321746688e-01
104 63 1.58916472321746716e-01
105 63 1.58916472321746688e-01
106 63 1.58916472321746688e-01
107 63 1.58916472321746716e-01
108 63 1.58916472321746660e-01
109 63 1.58916472321746660e-01
110 63 1.58916472321746688e-01
111 63 1.58916472321746688e-01
112 63 1.58916472321746660e-01
113 63 1.58916472321746660e-01
114 63 1.58916472321746688e-01
115 63 1.58916472321746632e-01
116 63 1.58916472321746660e-01
117 63 1.58916472321746660e-01
118 63 1.58916472321746632e-01
119 63 1.58916472321746632e-01
120 63 1.58916472321746660e-01
121 63 1.58916472321746605e-01
122 63 1.58916472321746605e-01
123 63 1.58916472321746632e-01
124 63 1.58916472321746632e-01
125 63 1.58916472321746632e-01
126 63 1.58916472321746660e-01
127 63 1.58916472321746660e-01
128 63 1.58916472321746632e-01
129 63 1.58916472321746660e-01
130 63 1.58916472321746688e-01
131 63 1.58916472321746688e-01
132 63 1.58916472321746660e-01
133 63 1.58916472321746660e-01
1 64 1.12834956513251650e-01
2 64 1.12834956513251650e-01
3 64 1.12834956513251664e-01
4 64 1.12834956513251677e-01
5 64 1.12834956513251677e-01
6 64 1.12834956513251664e-01
7 64 1.12834956513251664e-01
8 64 1.12834956513251691e-01
9 64 1.12834956513251650e-01
10 64 1.12834956513251650e-01
11 64 1.12834956513251664e-01
12 64 1.12834956513251664e-01
13 64 1.12834956513251636e-01
14 64 1.12834956513251664e-01
15 64 1.12834956513251664e-01
16 64 1.12834956513251636e-01
17 64 1.12834956513251650e-01
18 64 1.12834956513251650e-01
19 64 1.12834956513251622e-01
20 64 1.12834956513251622e-01
21 64 1.12834956513251650e-01
22 64 1.12834956513251622e-01
23 64 1.12834956513251608e-01
24 64 1.12834956513251636e-01
25 64 1.12834956513251622e-01
26 64 1.12834956513251622e-01
27 64 1.12834956513251636e-01
28 64 1.12834956513251650e-01
29 64 1.12834956513251622e-01
30 64 1.12834956513251650e-01
31 64 1.12834956513251664e-01
32 64 1.12834956513251677e-01
33 64 1.12834956513251664e-01
34 64 1.12834956513251650e-01
35 64 1.12834956513251650e-01
36 64 1.12834956513251664e-01
37 64 1.12834956513251677e-01
38 64 1.12834956513251677e-01
39 64 1.12834956513251664e-01
40 64 1.12834956513251664e-01
41 64 1.12834956513251691e-01
42 64 1.12834956513251650e-01
43 64 1.12834956513251650e-01
44 64 1.12834956513251664e-01
45 64 1.12834956513251664e-01
46 64 1.12834956513251636e-01
47 64 1.12834956513251664e-01
48 64 1.12834956513251664e-01
49 64 1.12834956513251636e-01
50 64 1.12834956513251650e-01
51 64 1.12834956513251650e-01
52 64 1.12834956513251622e-01
53 64 1.12834956513251622e-01
54 64 1.12834956513251650e-01
55 64 1.12834956513251622e-01
56 64 1.12834956513251608e-01
57 64 1.12834956513251636e-01
58 64 1.12834956513251622e-01
59 64 1.12834956513251622e-01
60 64 1.12834956513251636e-01
61 64 1.12834956513251650e-01
62 64 1.12834956513251622e-01
63 64 1.12834956513251650e-01
64 64 1.12834956513251664e-01
65 64 1.12834956513251677e-01
66 64 1.12834956513251664e-01
67 64 1.12834956513251650e-01
68 64 1.12834956513251650e-01
69 64 1.12834956513251664e-01
70 64 1.12834956513251677e-01
71 64 1.12834956513251677e-01
72 64 1.12834956513251664e-01
73 64 1.12834956513251664e-01
74 64 1.12834956513251691e-01
75 64 1.12834956513251650e-01
76 64 1.12834956513251650e-01
77 64 1.12834956513251664e-01
78 64 1.12834956513251664e-01
79 64 1.12834956513251636e-01
80 64 1.12834956513251664e-01
81 64 1.12834956513251664e-01
82 64 1.12834956513251636e-01
83 64 1.12834956513251650e-01
84 64 1.12834956513251650e-01
85 64 1.12834956513251622e-01
86 64 1.12834956513251622e-01
87 64 1.12834956513251650e-01
88 64 1.12834956513251622e-01
89 64 1.12834956513251608e-01
90 64 1.12834956513251636e-01
91 64 1.12834956513251622e-01
92 64 1.12834956513251622e-01
93 64 1.12834956513251636e-01
94 64 1.12834956513251650e-01
95 64 1.12834956513251622e-01
96 64 1.12834956513251650e-01
97 64 1.12834956513251664e-01
98 64 1.12834956513251677e-01
99 64 1.12834956513251664e-01
100 64 1.12834956513251650e-01
101 64 1.12834956513251650e-01
102 64 1.12834956513251664e-01
103 64 1.12834956513251677e-01
104 64 1.12834956513251677e-01
105 64 1.12834956513251664e-01
106 64 1.12834956513251664e-01
107 64 1.12834956513251691e-01
108 64 1.12834956513251650e-01
109 64 1.12834956513251650e-01
110 64 1.12834956513251664e-01
111 64 1.12834956513251664e-01
112 64 1.12834956513251636e-01
113 64 1.12834956513251664e-01
114 64 1.12834956513251664e-01
115 64 1.12834956513251636e-01
116 64 1.12834956513251650e-01
117 64 1.12834956513251650e-01
118 64 1.12834956513251622e-01
119 64 1.12834956513251622e-01
120 64 1.12834956513251650e-01
121 64 1.12834956513251622e-01
122 64 1.12834956513251608e-01
123 64 1.12834956513251636e-01
124 64 1.12834956513251622e-01
125 64 1.12834956513251622e-01
126 64 1.12834956513251636e-01
127 64 1.12834956513251650e-01
128 64 1.12834956513251622e-01
129 64 1.12834956513251650e-01
130 64 1.12834956513251664e-01
131 64 1.12834956513251677e-01
132 64 1.12834956513251664e-01
133 64 1.12834956513251650e-01
1 65 6.72519599884323499e-02
2 65 6.72519599884323499e-02
3 65 6.72519599884323638e-02
4 65 6.72519599884323638e-02
5 65 6.72519599884323638e-02
6 65 6.72519599884323499e-02
7 65 6.72519599884323499e-02
8 65 6.72519599884323638e-02
9 65 6.72519599884323499e-02
10 65 6.72519599884323499e-02
11 65 6.72519599884323499e-02
12 65 6.72519599884323499e-02
13 65 6.72519599884323360e-02
14 65 6.72519599884323499e-02
15 65 6.72519599884323360e-02
16 65 6.72519599884323360e-02
17 65 6.72519599884323360e-02
18 65 6.72519599884323360e-02
19 65 6.72519599884323221e-02
20 65 6.72519599884323221e-02
21 65 6.72519599884323360e-02
22 65 6.72519599884323221e-02
23 65 6.72519599884323221e-02
24 65 6.72519599884323360e-02
25 65 6.72519599884323221e-02
26 65 6.72519599884323221e-02
27 65 6.72519599884323499e-02
28 65 6.72519599884323499e-02
29 65 6.72519599884323360e-02
30 65 6.72519599884323360e-02
31 65 6.72519599884323499e-02
32 65 6.72519599884323638e-02
33 65 6.72519599884323638e-02
34 65 6.72519599884323499e-02
35 65 6.72519599884323499e-02
36 65 6.72519599884323638e-02
37 65 6.72519599884323638e-02
38 65 6.72519599884323638e-02
39 65 6.72519599884323499e-02
40 65 6.72519599884323499e-02
41 65 6.72519599884323638e-02
42 65 6.72519599884323499e-02
43 65 6.72519599884323499e-02
44 65 6.72519599884323499e-02
45 65 6.72519599884323499e-02
46 65 6.72519599884323360e-02
47 65 6.72519599884323499e-02
48 65 6.72519599884323360e-02
49 65 6.72519599884323360e-02
50 65 6.72519599884323360e-02
51 65 6.72519599884323360e-02
52 65 6.72519599884323221e-02
53 65 6.72519599884323221e-02
54 65 6.72519599884323360e-02
55 65 6.72519599884323221e-02
56 65 6.72519599884323221e-02
57 65 6.72519599884323360e-02
58 65 6.72519599884323221e-02
59 65 6.72519599884323221e-02
60 65 6.72519599884323499e-02
61 65 6.72519599884323499e-02
62 65 6.72519599884323360e-02
63 65 6.72519599884323360e-02
64 65 6.72519599884323499e-02
65 65 6.72519599884323638e-02
66 65 6.72519599884323638e-02
67 65 6.72519599884323499e-02
68 65 6.72519599884323499e-02
69 65 6.72519599884323638e-02
70 65 6.72519599884323638e-02
71 65 6.72519599884323638e-02
72 65 6.72519599884323499e-02
73 65 6.72519599884323499e-02
74 65 6.72519599884323638e-02
75 65 6.72519599884323499e-02
76 65 6.72519599884323499e-02
77 65 6.72519599884323499e-02
78 65 6.72519599884323499e-02
79 65 6.72519599884323360e-02
80 65 6.72519599884323499e-02
81 65 6.72519599884323360e-02
82 65 6.72519599884323360e-02
83 65 6.72519599884323360e-02
84 65 6.72519599884323360e-02
85 65 6.72519599884323221e-02
86 65 6.72519599884323221e-02
87 65 6.72519599884323360e-02
88 65 6.72519599884323221e-02
89 65 6.72519599884323221e-02
90 65 6.72519599884323360e-02
91 65 6.72519599884323221e-02
92 65 6.72519599884323221e-02
93 65 6.72519599884323499e-02
94 65 6.72519599884323499e-02
95 65 6.72519599884323360e-02
96 65 6.72519599884323360e-02
97 65 6.72519599884323499e-02
98 65 6.72519599884323638e-02
99 65 6.72519599884323638e-02
100 65 6.72519599884323499e-02
101 65 6.72519599884323499e-02
102 65 6.72519599884323638e-02
103 65 6.72519599884323638e-02
104 65 6.72519599884323638e-02
105 65 6.72519599884323499e-02
106 65 6.72519599884323499e-02
107 65 6.72519599884323638e-02
108 65 6.72519599884323499e-02
109 65 6.72519599884323499e-02
110 65 6.72519599884323499e-02
111 65 6.72519599884323499e-02
112 65 6.72519599884323360e-02
113 65 6.72519599884323499e-02
114 65 6.72519599884323360e-02
115 65 6.72519599884323360e-02
116 65 6.72519599884323360e-02
117 65 6.72519599884323360e-02
118 65 6.72519599884323221e-02
119 65 6.72519599884323221e-02
120 65 6.72519599884323360e-02
121 65 6.72519599884323221e-02
122 65 6.72519599884323221e-02
123 65 6.72519599884323360e-02
124 65 6.72519599884323221e-02
125 65 6.72519599884323221e-02
126 65 6.72519599884323499e-02
127 65 6.72519599884323499e-02
128 65 6.72519599884323360e-02
129 65 6.72519599884323360e-02
130 65 6.72519599884323499e-02
131 65 6.72519599884323638e-02
132 65 6.72519599884323638e-02
133 65 6.72519599884323499e-02
1 66 2.23012079300187148e-02
2 66 2.23012079300187148e-02
3 66 2.23012079300187183e-02
4 66 2.23012079300187148e-02
5 66 2.23012079300187217e-02
6 66 2.23012079300187183e-02
7 66 2.23012079300187183e-02
8 66 2.23012079300187217e-02
9 66 2.23012079300187183e-02
10 66 2.23012079300187183e-02
11 66 2.23012079300187183e-02
12 66 2.23012079300187148e-02
13 66 2.23012079300187148e-02
14 66 2.23012079300187148e-02
15 66 2.23012079300187148e-02
16 66 2.23012079300187113e-02
17 66 2.23012079300187113e-02
18 66 2.23012079300187113e-02
19 66 2.23012079300187079e-02
20 66 2.23012079300187079e-02
21 66 2.23012079300187113e-02
22 66 2.23012079300187079e-02
23 66 2.23012079300187079e-02
24 66 2.23012079300187113e-02
25 66 2.23012079300187113e-02
26 66 2.23012079300187113e-02
27 66 2.23012079300187148e-02
28 66 2.23012079300187148e-02
29 66 2.23012079300187113e-02
30 66 2.23012079300187148e-02
31 66 2.23012079300187148e-02
32 66 2.23012079300187183e-02
33 66 2.23012079300187183e-02
34 66 2.23012079300187148e-02
35 66 2.23012079300187148e-02
36 66 2.23012079300187183e-02
37 66 2.23012079300187148e-02
38 66 2.23012079300187217e-02
39 66 2.23012079300187183e-02
40 66 2.23012079300187183e-02
41 66 2.23012079300187217e-02
42 66 2.23012079300187183e-02
43 66 2.23012079300187183e-02
44 66 2.23012079300187183e-02
45 66 2.23012079300187148e-02
46 66 2.23012079300187148e-02
47 66 2.23012079300187148e-02
48 66 2.23012079300187148e-02
49 66 2.23012079300187113e-02
50 66 2.23012079300187113e-02
51 66 2.23012079300187113e-02
52 66 2.23012079300187079e-02
53 66 2.23012079300187079e-02
54 66 2.23012079300187113e-02
55 66 2.23012079300187079e-02
56 66 2.23012079300187079e-02
57 66 2.23012079300187113e-02
58 66 2.23012079300187113e-02
59 66 2.23012079300187113e-02
60 66 2.23012079300187148e-02
61 66 2.23012079300187148e-02
62 66 2.23012079300187113e-02
63 66 2.23012079300187148e-02
64 66 2.23012079300187148e-02
65 66 2.23012079300187183e-02
66 66 2.23012079300187183e-02
67 66 2.23012079300187148e-02
68 66 2.23012079300187148e-02
69 66 2.23012079300187183e-02
70 66 2.23012079300187148e-02
71 66 2.23012079300187217e-02
72 66 2.23012079300187183e-02
73 66 2.23012079300187183e-02
74 66 2.23012079300187217e-02
75 66 2.23012079300187183e-02
76 66 2.23012079300187183e-02
77 66 2.23012079300187183e-02
78 66 2.23012079300187148e-02
79 66 2.23012079300187148e-02
80 66 2.23012079300187148e-02
81 66 2.23012079300187148e-02
82 66 2.23012079300187113e-02
83 66 2.23012079300187113e-02
84 66 2.23012079300187113e-02
85 66 2.23012079300187079e-02
86 66 2.23012079300187079e-02
87 66 2.23012079300187113e-02
88 66 2.23012079300187079e-02
89 66 2.23012079300187079e-02
90 66 2.23012079300187113e-02
91 66 2.23012079300187113e-02
92 66 2.23012079300187113e-02
93 66 2.23012079300187148e-02
94 66 2.23012079300187148e-02
95 66 2.23012079300187113e-02
96 66 2.23012079300187148e-02
97 66 2.23012079300187148e-02
98 66 2.23012079300187183e-02
99 66 2.23012079300187183e-02
100 66 2.23012079300187148e-02
101 66 2.23012079300187148e-02
102 66 2.23012079300187183e-02
103 66 2.23012079300187148e-02
104 66 2.23012079300187217e-02
105 66 2.23012079300187183e-02
106 66 2.23012079300187183e-02
107 66 2.23012079300187217e-02
108 66 2.23012079300187183e-02
109 66 2.23012079300187183e-02
110 66 2.23012079300187183e-02
111 66 2.23012079300187148e-02
112 66 2.23012079300187148e-02
113 66 2.23012079300187148e-02
114 66 2.23012079300187148e-02
115 66 2.23012079300187113e-02
116 66 2.23012079300187113e-02
117 66 2.23012079300187113e-02
118 66 2.23012079300187079e-02
119 66 2.23012079300187079e-02
120 66 2.23012079300187113e-02
121 66 2.23012079300187079e-02
122 66 2.23012079300187079e-02
123 66 2.23012079300187113e-02
124 66 2.23012079300187113e-02
125 66 2.23012079300187113e-02
126 66 2.23012079300187148e-02
127 66 2.23012079300187148e-02
128 66 2.23012079300187113e-02
129 66 2.23012079300187148e-02
130 66 2.23012079300187148e-02
131 66 2.23012079300187183e-02
132 66 2.23012079300187183e-02
133 66 2.23012079300187148e-02
1 67 0.00000000000000000e+00
2 67 0.00000000000000000e+00
3 67 0.00000000000000000e+00
4 67 0.00000000000000000e+00
5 67 0.00000000000000000e+00
6 67 0.00000000000000000e+00
7 67 0.00000000000000000e+00
8 67 0.00000000000000000e+00
9 67 0.00000000000000000e+00
10 67 0.00000000000000000e+00
11 67 0.00000000000000000e+00
12 67 0.00000000000000000e+00
13 67 0.00000000000000000e+00
14 67 0.00000000000000000e+00
15 67 0.00000000000000000e+00
16 67 0.00000000000000000e+00
17 67 0.00000000000000000e+00
18 67 0.00000000000000000e+00
19 67 0.00000000000000000e+00
20 67 0.00000000000000000e+00
21 67 0.00000000000000000e+00
22 67 0.00000000000000000e+00
23 67 0.00000000000000000e+00
24 67 0.00000000000000000e+00
25 67 0.00000000000000000e+00
26 67 0.00000000000000000e+00
27 67 0.00000000000000000e+00
28 67 0.00000000000000000e+00
29 67 0.00000000000000000e+00
30 67 0.00000000000000000e+00
31 67 0.00000000000000000e+00
32 67 0.00000000000000000e+00
33 67 0.00000000000000000e+00
34 67 0.00000000000000000e+00
35 67 0.00000000000000000e+00
36 67 0.00000000000000000e+00
37 67 0.00000000000000000e+00
38 67 0.00000000000000000e+00
39 67 0.00000000000000000e+00
40 67 0.00000000000000000e+00
41 67 0.00000000000000000e+00
42 67 0.00000000000000000e+00
43 67 0.00000000000000000e+00
44 67 0.00000000000000000e+00
45 67 0.00000000000000000e+00
46 67 0.00000000000000000e+00
47 67 0.00000000000000000e+00
48 67 0.00000000000000000e+00
49 67 0.00000000000000000e+00
50 67 0.00000000000000000e+00
51 67 0.00000000000000000e+00
52 67 0.00000000000000000e+00
53 67 0.00000000000000000e+00
54 67 0.00000000000000000e+00
55 67 0.00000000000000000e+00
56 67 0.00000000000000000e+00
57 67 0.00000000000000000e+00
58 67 0.00000000000000000e+00
59 67 0.00000000000000000e+00
60 67 0.00000000000000000e+00
61 67 0.00000000000000000e+00
62 67 0.00000000000000000e+00
63 67 0.00000000000000000e+00
64 67 0.00000000000000000e+00
65 67 0.00000000000000000e+00
66 67 0.00000000000000000e+00
67 67 0.00000000000000000e+00
68 67 0.00000000000000000e+00
69 67 0.00000000000000000e+00
70 67 0.00000000000000000e+00
71 67 0.00000000000000000e+00
72 67 0.00000000000000000e+00
73 67 0.00000000000000000e+00
74 67 0.00000000000000000e+00
75 67 0.00000000000000000e+00
76 67 0.00000000000000000e+00
77 67 0.00000000000000000e+00
78 67 0.00000000000000000e+00
79 67 0.00000000000000000e+00
80 67 0.00000000000000000e+00
81 67 0.00000000000000000e+00
82 67 0.00000000000000000e+00
83 67 0.00000000000000000e+00
84 67 0.00000000000000000e+00
85 67 0.00000000000000000e+00
86 67 0.00000000000000000e+00
87 67 0.00000000000000000e+00
88 67 0.00000000000000000e+00
89 67 0.00000000000000000e+00
90 67 0.00000000000000000e+00
91 67 0.00000000000000000e+00
92 67 0.00000000000000000e+00
93 67 0.00000000000000000e+00
94 67 0.00000000000000000e+00
95 67 0.00000000000000000e+00
96 67 0.00000000000000000e+00
97 67 0.00000000000000000e+00
98 67 0.00000000000000000e+00
99 67 0.00000000000000000e+00
100 67 0.00000000000000000e+00
101 67 0.00000000000000000e+00
102 67 0.00000000000000000e+00
103 67 0.00000000000000000e+00
104 67 0.00000000000000000e+00
105 67 0.00000000000000000e+00
106 67 0.00000000000000000e+00
107 67 0.00000000000000000e+00
108 67 0.00000000000000000e+00
109 67 0.00000000000000000e+00
110 67 0.00000000000000000e+00
111 67 0.00000000000000000e+00
112 67 0.00000000000000000e+00
113 67 0.00000000000000000e+00
114 67 0.00000000000000000e+00
115 67 0.00000000000000000e+00
116 67 0.00000000000000000e+00
117 67 0.00000000000000000e+00
118 67 0.00000000000000000e+00
119 67 0.00000000000000000e+00
120 67 0.00000000000000000e+00
121 67 0.00000000000000000e+00
122 67 0.00000000000000000e+00
123 67 0.00000000000000000e+00
124 67 0.00000000000000000e+00
125 67 0.00000000000000000e+00
126 67 0.00000000000000000e+00
127 67 0.00000000000000000e+00
128 67 0.00000000000000000e+00
129 67 0.00000000000000000e+00
130 67 0.00000000000000000e+00
131 67 0.00000000000000000e+00
132 67 0.00000000000000000e+00
133 67 0.00000000000000000e+00
1 68 -2.23012079300187252e-02
2 68 -2.23012079300187287e-02
3 68 -2.23012079300187252e-02
4 68 -2.23012079300187252e-02
5 68 -2.23012079300187287e-02
6 68 -2.23012079300187356e-02
7 68 -2.23012079300187287e-02
8 68 -2.23012079300187356e-02
9 68 -2.23012079300187391e-02
10 68 -2.23012079300187425e-02
11 68 -2.23012079300187252e-02
12 68 -2.23012079300187217e-02
13 68 -2.23012079300187217e-02
14 68 -2.23012079300187148e-02
15 68 -2.23012079300187009e-02
16 68 -2.23012079300187287e-02
17 68 -2.23012079300187217e-02
18 68 -2.23012079300187217e-02
19 68 -2.23012079300187252e-02
20 68 -2.23012079300187009e-02
21 68 -2.23012079300187148e-02
22 68 -2.23012079300187217e-02
23 68 -2.23012079300187217e-02
24 68 -2.23012079300187183e-02
25 68 -2.23012079300187252e-02
26 68 -2.23012079300187113e-02
27 68 -2.23012079300187217e-02
28 68 -2.23012079300187252e-02
29 68 -2.23012079300187252e-02
30 68 -2.23012079300187113e-02
31 68 -2.23012079300187460e-02
32 68 -2.23012079300187321e-02
33 68 -2.23012079300187287e-02
34 68 -2.23012079300187252e-02
35 68 -2.23012079300187287e-02
36 68 -2.23012079300187252e-02
37 68 -2.23012079300187252e-02
38 68 -2.23012079300187287e-02
39 68 -2.23012079300187356e-02
40 68 -2.23012079300187287e-02
41 68 -2.23012079300187356e-02
42 68 -2.23012079300187391e-02
43 68 -2.23012079300187425e-02
44 68 -2.23012079300187252e-02
45 68 -2.23012079300187217e-02
46 68 -2.23012079300187217e-02
47 68 -2.23012079300187148e-02
48 68 -2.23012079300187009e-02
49 68 -2.23012079300187287e-02
50 68 -2.23012079300187217e-02
51 68 -2.23012079300187217e-02
52 68 -2.23012079300187252e-02
53 68 -2.23012079300187009e-02
54 68 -2.23012079300187148e-02
55 68 -2.23012079300187217e-02
56 68 -2.23012079300187217e-02
57 68 -2.23012079300187183e-02
58 68 -2.23012079300187252e-02
59 68 -2.23012079300187113e-02
60 68 -2.23012079300187217e-02
61 68 -2.23012079300187252e-02
62 68 -2.23012079300187252e-02
63 68 -2.23012079300187113e-02
64 68 -2.23012079300187460e-02
65 68 -2.23012079300187321e-02
66 68 -2.23012079300187287e-02
67 68 -2.23012079300187252e-02
68 68 -2.23012079300187287e-02
69 68 -2.23012079300187252e-02
70 68 -2.23012079300187252e-02
71 68 -2.23012079300187287e-02
72 68 -2.23012079300187356e-02
73 68 -2.23012079300187287e-02
74 68 -2.23012079300187356e-02
75 68 -2.23012079300187391e-02
76 68 -2.23012079300187425e-02
77 68 -2.23012079300187252e-02
78 68 -2.23012079300187217e-02
79 68 -2.23012079300187217e-02
80 68 -2.23012079300187148e-02
81 68 -2.23012079300187009e-02
82 68 -2.23012079300187287e-02
83 68 -2.23012079300187217e-02
84 68 -2.23012079300187217e-02
85 68 -2.23012079300187252e-02
86 68 -2.23012079300187009e-02
87 68 -2.23012079300187148e-02
88 68 -2.23012079300187217e-02
89 68 -2.23012079300187217e-02
90 68 -2.23012079300187183e-02
91 68 -2.23012079300187252e-02
92 68 -2.23012079300187113e-02
93 68 -2.23012079300187217e-02
94 68 -2.23012079300187252e-02
95 68 -2.23012079300187252e-02
96 68 -2.23012079300187113e-02
97 68 -2.23012079300187460e-02
98 68 -2.23012079300187321e-02
99 68 -2.23012079300187287e-02
100 68 -2.23012079300187252e-02
101 68 -2.23012079300187287e-02
102 68 -2.23012079300187252e-02
103 68 -2.23012079300187252e-02
104 68 -2.23012079300187287e-02
105 68 -2.23012079300187356e-02
106 68 -2.23012079300187287e-02
107 68 -2.23012079300187356e-02
108 68 -2.23012079300187391e-02
109 68 -2.23012079300187425e-02
110 68 -2.23012079300187252e-02
111 68 -2.23012079300187217e-02
112 68 -2.23012079300187217e-02
113 68 -2.23012079300187148e-02
114 68 -2.23012079300187009e-02
115 68 -2.23012079300187287e-02
116 68 -2.23012079300187217e-02
117 68 -2.23012079300187217e-02
118 68 -2.23012079300187252e-02
119 68 -2.23012079300187009e-02
120 68 -2.23012079300187148e-02
121 68 -2.23012079300187217e-02
122 68 -2.23012079300187217e-02
123 68 -2.23012079300187183e-02
124 68 -2.23012079300187252e-02
125 68 -2.23012079300187113e-02
126 68 -2.23012079300187217e-02
127 68 -2.23012079300187252e-02
128 68 -2.23012079300187252e-02
129 68 -2.23012079300187113e-02
130 68 -2.23012079300187460e-02
131 68 -2.23012079300187321e-02
132 68 -2.23012079300187287e-02
133 68 -2.23012079300187252e-02
1 69 -6.72519599884323638e-02
2 69 -6.72519599884323777e-02
3 69 -6.72519599884323638e-02
4 69 -6.72519599884323499e-02
5 69 -6.72519599884323777e-02
6 69 -6.72519599884323915e-02
7 69 -6.72519599884323777e-02
8 69 -6.72519599884324054e-02
9 69 -6.72519599884323915e-02
10 69 -6.72519599884324054e-02
11 69 -6.72519599884323638e-02
12 69 -6.72519599884323499e-02
13 69 -6.72519599884323638e-02
14 69 -6.72519599884323499e-02
15 69 -6.72519599884323221e-02
16 69 -6.72519599884323915e-02
17 69 -6.72519599884323499e-02
18 69 -6.72519599884323499e-02
19 69 -6.72519599884323638e-02
20 69 -6.72519599884323221e-02
21 69 -6.72519599884323499e-02
22 69 -6.72519599884323638e-02
23 69 -6.72519599884323499e-02
24 69 -6.72519599884323499e-02
25 69 -6.72519599884323499e-02
26 69 -6.72519599884323360e-02
27 69 -6.72519599884323638e-02
28 69 -6.72519599884323777e-02
29 69 -6.72519599884323499e-02
30 69 -6.72519599884323360e-02
31 69 -6.72519599884324193e-02
32 69 -6.72519599884323777e-02
33 69 -6.72519599884323777e-02
34 69 -6.72519599884323638e-02
35 69 -6.72519599884323777e-02
36 69 -6.72519599884323638e-02
37 69 -6.72519599884323499e-02
38 69 -6.72519599884323777e-02
39 69 -6.72519599884323915e-02
40 69 -6.72519599884323777e-02
41 69 -6.72519599884324054e-02
42 69 -6.72519599884323915e-02
43 69 -6.72519599884324054e-02
44 69 -6.72519599884323638e-02
45 69 -6.72519599884323499e-02
46 69 -6.72519599884323638e-02
47 69 -6.72519599884323499e-02
48 69 -6.72519599884323221e-02
49 69 -6.72519599884323915e-02
50 69 -6.72519599884323499e-02
51 69 -6.72519599884323499e-02
52 69 -6.72519599884323638e-02
53 69 -6.72519599884323221e-02
54 69 -6.72519599884323499e-02
55 69 -6.72519599884323638e-02
56 69 -6.72519599884323499e-02
57 69 -6.72519599884323499e-02
58 69 -6.72519599884323499e-02
59 69 -6.72519599884323360e-02
60 69 -6.72519599884323638e-02
61 69 -6.72519599884323777e-02
62 69 -6.72519599884323499e-02
63 69 -6.72519599884323360e-02
64 69 -6.72519599884324193e-02
65 69 -6.72519599884323777e-02
66 69 -6.72519599884323777e-02
67 69 -6.72519599884323638e-02
68 69 -6.72519599884323777e-02
69 69 -6.72519599884323638e-02
70 69 -6.72519599884323499e-02
71 69 -6.72519599884323777e-02
72 69 -6.72519599884323915e-02
73 69 -6.72519599884323777e-02
74 69 -6.72519599884324054e-02
75 69 -6.72519599884323915e-02
76 69 -6.72519599884324054e-02
77 69 -6.72519599884323638e-02
78 69 -6.72519599884323499e-02
79 69 -6.72519599884323638e-02
80 69 -6.72519599884323499e-02
81 69 -6.72519599884323221e-02
82 69 -6.72519599884323915e-02
83 69 -6.72519599884323499e-02
84 69 -6.72519599884323499e-02
85 69 -6.72519599884323638e-02
86 69 -6.72519599884323221e-02
87 69 -6.72519599884323499e-02
88 69 -6.72519599884323638e-02
89 69 -6.72519599884323499e-02
90 69 -6.72519599884323499e-02
91 69 -6.72519599884323499e-02
92 69 -6.72519599884323360e-02
93 69 -6.72519599884323638e-02
94 69 -6.72519599884323777e-02
95 69 -6.72519599884323499e-02
96 69 -6.72519599884323360e-02
97 69 -6.72519599884324193e-02
98 69 -6.72519599884323777e-02
99 69 -6.72519599884323777e-02
100 69 -6.72519599884323638e-02
101 69 -6.72519599884323777e-02
102 69 -6.72519599884323638e-02
103 69 -6.72519599884323499e-02
104 69 -6.72519599884323777e-02
105 69 -6.72519599884323915e-02
106 69 -6.72519599884323777e-02
107 69 -6.72519599884324054e-02
108 69 -6.72519599884323915e-02
109 69 -6.72519599884324054e-02
110 69 -6.72519599884323638e-02
111 69 -6.72519599884323499e-02
112 69 -6.72519599884323638e-02
113 69 -6.72519599884323499e-02
114 69 -6.72519599884323221e-02
115 69 -6.72519599884323915e-02
116 69 -6.72519599884323499e-02
117 69 -6.72519599884323499e-02
118 69 -6.72519599884323638e-02
119 69 -6.72519599884323221e-02
120 69 -6.72519599884323499e-02
121 69 -6.72519599884323638e-02
122 69 -6.72519599884323499e-02
123 69 -6.72519599884323499e-02
124 69 -6.72519599884323499e-02
125 69 -6.72519599884323360e-02
126 69 -6.72519599884323638e-02
127 69 -6.72519599884323777e-02
128 69 -6.72519599884323499e-02
129 69 -6.72519599884323360e-02
130 69 -6.72519599884324193e-02
131 69 -6.72519599884323777e-02
132 69 -6.72519599884323777e-02
133 69 -6.72519599884323638e-02
1 70 -1.12834956513251705e-01
2 70 -1.12834956513251691e-01
3 70 -1.12834956513251664e-01
4 70 -1.12834956513251650e-01
5 70 -1.12834956513251705e-01
6 70 -1.12834956513251691e-01
7 70 -1.12834956513251691e-01
8 70 -1.12834956513251747e-01
9 70 -1.12834956513251691e-01
10 70 -1.12834956513251747e-01
11 70 -1.12834956513251691e-01
12 70 -1.12834956513251622e-01
13 70 -1.12834956513251691e-01
14 70 -1.12834956513251677e-01
15 70 -1.12834956513251622e-01
16 70 -1.12834956513251705e-01
17 70 -1.12834956513251636e-01
18 70 -1.12834956513251636e-01
19 70 -1.12834956513251677e-01
20 70 -1.12834956513251608e-01
21 70 -1.12834956513251677e-01
22 70 -1.12834956513251664e-01
23 70 -1.12834956513251622e-01
24 70 -1.12834956513251664e-01
25 70 -1.12834956513251650e-01
26 70 -1.12834956513251622e-01
27 70 -1.12834956513251677e-01
28 70 -1.12834956513251691e-01
29 70 -1.12834956513251677e-01
30 70 -1.12834956513251636e-01
31 70 -1.12834956513251775e-01
32 70 -1.12834956513251691e-01
33 70 -1.12834956513251691e-01
34 70 -1.12834956513251705e-01
35 70 -1.12834956513251691e-01
36 70 -1.12834956513251664e-01
37 70 -1.12834956513251650e-01
38 70 -1.12834956513251705e-01
39 70 -1.12834956513251691e-01
40 70 -1.12834956513251691e-01
41 70 -1.12834956513251747e-01
42 70 -1.12834956513251691e-01
43 70 -1.12834956513251747e-01
44 70 -1.12834956513251691e-01
45 70 -1.12834956513251622e-01
46 70 -1.12834956513251691e-01
47 70 -1.12834956513251677e-01
48 70 -1.12834956513251622e-01
49 70 -1.12834956513251705e-01
50 70 -1.12834956513251636e-01
51 70 -1.12834956513251636e-01
52 70 -1.12834956513251677e-01
53 70 -1.12834956513251608e-01
54 70 -1.12834956513251677e-01
55 70 -1.12834956513251664e-01
56 70 -1.12834956513251622e-01
57 70 -1.12834956513251664e-01
58 70 -1.12834956513251650e-01
59 70 -1.12834956513251622e-01
60 70 -1.12834956513251677e-01
61 70 -1.12834956513251691e-01
62 70 -1.12834956513251677e-01
63 70 -1.12834956513251636e-01
64 70 -1.12834956513251775e-01
65 70 -1.12834956513251691e-01
66 70 -1.12834956513251691e-01
67 70 -1.12834956513251705e-01
68 70 -1.12834956513251691e-01
69 70 -1.12834956513251664e-01
70 70 -1.12834956513251650e-01
71 70 -1.12834956513251705e-01
72 70 -1.12834956513251691e-01
73 70 -1.12834956513251691e-01
74 70 -1.12834956513251747e-01
75 70 -1.12834956513251691e-01
76 70 -1.12834956513251747e-01
77 70 -1.12834956513251691e-01
78 70 -1.12834956513251622e-01
79 70 -1.12834956513251691e-01
80 70 -1.12834956513251677e-01
81 70 -1.12834956513251622e-01
82 70 -1.12834956513251705e-01
83 70 -1.12834956513251636e-01
84 70 -1.12834956513251636e-01
85 70 -1.12834956513251677e-01
86 70 -1.12834956513251608e-01
87 70 -1.12834956513251677e-01
88 70 -1.12834956513251664e-01
89 70 -1.12834956513251622e-01
90 70 -1.12834956513251664e-01
91 70 -1.12834956513251650e-01
92 70 -1.12834956513251622e-01
93 70 -1.12834956513251677e-01
94 70 -1.12834956513251691e-01
95 70 -1.12834956513251677e-01
96 70 -1.12834956513251636e-01
97 70 -1.12834956513251775e-01
98 70 -1.12834956513251691e-01
99 70 -1.12834956513251691e-01
100 70 -1.12834956513251705e-01
101 70 -1.12834956513251691e-01
102 70 -1.12834956513251664e-01
103 70 -1.12834956513251650e-01
104 70 -1.12834956513251705e-01
105 70 -1.12834956513251691e-01
106 70 -1.12834956513251691e-01
107 70 -1.12834956513251747e-01
108 70 -1.12834956513251691e-01
109 70 -1.12834956513251747e-01
110 70 -1.12834956513251691e-01
111 70 -1.12834956513251622e-01
112 70 -1.12834956513251691e-01
113 70 -1.12834956513251677e-01
114 70 -1.12834956513251622e-01
115 70 -1.12834956513251705e-01
116 70 -1.12834956513251636e-01
117 70 -1.12834956513251636e-01
118 70 -1.12834956513251677e-01
119 70 -1.12834956513251608e-01
120 70 -1.12834956513251677e-01
121 70 -1.12834956513251664e-01
122 70 -1.12834956513251622e-01
123 70 -1.12834956513251664e-01
124 70 -1.12834956513251650e-01
125 70 -1.12834956513251622e-01
126 70 -1.12834956513251677e-01
127 70 -1.12834956513251691e-01
128 70 -1.12834956513251677e-01
129 70 -1.12834956513251636e-01
130 70 -1.12834956513251775e-01
131 70 -1.12834956513251691e-01
132 70 -1.12834956513251691e-01
133 70 -1.12834956513251705e-01
1 71 -1.58916472321746716e-01
2 71 -1.58916472321746716e-01
3 71 -1.58916472321746688e-01
4 71 -1.58916472321746660e-01
5 71 -1.58916472321746716e-01
6 71 -1.58916472321746688e-01
7 71 -1.58916472321746743e-01
8 71 -1.58916472321746771e-01
9 71 -1.58916472321746716e-01
10 71 -1.58916472321746771e-01
11 71 -1.58916472321746716e-01
12 71 -1.58916472321746605e-01
13 71 -1.58916472321746716e-01
14 71 -1.58916472321746716e-01
15 71 -1.58916472321746605e-01
16 71 -1.58916472321746716e-01
17 71 -1.58916472321746605e-01
18 71 -1.58916472321746605e-01
19 71 -1.58916472321746660e-01
20 71 -1.58916472321746605e-01
21 71 -1.58916472321746716e-01
22 71 -1.58916472321746660e-01
23 71 -1.58916472321746605e-01
24 71 -1.58916472321746688e-01
25 71 -1.58916472321746660e-01
26 71 -1.58916472321746632e-01
27 71 -1.58916472321746716e-01
28 71 -1.58916472321746743e-01
29 71 -1.58916472321746688e-01
30 71 -1.58916472321746632e-01
31 71 -1.58916472321746799e-01
32 71 -1.58916472321746743e-01
33 71 -1.58916472321746716e-01
34 71 -1.58916472321746716e-01
35 71 -1.58916472321746716e-01
36 71 -1.58916472321746688e-01
37 71 -1.58916472321746660e-01
38 71 -1.58916472321746716e-01
39 71 -1.58916472321746688e-01
40 71 -1.58916472321746743e-01
41 71 -1.58916472321746771e-01
42 71 -1.58916472321746716e-01
43 71 -1.58916472321746771e-01
44 71 -1.58916472321746716e-01
45 71 -1.58916472321746605e-01
46 71 -1.58916472321746716e-01
47 71 -1.58916472321746716e-01
48 71 -1.58916472321746605e-01
49 71 -1.58916472321746716e-01
50 71 -1.58916472321746605e-01
51 71 -1.58916472321746605e-01
52 71 -1.58916472321746660e-01
53 71 -1.58916472321746605e-01
54 71 -1.58916472321746716e-01
55 71 -1.58916472321746660e-01
56 71 -1.58916472321746605e-01
57 71 -1.58916472321746688e-01
58 71 -1.58916472321746660e-01
59 71 -1.58916472321746632e-01
60 71 -1.58916472321746716e-01
61 71 -1.58916472321746743e-01
62 71 -1.58916472321746688e-01
63 71 -1.58916472321746632e-01
64 71 -1.58916472321746799e-01
65 71 -1.58916472321746743e-01
66 71 -1.58916472321746716e-01
67 71 -1.58916472321746716e-01
68 71 -1.58916472321746716e-01
69 71 -1.58916472321746688e-01
70 71 -1.58916472321746660e-01
71 71 -1.58916472321746716e-01
72 71 -1.58916472321746688e-01
73 71 -1.58916472321746743e-01
74 71 -1.58916472321746771e-01
75 71 -1.58916472321746716e-01
76 71 -1.58916472321746771e-01
77 71 -1.58916472321746716e-01
78 71 -1.58916472321746605e-01
79 71 -1.58916472321746716e-01
80 71 -1.58916472321746716e-01
81 71 -1.58916472321746605e-01
82 71 -1.58916472321746716e-01
83 71 -1.58916472321746605e-01
84 71 -1.58916472321746605e-01
85 71 -1.58916472321746660e-01
86 71 -1.58916472321746605e-01
87 71 -1.58916472321746716e-01
88 71 -1.58916472321746660e-01
89 71 -1.58916472321746605e-01
90 71 -1.58916472321746688e-01
91 71 -1.58916472321746660e-01
92 71 -1.58916472321746632e-01
93 71 -1.58916472321746716e-01
94 71 -1.58916472321746743e-01
95 71 -1.58916472321746688e-01
96 71 -1.58916472321746632e-01
97 71 -1.58916472321746799e-01
98 71 -1.58916472321746743e-01
99 71 -1.58916472321746716e-01
100 71 -1.58916472321746716e-01
101 71 -1.58916472321746716e-01
102 71 -1.58916472321746688e-01
103 71 -1.58916472321746660e-01
104 71 -1.58916472321746716e-01
105 71 -1.58916472321746688e-01
106 71 -1.58916472321746743e-01
107 71 -1.58916472321746771e-01
108 71 -1.58916472321746716e-01
109 71 -1.58916472321746771e-01
110 71 -1.58916472321746716e-01
111 71 -1.58916472321746605e-01
112 71 -1.58916472321746716e-01
113 71 -1.58916472321746716e-01
114 71 -1.58916472321746605e-01
115 71 -1.58916472321746716e-01
116 71 -1.58916472321746605e-01
117 71 -1.58916472321746605e-01
118 71 -1.58916472321746660e-01
119 71 -1.58916472321746605e-01
120 71 -1.58916472321746716e-01
121 71 -1.58916472321746660e-01
122 71 -1.58916472321746605e-01
123 71 -1.58916472321746688e-01
124 71 -1.58916472321746660e-01
125 71 -1.58916472321746632e-01
126 71 -1.58916472321746716e-01
127 71 -1.58916472321746743e-01
128 71 -1.58916472321746688e-01
129 71 -1.58916472321746632e-01
130 71 -1.58916472321746799e-01
131 71 -1.58916472321746743e-01
132 71 -1.58916472321746716e-01
133 71 -1.58916472321746716e-01
1 72 -2.05350206136080154e-01
2 72 -2.05350206136080154e-01
3 72 -2.05350206136080127e-01
4 72 -2.05350206136080127e-01
5 72 -2.05350206136080154e-01
6 72 -2.05350206136080099e-01
7 72 -2.05350206136080210e-01
8 72 -2.05350206136080238e-01
9 72 -2.05350206136080182e-01
10 72 -2.05350206136080238e-01
11 72 -2.05350206136080210e-01
12 72 -2.05350206136080016e-01
13 72 -2.05350206136080154e-01
14 72 -2.05350206136080154e-01
15 72 -2.05350206136080071e-01
16 72 -2.05350206136080210e-01
17 72 -2.05350206136080016e-01
18 72 -2.05350206136080016e-01
19 72 -2.05350206136080099e-01
20 72 -2.05350206136080043e-01
21 72 -2.05350206136080154e-01
22 72 -2.05350206136080099e-01
23 72 -2.05350206136080016e-01
24 72 -2.05350206136080127e-01
25 72 -2.05350206136080099e-01
26 72 -2.05350206136080071e-01
27 72 -2.05350206136080182e-01
28 72 -2.05350206136080210e-01
29 72 -2.05350206136080127e-01
30 72 -2.05350206136080099e-01
31 72 -2.05350206136080266e-01
32 72 -2.05350206136080182e-01
33 72 -2.05350206136080154e-01
34 72 -2.05350206136080154e-01
35 72 -2.05350206136080154e-01
36 72 -2.05350206136080127e-01
37 72 -2.05350206136080127e-01
38 72 -2.05350206136080154e-01
39 72 -2.05350206136080099e-01
40 72 -2.05350206136080210e-01
41 72 -2.05350206136080238e-01
42 72 -2.05350206136080182e-01
43 72 -2.05350206136080238e-01
44 72 -2.05350206136080210e-01
45 72 -2.05350206136080016e-01
46 72 -2.05350206136080154e-01
47 72 -2.05350206136080154e-01
48 72 -2.05350206136080071e-01
49 72 -2.05350206136080210e-01
50 72 -2.05350206136080016e-01
51 72 -2.05350206136080016e-01
52 72 -2.05350206136080099e-01
53 72 -2.05350206136080043e-01
54 72 -2.05350206136080154e-01
55 72 -2.05350206136080099e-01
56 72 -2.05350206136080016e-01
57 72 -2.05350206136080127e-01
58 72 -2.05350206136080099e-01
59 72 -2.05350206136080071e-01
60 72 -2.05350206136080182e-01
61 72 -2.05350206136080210e-01
62 72 -2.05350206136080127e-01
63 72 -2.05350206136080099e-01
64 72 -2.05350206136080266e-01
65 72 -2.05350206136080182e-01
66 72 -2.05350206136080154e-01
67 72 -2.05350206136080154e-01
68 72 -2.05350206136080154e-01
69 72 -2.05350206136080127e-01
70 72 -2.05350206136080127e-01
71 72 -2.05350206136080154e-01
72 72 -2.05350206136080099e-01
73 72 -2.05350206136080210e-01
74 72 -2.05350206136080238e-01
75 72 -2.05350206136080182e-01
76 72 -2.05350206136080238e-01
77 72 -2.05350206136080210e-01
78 72 -2.05350206136080016e-01
79 72 -2.05350206136080154e-01
80 72 -2.05350206136080154e-01
81 72 -2.05350206136080071e-01
82 72 -2.05350206136080210e-01
83 72 -2.05350206136080016e-01
84 72 -2.05350206136080016e-01
85 72 -2.05350206136080099e-01
86 72 -2.05350206136080043e-01
87 72 -2.05350206136080154e-01
88 72 -2.05350206136080099e-01
89 72 -2.05350206136080016e-01
90 72 -2.05350206136080127e-01
91 72 -2.05350206136080099e-01
92 72 -2.05350206136080071e-01
93 72 -2.05350206136080182e-01
94 72 -2.05350206136080210e-01
95 72 -2.05350206136080127e-01
96 72 -2.05350206136080099e-01
97 72 -2.05350206136080266e-01
98 72 -2.05350206136080182e-01
99 72 -2.05350206136080154e-01
100 72 -2.05350206136080154e-01
101 72 -2.05350206136080154e-01
102 72 -2.05350206136080127e-01
103 72 -2.05350206136080127e-01
104 72 -2.05350206136080154e-01
105 72 -2.05350206136080099e-01
106 72 -2.05350206136080210e-01
107 72 -2.05350206136080238e-01
108 72 -2.05350206136080182e-01
109 72 -2.05350206136080238e-01
110 72 -2.05350206136080210e-01
111 72 -2.05350206136080016e-01
112 72 -2.05350206136080154e-01
113 72 -2.05350206136080154e-01
114 72 -2.05350206136080071e-01
115 72 -2.05350206136080210e-01
116 72 -2.05350206136080016e-01
117 72 -2.05350206136080016e-01
118 72 -2.05350206136080099e-01
119 72 -2.05350206136080043e-01
120 72 -2.05350206136080154e-01
121 72 -2.05350206136080099e-01
122 72 -2.05350206136080016e-01
123 72 -2.05350206136080127e-01
124 72 -2.05350206136080099e-01
125 72 -2.05350206136080071e-01
126 72 -2.05350206136080182e-01
127 72 -2.05350206136080210e-01
128 72 -2.05350206136080127e-01
129 72 -2.05350206136080099e-01
130 72 -2.05350206136080266e-01
131 72 -2.05350206136080182e-01
132 72 -2.05350206136080154e-01
133 72 -2.05350206136080154e-01
1 73 -2.51978086495205311e-01
2 73 -2.51978086495205311e-01
3 73 -2.51978086495205311e-01
4 73 -2.51978086495205256e-01
5 73 -2.51978086495205311e-01
6 73 -2.51978086495205256e-01
7 73 -2.51978086495205367e-01
8 73 -2.51978086495205422e-01
9 73 -2.51978086495205367e-01
10 73 -2.51978086495205422e-01
11 73 -2.51978086495205367e-01
12 73 -2.51978086495205145e-01
13 73 -2.51978086495205311e-01
14 73 -2.51978086495205311e-01
15 73 -2.51978086495205200e-01
16 73 -2.51978086495205422e-01
17 73 -2.51978086495205089e-01
18 73 -2.51978086495205089e-01
19 73 -2.51978086495205311e-01
20 73 -2.51978086495205200e-01
21 73 -2.51978086495205311e-01
22 73 -2.51978086495205311e-01
23 73 -2.51978086495205145e-01
24 73 -2.51978086495205311e-01
25 73 -2.51978086495205256e-01
26 73 -2.51978086495205200e-01
27 73 -2.51978086495205367e-01
28 73 -2.51978086495205367e-01
29 73 -2.51978086495205256e-01
30 73 -2.51978086495205256e-01
31 73 -2.51978086495205478e-01
32 73 -2.51978086495205367e-01
33 73 -2.51978086495205311e-01
34 73 -2.51978086495205311e-01
35 73 -2.51978086495205311e-01
36 73 -2.51978086495205311e-01
37 73 -2.51978086495205256e-01
38 73 -2.51978086495205311e-01
39 73 -2.51978086495205256e-01
40 73 -2.51978086495205367e-01
41 73 -2.51978086495205422e-01
42 73 -2.51978086495205367e-01
43 73 -2.51978086495205422e-01
44 73 -2.51978086495205367e-01
45 73 -2.51978086495205145e-01
46 73 -2.51978086495205311e-01
47 73 -2.51978086495205311e-01
48 73 -2.51978086495205200e-01
49 73 -2.51978086495205422e-01
50 73 -2.51978086495205089e-01
51 73 -2.51978086495205089e-01
52 73 -2.51978086495205311e-01
53 73 -2.51978086495205200e-01
54 73 -2.51978086495205311e-01
55 73 -2.51978086495205311e-01
56 73 -2.51978086495205145e-01
57 73 -2.51978086495205311e-01
58 73 -2.51978086495205256e-01
59 73 -2.51978086495205200e-01
60 73 -2.51978086495205367e-01
61 73 -2.51978086495205367e-01
62 73 -2.51978086495205256e-01
63 73 -2.51978086495205256e-01
64 73 -2.51978086495205478e-01
65 73 -2.51978086495205367e-01
66 73 -2.51978086495205311e-01
67 73 -2.51978086495205311e-01
68 73 -2.51978086495205311e-01
69 73 -2.51978086495205311e-01
70 73 -2.51978086495205256e-01
71 73 -2.51978086495205311e-01
72 73 -2.51978086495205256e-01
73 73 -2.51978086495205367e-01
74 73 -2.51978086495205422e-01
75 73 -2.51978086495205367e-01
76 73 -2.51978086495205422e-01
77 73 -2.51978086495205367e-01
78 73 -2.51978086495205145e-01
79 73 -2.51978086495205311e-01
80 73 -2.51978086495205311e-01
81 73 -2.51978086495205200e-01
82 73 -2.51978086495205422e-01
83 73 -2.51978086495205089e-01
84 73 -2.51978086495205089e-01
85 73 -2.51978086495205311e-01
86 73 -2.51978086495205200e-01
87 73 -2.51978086495205311e-01
88 73 -2.51978086495205311e-01
89 73 -2.51978086495205145e-01
90 73 -2.51978086495205311e-01
91 73 -2.51978086495205256e-01
92 73 -2.51978086495205200e-01
93 73 -2.51978086495205367e-01
94 73 -2.51978086495205367e-01
95 73 -2.51978086495205256e-01
96 73 -2.51978086495205256e-01
97 73 -2.51978086495205478e-01
98 73 -2.51978086495205367e-01
99 73 -2.51978086495205311e-01
100 73 -2.51978086495205311e-01
101 73 -2.51978086495205311e-01
102 73 -2.51978086495205311e-01
103 73 -2.51978086495205256e-01
104 73 -2.51978086495205311e-01
105 73 -2.51978086495205256e-01
106 73 -2.51978086495205367e-01
107 73 -2.51978086495205422e-01
108 73 -2.51978086495205367e-01
109 73 -2.51978086495205422e-01
110 73 -2.51978086495205367e-01
111 73 -2.51978086495205145e-01
112 73 -2.51978086495205311e-01
113 73 -2.51978086495205311e-01
114 73 -2.51978086495205200e-01
115 73 -2.51978086495205422e-01
116 73 -2.51978086495205089e-01
117 73 -2.51978086495205089e-01
118 73 -2.51978086495205311e-01
119 73 -2.51978086495205200e-01
120 73 -2.51978086495205311e-01
121 73 -2.51978086495205311e-01
122 73 -2.51978086495205145e-01
123 73 -2.51978086495205311e-01
124 73 -2.51978086495205256e-01
125 73 -2.51978086495205200e-01
126 73 -2.51978086495205367e-01
127 73 -2.51978086495205367e-01
128 73 -2.51978086495205256e-01
129 73 -2.51978086495205256e-01
130 73 -2.51978086495205478e-01
131 73 -2.51978086495205367e-01
132 73 -2.51978086495205311e-01
133 73 -2.51978086495205311e-01
1 74 -2.98631377267970344e-01
2 74 -2.98631377267970399e-01
3 74 -2.98631377267970399e-01
4 74 -2.98631377267970399e-01
5 74 -2.98631377267970399e-01
6 74 -2.98631377267970399e-01
7 74 -2.98631377267970455e-01
8 74 -2.98631377267970566e-01
9 74 -2.98631377267970455e-01
10 74 -2.98631377267970566e-01
11 74 -2.98631377267970455e-01
12 74 -2.98631377267970233e-01
13 74 -2.98631377267970344e-01
14 74 -2.98631377267970399e-01
15 74 -2.98631377267970288e-01
16 74 -2.98631377267970510e-01
17 74 -2.98631377267970122e-01
18 74 -2.98631377267970122e-01
19 74 -2.98631377267970455e-01
20 74 -2.98631377267970288e-01
21 74 -2.98631377267970399e-01
22 74 -2.98631377267970399e-01
23 74 -2.98631377267970233e-01
24 74 -2.98631377267970399e-01
25 74 -2.98631377267970399e-01
26 74 -2.98631377267970288e-01
27 74 -2.98631377267970510e-01
28 74 -2.98631377267970455e-01
29 74 -2.98631377267970288e-01
30 74 -2.98631377267970344e-01
31 74 -2.98631377267970621e-01
32 74 -2.98631377267970399e-01
33 74 -2.98631377267970399e-01
34 74 -2.98631377267970344e-01
35 74 -2.98631377267970399e-01
36 74 -2.98631377267970399e-01
37 74 -2.98631377267970399e-01
38 74 -2.98631377267970399e-01
39 74 -2.98631377267970399e-01
40 74 -2.98631377267970455e-01
41 74 -2.98631377267970566e-01
42 74 -2.98631377267970455e-01
43 74 -2.98631377267970566e-01
44 74 -2.98631377267970455e-01
45 74 -2.98631377267970233e-01
46 74 -2.98631377267970344e-01
47 74 -2.98631377267970399e-01
48 74 -2.98631377267970288e-01
49 74 -2.98631377267970510e-01
50 74 -2.98631377267970122e-01
51 74 -2.98631377267970122e-01
52 74 -2.98631377267970455e-01
53 74 -2.98631377267970288e-01
54 74 -2.98631377267970399e-01
55 74 -2.98631377267970399e-01
56 74 -2.98631377267970233e-01
57 74 -2.98631377267970399e-01
58 74 -2.98631377267970399e-01
59 74 -2.98631377267970288e-01
60 74 -2.98631377267970510e-01
61 74 -2.98631377267970455e-01
62 74 -2.98631377267970288e-01
63 74 -2.98631377267970344e-01
64 74 -2.98631377267970621e-01
65 74 -2.98631377267970399e-01
66 74 -2.98631377267970399e-01
67 74 -2.98631377267970344e-01
68 74 -2.98631377267970399e-01
69 74 -2.98631377267970399e-01
70 74 -2.98631377267970399e-01
71 74 -2.98631377267970399e-01
72 74 -2.98631377267970399e-01
73 74 -2.98631377267970455e-01
74 74 -2.98631377267970566e-01
75 74 -2.98631377267970455e-01
76 74 -2.98631377267970566e-01
77 74 -2.98631377267970455e-01
78 74 -2.98631377267970233e-01
79 74 -2.98631377267970344e-01
80 74 -2.98631377267970399e-01
81 74 -2.98631377267970288e-01
82 74 -2.98631377267970510e-01
83 74 -2.98631377267970122e-01
84 74 -2.98631377267970122e-01
85 74 -2.98631377267970455e-01
86 74 -2.98631377267970288e-01
87 74 -2.98631377267970399e-01
88 74 -2.98631377267970399e-01
89 74 -2.98631377267970233e-01
90 74 -2.98631377267970399e-01
91 74 -2.98631377267970399e-01
92 74 -2.98631377267970288e-01
93 74 -2.98631377267970510e-01
94 74 -2.98631377267970455e-01
95 74 -2.98631377267970288e-01
96 74 -2.98631377267970344e-01
97 74 -2.98631377267970621e-01
98 74 -2.98631377267970399e-01
99 74 -2.98631377267970399e-01
100 74 -2.98631377267970344e-01
101 74 -2.98631377267970399e-01
102 74 -2.98631377267970399e-01
103 74 -2.98631377267970399e-01
104 74 -2.98631377267970399e-01
105 74 -2.98631377267970399e-01
106 74 -2.98631377267970455e-01
107 74 -2.98631377267970566e-01
108 74 -2.98631377267970455e-01
109 74 -2.98631377267970566e-01
110 74 -2.98631377267970455e-01
111 74 -2.98631377267970233e-01
112 74 -2.98631377267970344e-01
113 74 -2.98631377267970399e-01
114 74 -2.98631377267970288e-01
115 74 -2.98631377267970510e-01
116 74 -2.98631377267970122e-01
117 74 -2.98631377267970122e-01
118 74 -2.98631377267970455e-01
119 74 -2.98631377267970288e-01
120 74 -2.98631377267970399e-01
121 74 -2.98631377267970399e-01
122 74 -2.98631377267970233e-01
123 74 -2.98631377267970399e-01
124 74 -2.98631377267970399e-01
125 74 -2.98631377267970288e-01
126 74 -2.98631377267970510e-01
127 74 -2.98631377267970455e-01
128 74 -2.98631377267970288e-01
129 74 -2.98631377267970344e-01
130 74 -2.98631377267970621e-01
131 74 -2.98631377267970399e-01
132 74 -2.98631377267970399e-01
133 74 -2.98631377267970344e-01
1 75 -3.45132085261840693e-01
2 75 -3.45132085261840693e-01
3 75 -3.45132085261840693e-01
4 75 -3.45132085261840749e-01
5 75 -3.45132085261840749e-01
6 75 -3.45132085261840804e-01
7 75 -3.45132085261840804e-01
8 75 -3.45132085261840915e-01
9 75 -3.45132085261840693e-01
10 75 -3.45132085261840915e-01
11 75 -3.45132085261840749e-01
12 75 -3.45132085261840527e-01
13 75 -3.45132085261840638e-01
14 75 -3.45132085261840749e-01
15 75 -3.45132085261840582e-01
16 75 -3.45132085261840860e-01
17 75 -3.45132085261840416e-01
18 75 -3.45132085261840416e-01
19 75 -3.45132085261840804e-01
20 75 -3.45132085261840582e-01
21 75 -3.45132085261840749e-01
22 75 -3.45132085261840693e-01
23 75 -3.45132085261840527e-01
24 75 -3.45132085261840693e-01
25 75 -3.45132085261840749e-01
26 75 -3.45132085261840638e-01
27 75 -3.45132085261840860e-01
28 75 -3.45132085261840804e-01
29 75 -3.45132085261840638e-01
30 75 -3.45132085261840638e-01
31 75 -3.45132085261840971e-01
32 75 -3.45132085261840749e-01
33 75 -3.45132085261840693e-01
34 75 -3.45132085261840693e-01
35 75 -3.45132085261840693e-01
36 75 -3.45132085261840693e-01
37 75 -3.45132085261840749e-01
38 75 -3.45132085261840749e-01
39 75 -3.45132085261840804e-01
40 75 -3.45132085261840804e-01
41 75 -3.45132085261840915e-01
42 75 -3.45132085261840693e-01
43 75 -3.45132085261840915e-01
44 75 -3.45132085261840749e-01
45 75 -3.45132085261840527e-01
46 75 -3.45132085261840638e-01
47 75 -3.45132085261840749e-01
48 75 -3.45132085261840582e-01
49 75 -3.45132085261840860e-01
50 75 -3.45132085261840416e-01
51 75 -3.45132085261840416e-01
52 75 -3.45132085261840804e-01
53 75 -3.45132085261840582e-01
54 75 -3.45132085261840749e-01
55 75 -3.45132085261840693e-01
56 75 -3.45132085261840527e-01
57 75 -3.45132085261840693e-01
58 75 -3.45132085261840749e-01
59 75 -3.45132085261840638e-01
60 75 -3.45132085261840860e-01
61 75 -3.45132085261840804e-01
62 75 -3.45132085261840638e-01
63 75 -3.45132085261840638e-01
64 75 -3.45132085261840971e-01
65 75 -3.45132085261840749e-01
66 75 -3.45132085261840693e-01
67 75 -3.45132085261840693e-01
68 75 -3.45132085261840693e-01
69 75 -3.45132085261840693e-01
70 75 -3.45132085261840749e-01
71 75 -3.45132085261840749e-01
72 75 -3.45132085261840804e-01
73 75 -3.45132085261840804e-01
74 75 -3.45132085261840915e-01
75 75 -3.45132085261840693e-01
76 75 -3.45132085261840915e-01
77 75 -3.45132085261840749e-01
78 75 -3.45132085261840527e-01
79 75 -3.45132085261840638e-01
80 75 -3.45132085261840749e-01
81 75 -3.45132085261840582e-01
82 75 -3.45132085261840860e-01
83 75 -3.45132085261840416e-01
84 75 -3.45132085261840416e-01
85 75 -3.45132085261840804e-01
86 75 -3.45132085261840582e-01
87 75 -3.45132085261840749e-01
88 75 -3.45132085261840693e-01
89 75 -3.45132085261840527e-01
90 75 -3.45132085261840693e-01
91 75 -3.45132085261840749e-01
92 75 -3.45132085261840638e-01
93 75 -3.45132085261840860e-01
94 75 -3.45132085261840804e-01
95 75 -3.45132085261840638e-01
96 75 -3.45132085261840638e-01
97 75 -3.45132085261840971e-01
98 75 -3.45132085261840749e-01
99 75 -3.45132085261840693e-01
100 75 -3.45132085261840693e-01
101 75 -3.45132085261840693e-01
102 75 -3.45132085261840693e-01
103 75 -3.45132085261840749e-01
104 75 -3.45132085261840749e-01
105 75 -3.45132085261840804e-01
106 75 -3.45132085261840804e-01
107 75 -3.45132085261840915e-01
108 75 -3.45132085261840693e-01
109 75 -3.45132085261840915e-01
110 75 -3.45132085261840749e-01
111 75 -3.45132085261840527e-01
112 75 -3.45132085261840638e-01
113 75 -3.45132085261840749e-01
114 75 -3.45132085261840582e-01
115 75 -3.45132085261840860e-01
116 75 -3.45132085261840416e-01
117 75 -3.45132085261840416e-01
118 75 -3.45132085261840804e-01
119 75 -3.45132085261840582e-01
120 75 -3.45132085261840749e-01
121 75 -3.45132085261840693e-01
122 75 -3.45132085261840527e-01
123 75 -3.45132085261840693e-01
124 75 -3.45132085261840749e-01
125 75 -3.45132085261840638e-01
126 75 -3.45132085261840860e-01
127 75 -3.45132085261840804e-01
128 75 -3.45132085261840638e-01
129 75 -3.45132085261840638e-01
130 75 -3.45132085261840971e-01
131 75 -3.45132085261840749e-01
132 75 -3.45132085261840693e-01
133 75 -3.45132085261840693e-01
1 76 -3.91294661790150822e-01
2 76 -3.91294661790150933e-01
3 76 -3.91294661790150877e-01
4 76 -3.91294661790150877e-01
5 76 -3.91294661790150877e-01
6 76 -3.91294661790150933e-01
7 76 -3.91294661790150988e-01
8 76 -3.91294661790151099e-01
9 76 -3.91294661790150933e-01
10 76 -3.91294661790151099e-01
11 76 -3.91294661790150933e-01
12 76 -3.91294661790150711e-01
13 76 -3.91294661790150766e-01
14 76 -3.91294661790150933e-01
15 76 -3.91294661790150766e-01
16 76 -3.91294661790151099e-01
17 76 -3.91294661790150600e-01
18 76 -3.91294661790150600e-01
19 76 -3.91294661790151044e-01
20 76 -3.91294661790150766e-01
21 76 -3.91294661790150933e-01
22 76 -3.91294661790150822e-01
23 76 -3.91294661790150711e-01
24 76 -3.91294661790150877e-01
25 76 -3.91294661790150877e-01
26 76 -3.91294661790150877e-01
27 76 -3.91294661790150988e-01
28 76 -3.91294661790150988e-01
29 76 -3.91294661790150766e-01
30 76 -3.91294661790150822e-01
31 76 -3.91294661790151155e-01
32 76 -3.91294661790150877e-01
33 76 -3.91294661790150933e-01
34 76 -3.91294661790150822e-01
35 76 -3.91294661790150933e-01
36 76 -3.91294661790150877e-01
37 76 -3.91294661790150877e-01
38 76 -3.91294661790150877e-01
39 76 -3.91294661790150933e-01
40 76 -3.91294661790150988e-01
41 76 -3.91294661790151099e-01
42 76 -3.91294661790150933e-01
43 76 -3.91294661790151099e-01
44 76 -3.91294661790150933e-01
45 76 -3.91294661790150711e-01
46 76 -3.91294661790150766e-01
47 76 -3.91294661790150933e-01
48 76 -3.91294661790150766e-01
49 76 -3.91294661790151099e-01
50 76 -3.91294661790150600e-01
51 76 -3.91294661790150600e-01
52 76 -3.91294661790151044e-01
53 76 -3.91294661790150766e-01
54 76 -3.91294661790150933e-01
55 76 -3.91294661790150822e-01
56 76 -3.91294661790150711e-01
57 76 -3.91294661790150877e-01
58 76 -3.91294661790150877e-01
59 76 -3.91294661790150877e-01
60 76 -3.91294661790150988e-01
61 76 -3.91294661790150988e-01
62 76 -3.91294661790150766e-01
63 76 -3.91294661790150822e-01
64 76 -3.91294661790151155e-01
65 76 -3.91294661790150877e-01
66 76 -3.91294661790150933e-01
67 76 -3.91294661790150822e-01
68 76 -3.91294661790150933e-01
69 76 -3.91294661790150877e-01
70 76 -3.91294661790150877e-01
71 76 -3.91294661790150877e-01
72 76 -3.91294661790150933e-01
73 76 -3.91294661790150988e-01
74 76 -3.91294661790151099e-01
75 76 -3.91294661790150933e-01
76 76 -3.91294661790151099e-01
77 76 -3.91294661790150933e-01
78 76 -3.91294661790150711e-01
79 76 -3.91294661790150766e-01
80 76 -3.91294661790150933e-01
81 76 -3.91294661790150766e-01
82 76 -3.91294661790151099e-01
83 76 -3.91294661790150600e-01
84 76 -3.91294661790150600e-01
85 76 -3.91294661790151044e-01
86 76 -3.91294661790150766e-01
87 76 -3.91294661790150933e-01
88 76 -3.91294661790150822e-01
89 76 -3.91294661790150711e-01
90 76 -3.91294661790150877e-01
91 76 -3.91294661790150877e-01
92 76 -3.91294661790150877e-01
93 76 -3.91294661790150988e-01
94 76 -3.91294661790150988e-01
95 76 -3.91294661790150766e-01
96 76 -3.91294661790150822e-01
97 76 -3.91294661790151155e-01
98 76 -3.91294661790150877e-01
99 76 -3.91294661790150933e-01
100 76 -3.91294661790150822e-01
101 76 -3.91294661790150933e-01
102 76 -3.91294661790150877e-01
103 76 -3.91294661790150877e-01
104 76 -3.91294661790150877e-01
105 76 -3.91294661790150933e-01
106 76 -3.91294661790150988e-01
107 76 -3.91294661790151099e-01
108 76 -3.91294661790150933e-01
109 76 -3.91294661790151099e-01
110 76 -3.91294661790150933e-01
111 76 -3.91294661790150711e-01
112 76 -3.91294661790150766e-01
113 76 -3.91294661790150933e-01
114 76 -3.91294661790150766e-01
115 76 -3.91294661790151099e-01
116 76 -3.91294661790150600e-01
117 76 -3.91294661790150600e-01
118 76 -3.91294661790151044e-01
119 76 -3.91294661790150766e-01
120 76 -3.91294661790150933e-01
121 76 -3.91294661790150822e-01
122 76 -3.91294661790150711e-01
123 76 -3.91294661790150877e-01
124 76 -3.91294661790150877e-01
125 76 -3.91294661790150877e-01
126 76 -3.91294661790150988e-01
127 76 -3.91294661790150988e-01
128 76 -3.91294661790150766e-01
129 76 -3.91294661790150822e-01
130 76 -3.91294661790151155e-01
131 76 -3.91294661790150877e-01
132 76 -3.91294661790150933e-01
133 76 -3.91294661790150822e-01
1 77 -4.36927978439020093e-01
2 77 -4.36927978439020204e-01
3 77 -4.36927978439020148e-01
4 77 -4.36927978439020148e-01
5 77 -4.36927978439020148e-01
6 77 -4.36927978439020204e-01
7 77 -4.36927978439020259e-01
8 77 -4.36927978439020370e-01
9 77 -4.36927978439020204e-01
10 77 -4.36927978439020370e-01
11 77 -4.36927978439020204e-01
12 77 -4.36927978439020037e-01
13 77 -4.36927978439020037e-01
14 77 -4.36927978439020204e-01
15 77 -4.36927978439019982e-01
16 77 -4.36927978439020370e-01
17 77 -4.36927978439019926e-01
18 77 -4.36927978439019926e-01
19 77 -4.36927978439020259e-01
20 77 -4.36927978439019982e-01
21 77 -4.36927978439020204e-01
22 77 -4.36927978439020093e-01
23 77 -4.36927978439020037e-01
24 77 -4.36927978439020093e-01
25 77 -4.36927978439020093e-01
26 77 -4.36927978439020093e-01
27 77 -4.36927978439020259e-01
28 77 -4.36927978439020259e-01
29 77 -4.36927978439020037e-01
30 77 -4.36927978439020093e-01
31 77 -4.36927978439020370e-01
32 77 -4.36927978439020148e-01
33 77 -4.36927978439020204e-01
34 77 -4.36927978439020093e-01
35 77 -4.36927978439020204e-01
36 77 -4.36927978439020148e-01
37 77 -4.36927978439020148e-01
38 77 -4.36927978439020148e-01
39 77 -4.36927978439020204e-01
40 77 -4.36927978439020259e-01
41 77 -4.36927978439020370e-01
42 77 -4.36927978439020204e-01
43 77 -4.36927978439020370e-01
44 77 -4.36927978439020204e-01
45 77 -4.36927978439020037e-01
46 77 -4.36927978439020037e-01
47 77 -4.36927978439020204e-01
48 77 -4.36927978439019982e-01
49 77 -4.36927978439020370e-01
50 77 -4.36927978439019926e-01
51 77 -4.36927978439019926e-01
52 77 -4.36927978439020259e-01
53 77 -4.36927978439019982e-01
54 77 -4.36927978439020204e-01
55 77 -4.36927978439020093e-01
56 77 -4.36927978439020037e-01
57 77 -4.36927978439020093e-01
58 77 -4.36927978439020093e-01
59 77 -4.36927978439020093e-01
60 77 -4.36927978439020259e-01
61 77 -4.36927978439020259e-01
62 77 -4.36927978439020037e-01
63 77 -4.36927978439020093e-01
64 77 -4.36927978439020370e-01
65 77 -4.36927978439020148e-01
66 77 -4.36927978439020204e-01
67 77 -4.36927978439020093e-01
68 77 -4.36927978439020204e-01
69 77 -4.36927978439020148e-01
70 77 -4.36927978439020148e-01
71 77 -4.36927978439020148e-01
72 77 -4.36927978439020204e-01
73 77 -4.36927978439020259e-01
74 77 -4.36927978439020370e-01
75 77 -4.36927978439020204e-01
76 77 -4.36927978439020370e-01
77 77 -4.36927978439020204e-01
78 77 -4.36927978439020037e-01
79 77 -4.36927978439020037e-01
80 77 -4.36927978439020204e-01
81 77 -4.36927978439019982e-01
82 77 -4.36927978439020370e-01
83 77 -4.36927978439019926e-01
84 77 -4.36927978439019926e-01
85 77 -4.36927978439020259e-01
86 77 -4.36927978439019982e-01
87 77 -4.36927978439020204e-01
88 77 -4.36927978439020093e-01
89 77 -4.36927978439020037e-01
90 77 -4.36927978439020093e-01
91 77 -4.36927978439020093e-01
92 77 -4.36927978439020093e-01
93 77 -4.36927978439020259e-01
94 77 -4.36927978439020259e-01
95 77 -4.36927978439020037e-01
96 77 -4.36927978439020093e-01
97 77 -4.36927978439020370e-01
98 77 -4.36927978439020148e-01
99 77 -4.36927978439020204e-01
100 77 -4.36927978439020093e-01
101 77 -4.36927978439020204e-01
102 77 -4.36927978439020148e-01
103 77 -4.36927978439020148e-01
104 77 -4.36927978439020148e-01
105 77 -4.36927978439020204e-01
106 77 -4.36927978439020259e-01
107 77 -4.36927978439020370e-01
108 77 -4.36927978439020204e-01
109 77 -4.36927978439020370e-01
110 77 -4.36927978439020204e-01
111 77 -4.36927978439020037e-01
112 77 -4.36927978439020037e-01
113 77 -4.36927978439020204e-01
114 77 -4.36927978439019982e-01
115 77 -4.36927978439020370e-01
116 77 -4.36927978439019926e-01
117 77 -4.36927978439019926e-01
118 77 -4.36927978439020259e-01
119 77 -4.36927978439019982e-01
120 77 -4.36927978439020204e-01
121 77 -4.36927978439020093e-01
122 77 -4.36927978439020037e-01
123 77 -4.36927978439020093e-01
124 77 -4.36927978439020093e-01
125 77 -4.36927978439020093e-01
126 77 -4.36927978439020259e-01
127 77 -4.36927978439020259e-01
128 77 -4.36927978439020037e-01
129 77 -4.36927978439020093e-01
130 77 -4.36927978439020370e-01
131 77 -4.36927978439020148e-01
132 77 -4.36927978439020204e-01
133 77 -4.36927978439020093e-01
1 78 -4.81837545213567864e-01
2 78 -4.81837545213568030e-01
3 78 -4.81837545213567975e-01
4 78 -4.81837545213568030e-01
5 78 -4.81837545213567919e-01
6 78 -4.81837545213568030e-01
7 78 -4.81837545213568030e-01
8 78 -4.81837545213568197e-01
9 78 -4.81837545213568030e-01
10 78 -4.81837545213568197e-01
11 78 -4.81837545213567975e-01
12 78 -4.81837545213567864e-01
13 78 -4.81837545213567864e-01
14 78 -4.81837545213567975e-01
15 78 -4.81837545213567753e-01
16 78 -4.81837545213568197e-01
17 78 -4.81837545213567808e-01
18 78 -4.81837545213567808e-01
19 78 -4.81837545213568030e-01
20 78 -4.81837545213567753e-01
21 78 -4.81837545213567975e-01
22 78 -4.81837545213567919e-01
23 78 -4.81837545213567864e-01
24 78 -4.81837545213567975e-01
25 78 -4.81837545213567864e-01
26 78 -4.81837545213567808e-01
27 78 -4.81837545213567975e-01
28 78 -4.81837545213568030e-01
29 78 -4.81837545213567808e-01
30 78 -4.81837545213567864e-01
31 78 -4.81837545213568197e-01
32 78 -4.81837545213567975e-01
33 78 -4.81837545213568030e-01
34 78 -4.81837545213567864e-01
35 78 -4.81837545213568030e-01
36 78 -4.81837545213567975e-01
37 78 -4.81837545213568030e-01
38 78 -4.81837545213567919e-01
39 78 -4.81837545213568030e-01
40 78 -4.81837545213568030e-01
41 78 -4.81837545213568197e-01
42 78 -4.81837545213568030e-01
43 78 -4.81837545213568197e-01
44 78 -4.81837545213567975e-01
45 78 -4.81837545213567864e-01
46 78 -4.81837545213567864e-01
47 78 -4.81837545213567975e-01
48 78 -4.81837545213567753e-01
49 78 -4.81837545213568197e-01
50 78 -4.81837545213567808e-01
51 78 -4.81837545213567808e-01
52 78 -4.81837545213568030e-01
53 78 -4.81837545213567753e-01
54 78 -4.81837545213567975e-01
55 78 -4.81837545213567919e-01
56 78 -4.81837545213567864e-01
57 78 -4.81837545213567975e-01
58 78 -4.81837545213567864e-01
59 78 -4.81837545213567808e-01
60 78 -4.81837545213567975e-01
61 78 -4.81837545213568030e-01
62 78 -4.81837545213567808e-01
63 78 -4.81837545213567864e-01
64 78 -4.81837545213568197e-01
65 78 -4.81837545213567975e-01
66 78 -4.81837545213568030e-01
67 78 -4.81837545213567864e-01
68 78 -4.81837545213568030e-01
69 78 -4.81837545213567975e-01
70 78 -4.81837545213568030e-01
71 78 -4.81837545213567919e-01
72 78 -4.81837545213568030e-01
73 78 -4.81837545213568030e-01
74 78 -4.81837545213568197e-01
75 78 -4.81837545213568030e-01
76 78 -4.81837545213568197e-01
77 78 -4.81837545213567975e-01
78 78 -4.81837545213567864e-01
79 78 -4.81837545213567864e-01
80 78 -4.81837545213567975e-01
81 78 -4.81837545213567753e-01
82 78 -4.81837545213568197e-01
83 78 -4.81837545213567808e-01
84 78 -4.81837545213567808e-01
85 78 -4.81837545213568030e-01
86 78 -4.81837545213567753e-01
87 78 -4.81837545213567975e-01
88 78 -4.81837545213567919e-01
89 78 -4.81837545213567864e-01
90 78 -4.81837545213567975e-01
91 78 -4.81837545213567864e-01
92 78 -4.81837545213567808e-01
93 78 -4.81837545213567975e-01
94 78 -4.81837545213568030e-01
95 78 -4.81837545213567808e-01
96 78 -4.81837545213567864e-01
97 78 -4.81837545213568197e-01
98 78 -4.81837545213567975e-01
99 78 -4.81837545213568030e-01
100 78 -4.81837545213567864e-01
101 78 -4.81837545213568030e-01
102 78 -4.81837545213567975e-01
103 78 -4.81837545213568030e-01
104 78 -4.81837545213567919e-01
105 78 -4.81837545213568030e-01
106 78 -4.81837545213568030e-01
107 78 -4.81837545213568197e-01
108 78 -4.81837545213568030e-01
109 78 -4.81837545213568197e-01
110 78 -4.81837545213567975e-01
111 78 -4.81837545213567864e-01
112 78 -4.81837545213567864e-01
113 78 -4.81837545213567975e-01
114 78 -4.81837545213567753e-01
115 78 -4.81837545213568197e-01
116 78 -4.81837545213567808e-01
117 78 -4.81837545213567808e-01
118 78 -4.81837545213568030e-01
119 78 -4.81837545213567753e-01
120 78 -4.81837545213567975e-01
121 78 -4.81837545213567919e-01
122 78 -4.81837545213567864e-01
123 78 -4.81837545213567975e-01
124 78 -4.81837545213567864e-01
125 78 -4.81837545213567808e-01
126 78 -4.81837545213567975e-01
127 78 -4.81837545213568030e-01
128 78 -4.81837545213567808e-01
129 78 -4.81837545213567864e-01
130 78 -4.81837545213568197e-01
131 78 -4.81837545213567975e-01
132 78 -4.81837545213568030e-01
133 78 -4.81837545213567864e-01
1 79 -5.25827927404512785e-01
2 79 -5.25827927404513007e-01
3 79 -5.25827927404512896e-01
4 79 -5.25827927404513007e-01
5 79 -5.25827927404512896e-01
6 79 -5.25827927404513007e-01
7 79 -5.25827927404512896e-01
8 79 -5.25827927404513229e-01
9 79 -5.25827927404512896e-01
10 79 -5.25827927404513118e-01
11 79 -5.25827927404512896e-01
12 79 -5.25827927404512785e-01
13 79 -5.25827927404512896e-01
14 79 -5.25827927404513007e-01
15 79 -5.25827927404512674e-01
16 79 -5.25827927404513118e-01
17 79 -5.25827927404512785e-01
18 79 -5.25827927404512785e-01
19 79 -5.25827927404512896e-01
20 79 -5.25827927404512674e-01
21 79 -5.25827927404513007e-01
22 79 -5.25827927404512896e-01
23 79 -5.25827927404512785e-01
24 79 -5.25827927404512896e-01
25 79 -5.25827927404512896e-01
26 79 -5.25827927404512785e-01
27 79 -5.25827927404512896e-01
28 79 -5.25827927404512896e-01
29 79 -5.25827927404512785e-01
30 79 -5.25827927404512785e-01
31 79 -5.25827927404513118e-01
32 79 -5.25827927404512896e-01
33 79 -5.25827927404513007e-01
34 79 -5.25827927404512785e-01
35 79 -5.25827927404513007e-01
36 79 -5.25827927404512896e-01
37 79 -5.25827927404513007e-01
38 79 -5.25827927404512896e-01
39 79 -5.25827927404513007e-01
40 79 -5.25827927404512896e-01
41 79 -5.25827927404513229e-01
42 79 -5.25827927404512896e-01
43 79 -5.25827927404513118e-01
44 79 -5.25827927404512896e-01
45 79 -5.25827927404512785e-01
46 79 -5.25827927404512896e-01
47 79 -5.25827927404513007e-01
48 79 -5.25827927404512674e-01
49 79 -5.25827927404513118e-01
50 79 -5.25827927404512785e-01
51 79 -5.25827927404512785e-01
52 79 -5.25827927404512896e-01
53 79 -5.25827927404512674e-01
54 79 -5.25827927404513007e-01
55 79 -5.25827927404512896e-01
56 79 -5.25827927404512785e-01
57 79 -5.25827927404512896e-01
58 79 -5.25827927404512896e-01
59 79 -5.25827927404512785e-01
60 79 -5.25827927404512896e-01
61 79 -5.25827927404512896e-01
62 79 -5.25827927404512785e-01
63 79 -5.25827927404512785e-01
64 79 -5.25827927404513118e-01
65 79 -5.25827927404512896e-01
66 79 -5.25827927404513007e-01
67 79 -5.25827927404512785e-01
68 79 -5.25827927404513007e-01
69 79 -5.25827927404512896e-01
70 79 -5.25827927404513007e-01
71 79 -5.25827927404512896e-01
72 79 -5.25827927404513007e-01
73 79 -5.25827927404512896e-01
74 79 -5.25827927404513229e-01
75 79 -5.25827927404512896e-01
76 79 -5.25827927404513118e-01
77 79 -5.25827927404512896e-01
78 79 -5.25827927404512785e-01
79 79 -5.25827927404512896e-01
80 79 -5.25827927404513007e-01
81 79 -5.25827927404512674e-01
82 79 -5.25827927404513118e-01
83 79 -5.25827927404512785e-01
84 79 -5.25827927404512785e-01
85 79 -5.25827927404512896e-01
86 79 -5.25827927404512674e-01
87 79 -5.25827927404513007e-01
88 79 -5.25827927404512896e-01
89 79 -5.25827927404512785e-01
90 79 -5.25827927404512896e-01
91 79 -5.25827927404512896e-01
92 79 -5.25827927404512785e-01
93 79 -5.25827927404512896e-01
94 79 -5.25827927404512896e-01
95 79 -5.25827927404512785e-01
96 79 -5.25827927404512785e-01
97 79 -5.25827927404513118e-01
98 79 -5.25827927404512896e-01
99 79 -5.25827927404513007e-01
100 79 -5.25827927404512785e-01
101 79 -5.25827927404513007e-01
102 79 -5.25827927404512896e-01
103 79 -5.25827927404513007e-01
104 79 -5.25827927404512896e-01
105 79 -5.25827927404513007e-01
106 79 -5.25827927404512896e-01
107 79 -5.25827927404513229e-01
108 79 -5.25827927404512896e-01
109 79 -5.25827927404513118e-01
110 79 -5.25827927404512896e-01
111 79 -5.25827927404512785e-01
112 79 -5.25827927404512896e-01
113 79 -5.25827927404513007e-01
114 79 -5.25827927404512674e-01
115 79 -5.25827927404513118e-01
116 79 -5.25827927404512785e-01
117 79 -5.25827927404512785e-01
118 79 -5.25827927404512896e-01
119 79 -5.25827927404512674e-01
120 79 -5.25827927404513007e-01
121 79 -5.25827927404512896e-01
122 79 -5.25827927404512785e-01
123 79 -5.25827927404512896e-01
124 79 -5.25827927404512896e-01
125 79 -5.25827927404512785e-01
126 79 -5.25827927404512896e-01
127 79 -5.25827927404512896e-01
128 79 -5.25827927404512785e-01
129 79 -5.25827927404512785e-01
130 79 -5.25827927404513118e-01
131 79 -5.25827927404512896e-01
132 79 -5.25827927404513007e-01
133 79 -5.25827927404512785e-01
1 80 -5.68705306634210150e-01
2 80 -5.68705306634210372e-01
3 80 -5.68705306634210261e-01
4 80 -5.68705306634210372e-01
5 80 -5.68705306634210150e-01
6 80 -5.68705306634210372e-01
7 80 -5.68705306634210261e-01
8 80 -5.68705306634210594e-01
9 80 -5.68705306634210372e-01
10 80 -5.68705306634210483e-01
11 80 -5.68705306634210372e-01
12 80 -5.68705306634210150e-01
13 80 -5.68705306634210261e-01
14 80 -5.68705306634210372e-01
15 80 -5.68705306634210039e-01
16 80 -5.68705306634210594e-01
17 80 -5.68705306634210150e-01
18 80 -5.68705306634210150e-01
19 80 -5.68705306634210261e-01
20 80 -5.68705306634210039e-01
21 80 -5.68705306634210372e-01
22 80 -5.68705306634210261e-01
23 80 -5.68705306634210150e-01
24 80 -5.68705306634210261e-01
25 80 -5.68705306634210261e-01
26 80 -5.68705306634210150e-01
27 80 -5.68705306634210261e-01
28 80 -5.68705306634210261e-01
29 80 -5.68705306634210150e-01
30 80 -5.68705306634210150e-01
31 80 -5.68705306634210483e-01
32 80 -5.68705306634210261e-01
33 80 -5.68705306634210372e-01
34 80 -5.68705306634210150e-01
35 80 -5.68705306634210372e-01
36 80 -5.68705306634210261e-01
37 80 -5.68705306634210372e-01
38 80 -5.68705306634210150e-01
39 80 -5.68705306634210372e-01
40 80 -5.68705306634210261e-01
41 80 -5.68705306634210594e-01
42 80 -5.68705306634210372e-01
43 80 -5.68705306634210483e-01
44 80 -5.68705306634210372e-01
45 80 -5.68705306634210150e-01
46 80 -5.68705306634210261e-01
47 80 -5.68705306634210372e-01
48 80 -5.68705306634210039e-01
49 80 -5.68705306634210594e-01
50 80 -5.68705306634210150e-01
51 80 -5.68705306634210150e-01
52 80 -5.68705306634210261e-01
53 80 -5.68705306634210039e-01
54 80 -5.68705306634210372e-01
55 80 -5.68705306634210261e-01
56 80 -5.68705306634210150e-01
57 80 -5.68705306634210261e-01
58 80 -5.68705306634210261e-01
59 80 -5.68705306634210150e-01
60 80 -5.68705306634210261e-01
61 80 -5.68705306634210261e-01
62 80 -5.68705306634210150e-01
63 80 -5.68705306634210150e-01
64 80 -5.68705306634210483e-01
65 80 -5.68705306634210261e-01
66 80 -5.68705306634210372e-01
67 80 -5.68705306634210150e-01
68 80 -5.68705306634210372e-01
69 80 -5.68705306634210261e-01
70 80 -5.68705306634210372e-01
71 80 -5.68705306634210150e-01
72 80 -5.68705306634210372e-01
73 80 -5.68705306634210261e-01
74 80 -5.68705306634210594e-01
75 80 -5.68705306634210372e-01
76 80 -5.68705306634210483e-01
77 80 -5.68705306634210372e-01
78 80 -5.68705306634210150e-01
79 80 -5.68705306634210261e-01
80 80 -5.68705306634210372e-01
81 80 -5.68705306634210039e-01
82 80 -5.68705306634210594e-01
83 80 -5.68705306634210150e-01
84 80 -5.68705306634210150e-01
85 80 -5.68705306634210261e-01
86 80 -5.68705306634210039e-01
87 80 -5.68705306634210372e-01
88 80 -5.68705306634210261e-01
89 80 -5.68705306634210150e-01
90 80 -5.68705306634210261e-01
91 80 -5.68705306634210261e-01
92 80 -5.68705306634210150e-01
93 80 -5.68705306634210261e-01
94 80 -5.68705306634210261e-01
95 80 -5.68705306634210150e-01
96 80 -5.68705306634210150e-01
97 80 -5.68705306634210483e-01
98 80 -5.68705306634210261e-01
99 80 -5.68705306634210372e-01
100 80 -5.68705306634210150e-01
101 80 -5.68705306634210372e-01
102 80 -5.68705306634210261e-01
103 80 -5.68705306634210372e-01
104 80 -5.68705306634210150e-01
105 80 -5.68705306634210372e-01
106 80 -5.68705306634210261e-01
107 80 -5.68705306634210594e-01
108 80 -5.68705306634210372e-01
109 80 -5.68705306634210483e-01
110 80 -5.68705306634210372e-01
111 80 -5.68705306634210150e-01
112 80 -5.68705306634210261e-01
113 80 -5.68705306634210372e-01
114 80 -5.68705306634210039e-01
115 80 -5.68705306634210594e-01
116 80 -5.68705306634210150e-01
117 80 -5.68705306634210150e-01
118 80 -5.68705306634210261e-01
119 80 -5.68705306634210039e-01
120 80 -5.68705306634210372e-01
121 80 -5.68705306634210261e-01
122 80 -5.68705306634210150e-01
123 80 -5.68705306634210261e-01
124 80 -5.68705306634210261e-01
125 80 -5.68705306634210150e-01
126 80 -5.68705306634210261e-01
127 80 -5.68705306634210261e-01
128 80 -5.68705306634210150e-01
129 80 -5.68705306634210150e-01
130 80 -5.68705306634210483e-01
131 80 -5.68705306634210261e-01
132 80 -5.68705306634210372e-01
133 80 -5.68705306634210150e-01
1 81 -6.10280122365216449e-01
2 81 -6.10280122365216782e-01
3 81 -6.10280122365216560e-01
4 81 -6.10280122365216671e-01
5 81 -6.10280122365216449e-01
6 81 -6.10280122365216671e-01
7 81 -6.10280122365216560e-01
8 81 -6.10280122365216893e-01
9 81 -6.10280122365216671e-01
10 81 -6.10280122365216782e-01
11 81 -6.10280122365216671e-01
12 81 -6.10280122365216560e-01
13 81 -6.10280122365216671e-01
14 81 -6.10280122365216671e-01
15 81 -6.10280122365216338e-01
16 81 -6.10280122365217004e-01
17 81 -6.10280122365216449e-01
18 81 -6.10280122365216449e-01
19 81 -6.10280122365216560e-01
20 81 -6.10280122365216338e-01
21 81 -6.10280122365216671e-01
22 81 -6.10280122365216671e-01
23 81 -6.10280122365216560e-01
24 81 -6.10280122365216560e-01
25 81 -6.10280122365216671e-01
26 81 -6.10280122365216449e-01
27 81 -6.10280122365216560e-01
28 81 -6.10280122365216560e-01
29 81 -6.10280122365216449e-01
30 81 -6.10280122365216449e-01
31 81 -6.10280122365216782e-01
32 81 -6.10280122365216560e-01
33 81 -6.10280122365216782e-01
34 81 -6.10280122365216449e-01
35 81 -6.10280122365216782e-01
36 81 -6.10280122365216560e-01
37 81 -6.10280122365216671e-01
38 81 -6.10280122365216449e-01
39 81 -6.10280122365216671e-01
40 81 -6.10280122365216560e-01
41 81 -6.10280122365216893e-01
42 81 -6.10280122365216671e-01
43 81 -6.10280122365216782e-01
44 81 -6.10280122365216671e-01
45 81 -6.10280122365216560e-01
46 81 -6.10280122365216671e-01
47 81 -6.10280122365216671e-01
48 81 -6.10280122365216338e-01
49 81 -6.10280122365217004e-01
50 81 -6.10280122365216449e-01
51 81 -6.10280122365216449e-01
52 81 -6.10280122365216560e-01
53 81 -6.10280122365216338e-01
54 81 -6.10280122365216671e-01
55 81 -6.10280122365216671e-01
56 81 -6.10280122365216560e-01
57 81 -6.10280122365216560e-01
58 81 -6.10280122365216671e-01
59 81 -6.10280122365216449e-01
60 81 -6.10280122365216560e-01
61 81 -6.10280122365216560e-01
62 81 -6.10280122365216449e-01
63 81 -6.10280122365216449e-01
64 81 -6.10280122365216782e-01
65 81 -6.10280122365216560e-01
66 81 -6.10280122365216782e-01
67 81 -6.10280122365216449e-01
68 81 -6.10280122365216782e-01
69 81 -6.10280122365216560e-01
70 81 -6.10280122365216671e-01
71 81 -6.10280122365216449e-01
72 81 -6.10280122365216671e-01
73 81 -6.10280122365216560e-01
74 81 -6.10280122365216893e-01
75 81 -6.10280122365216671e-01
76 81 -6.10280122365216782e-01
77 81 -6.10280122365216671e-01
78 81 -6.10280122365216560e-01
79 81 -6.10280122365216671e-01
80 81 -6.10280122365216671e-01
81 81 -6.10280122365216338e-01
82 81 -6.10280122365217004e-01
83 81 -6.10280122365216449e-01
84 81 -6.10280122365216449e-01
85 81 -6.10280122365216560e-01
86 81 -6.10280122365216338e-01
87 81 -6.10280122365216671e-01
88 81 -6.10280122365216671e-01
89 81 -6.10280122365216560e-01
90 81 -6.10280122365216560e-01
91 81 -6.10280122365216671e-01
92 81 -6.10280122365216449e-01
93 81 -6.10280122365216560e-01
94 81 -6.10280122365216560e-01
95 81 -6.10280122365216449e-01
96 81 -6.10280122365216449e-01
97 81 -6.10280122365216782e-01
98 81 -6.10280122365216560e-01
99 81 -6.10280122365216782e-01
100 81 -6.10280122365216449e-01
101 81 -6.10280122365216782e-01
102 81 -6.10280122365216560e-01
103 81 -6.10280122365216671e-01
104 81 -6.10280122365216449e-01
105 81 -6.10280122365216671e-01
106 81 -6.10280122365216560e-01
107 81 -6.10280122365216893e-01
108 81 -6.10280122365216671e-01
109 81 -6.10280122365216782e-01
110 81 -6.10280122365216671e-01
111 81 -6.10280122365216560e-01
112 81 -6.10280122365216671e-01
113 81 -6.10280122365216671e-01
114 81 -6.10280122365216338e-01
115 81 -6.10280122365217004e-01
116 81 -6.10280122365216449e-01
117 81 -6.10280122365216449e-01
118 81 -6.10280122365216560e-01
119 81 -6.10280122365216338e-01
120 81 -6.10280122365216671e-01
121 81 -6.10280122365216671e-01
122 81 -6.10280122365216560e-01
123 81 -6.10280122365216560e-01
124 81 -6.10280122365216671e-01
125 81 -6.10280122365216449e-01
126 81 -6.10280122365216560e-01
127 81 -6.10280122365216560e-01
128 81 -6.10280122365216449e-01
129 81 -6.10280122365216449e-01
130 81 -6.10280122365216782e-01
131 81 -6.10280122365216560e-01
132 81 -6.10280122365216782e-01
133 81 -6.10280122365216449e-01
1 82 -6.50369723385751941e-01
2 82 -6.50369723385752385e-01
3 82 -6.50369723385752163e-01
4 82 -6.50369723385752274e-01
5 82 -6.50369723385751941e-01
6 82 -6.50369723385752163e-01
7 82 -6.50369723385752052e-01
8 82 -6.50369723385752385e-01
9 82 -6.50369723385752274e-01
10 82 -6.50369723385752274e-01
11 82 -6.50369723385752163e-01
12 82 -6.50369723385752052e-01
13 82 -6.50369723385752163e-01
14 82 -6.50369723385752163e-01
15 82 -6.50369723385751830e-01
16 82 -6.50369723385752496e-01
17 82 -6.50369723385752052e-01
18 82 -6.50369723385752052e-01
19 82 -6.50369723385752052e-01
20 82 -6.50369723385751941e-01
21 82 -6.50369723385752163e-01
22 82 -6.50369723385752163e-01
23 82 -6.50369723385752052e-01
24 82 -6.50369723385752052e-01
25 82 -6.50369723385752163e-01
26 82 -6.50369723385751941e-01
27 82 -6.50369723385752163e-01
28 82 -6.50369723385752052e-01
29 82 -6.50369723385751941e-01
30 82 -6.50369723385751941e-01
31 82 -6.50369723385752385e-01
32 82 -6.50369723385752163e-01
33 82 -6.50369723385752385e-01
34 82 -6.50369723385751941e-01
35 82 -6.50369723385752385e-01
36 82 -6.50369723385752163e-01
37 82 -6.50369723385752274e-01
38 82 -6.50369723385751941e-01
39 82 -6.50369723385752163e-01
40 82 -6.50369723385752052e-01
41 82 -6.50369723385752385e-01
42 82 -6.50369723385752274e-01
43 82 -6.50369723385752274e-01
44 82 -6.50369723385752163e-01
45 82 -6.50369723385752052e-01
46 82 -6.50369723385752163e-01
47 82 -6.50369723385752163e-01
48 82 -6.50369723385751830e-01
49 82 -6.50369723385752496e-01
50 82 -6.50369723385752052e-01
51 82 -6.50369723385752052e-01
52 82 -6.50369723385752052e-01
53 82 -6.50369723385751941e-01
54 82 -6.50369723385752163e-01
55 82 -6.50369723385752163e-01
56 82 -6.50369723385752052e-01
57 82 -6.50369723385752052e-01
58 82 -6.50369723385752163e-01
59 82 -6.50369723385751941e-01
60 82 -6.50369723385752163e-01
61 82 -6.50369723385752052e-01
62 82 -6.50369723385751941e-01
63 82 -6.50369723385751941e-01
64 82 -6.50369723385752385e-01
65 82 -6.50369723385752163e-01
66 82 -6.50369723385752385e-01
67 82 -6.50369723385751941e-01
68 82 -6.50369723385752385e-01
69 82 -6.50369723385752163e-01
70 82 -6.50369723385752274e-01
71 82 -6.50369723385751941e-01
72 82 -6.50369723385752163e-01
73 82 -6.50369723385752052e-01
74 82 -6.50369723385752385e-01
75 82 -6.50369723385752274e-01
76 82 -6.50369723385752274e-01
77 82 -6.50369723385752163e-01
78 82 -6.50369723385752052e-01
79 82 -6.50369723385752163e-01
80 82 -6.50369723385752163e-01
81 82 -6.50369723385751830e-01
82 82 -6.50369723385752496e-01
83 82 -6.50369723385752052e-01
84 82 -6.50369723385752052e-01
85 82 -6.50369723385752052e-01
86 82 -6.50369723385751941e-01
87 82 -6.50369723385752163e-01
88 82 -6.50369723385752163e-01
89 82 -6.50369723385752052e-01
90 82 -6.50369723385752052e-01
91 82 -6.50369723385752163e-01
92 82 -6.50369723385751941e-01
93 82 -6.50369723385752163e-01
94 82 -6.50369723385752052e-01
95 82 -6.50369723385751941e-01
96 82 -6.50369723385751941e-01
97 82 -6.50369723385752385e-01
98 82 -6.50369723385752163e-01
99 82 -6.50369723385752385e-01
100 82 -6.50369723385751941e-01
101 82 -6.50369723385752385e-01
102 82 -6.50369723385752163e-01
103 82 -6.50369723385752274e-01
104 82 -6.50369723385751941e-01
105 82 -6.50369723385752163e-01
106 82 -6.50369723385752052e-01
107 82 -6.50369723385752385e-01
108 82 -6.50369723385752274e-01
109 82 -6.50369723385752274e-01
110 82 -6.50369723385752163e-01
111 82 -6.50369723385752052e-01
112 82 -6.50369723385752163e-01
113 82 -6.50369723385752163e-01
114 82 -6.50369723385751830e-01
115 82 -6.50369723385752496e-01
116 82 -6.50369723385752052e-01
117 82 -6.50369723385752052e-01
118 82 -6.50369723385752052e-01
119 82 -6.50369723385751941e-01
120 82 -6.50369723385752163e-01
121 82 -6.50369723385752163e-01
122 82 -6.50369723385752052e-01
123 82 -6.50369723385752052e-01
124 82 -6.50369723385752163e-01
125 82 -6.50369723385751941e-01
126 82 -6.50369723385752163e-01
127 82 -6.50369723385752052e-01
128 82 -6.50369723385751941e-01
129 82 -6.50369723385751941e-01
130 82 -6.50369723385752385e-01
131 82 -6.50369723385752163e-01
132 82 -6.50369723385752385e-01
133 82 -6.50369723385751941e-01
1 83 -6.88800955010706595e-01
2 83 -6.88800955010707150e-01
3 83 -6.88800955010706817e-01
4 83 -6.88800955010706928e-01
5 83 -6.88800955010706484e-01
6 83 -6.88800955010706706e-01
7 83 -6.88800955010706706e-01
8 83 -6.88800955010707150e-01
9 83 -6.88800955010706928e-01
10 83 -6.88800955010706928e-01
11 83 -6.88800955010706817e-01
12 83 -6.88800955010706706e-01
13 83 -6.88800955010706928e-01
14 83 -6.88800955010706817e-01
15 83 -6.88800955010706595e-01
16 83 -6.88800955010707261e-01
17 83 -6.88800955010706817e-01
18 83 -6.88800955010706817e-01
19 83 -6.88800955010706817e-01
20 83 -6.88800955010706706e-01
21 83 -6.88800955010706817e-01
22 83 -6.88800955010706928e-01
23 83 -6.88800955010706706e-01
24 83 -6.88800955010706817e-01
25 83 -6.88800955010706817e-01
26 83 -6.88800955010706706e-01
27 83 -6.88800955010706928e-01
28 83 -6.88800955010706706e-01
29 83 -6.88800955010706706e-01
30 83 -6.88800955010706706e-01
31 83 -6.88800955010707150e-01
32 83 -6.88800955010706817e-01
33 83 -6.88800955010707150e-01
34 83 -6.88800955010706595e-01
35 83 -6.88800955010707150e-01
36 83 -6.88800955010706817e-01
37 83 -6.88800955010706928e-01
38 83 -6.88800955010706484e-01
39 83 -6.88800955010706706e-01
40 83 -6.88800955010706706e-01
41 83 -6.88800955010707150e-01
42 83 -6.88800955010706928e-01
43 83 -6.88800955010706928e-01
44 83 -6.88800955010706817e-01
45 83 -6.88800955010706706e-01
46 83 -6.88800955010706928e-01
47 83 -6.88800955010706817e-01
48 83 -6.88800955010706595e-01
49 83 -6.88800955010707261e-01
50 83 -6.88800955010706817e-01
51 83 -6.88800955010706817e-01
52 83 -6.88800955010706817e-01
53 83 -6.88800955010706706e-01
54 83 -6.88800955010706817e-01
55 83 -6.88800955010706928e-01
56 83 -6.88800955010706706e-01
57 83 -6.88800955010706817e-01
58 83 -6.88800955010706817e-01
59 83 -6.88800955010706706e-01
60 83 -6.88800955010706928e-01
61 83 -6.88800955010706706e-01
62 83 -6.88800955010706706e-01
63 83 -6.88800955010706706e-01
64 83 -6.88800955010707150e-01
65 83 -6.88800955010706817e-01
66 83 -6.88800955010707150e-01
67 83 -6.88800955010706595e-01
68 83 -6.88800955010707150e-01
69 83 -6.88800955010706817e-01
70 83 -6.88800955010706928e-01
71 83 -6.88800955010706484e-01
72 83 -6.88800955010706706e-01
73 83 -6.88800955010706706e-01
74 83 -6.88800955010707150e-01
75 83 -6.88800955010706928e-01
76 83 -6.88800955010706928e-01
77 83 -6.88800955010706817e-01
78 83 -6.88800955010706706e-01
79 83 -6.88800955010706928e-01
80 83 -6.88800955010706817e-01
81 83 -6.88800955010706595e-01
82 83 -6.88800955010707261e-01
83 83 -6.88800955010706817e-01
84 83 -6.88800955010706817e-01
85 83 -6.88800955010706817e-01
86 83 -6.88800955010706706e-01
87 83 -6.88800955010706817e-01
88 83 -6.88800955010706928e-01
89 83 -6.88800955010706706e-01
90 83 -6.88800955010706817e-01
91 83 -6.88800955010706817e-01
92 83 -6.88800955010706706e-01
93 83 -6.88800955010706928e-01
94 83 -6.88800955010706706e-01
95 83 -6.88800955010706706e-01
96 83 -6.88800955010706706e-01
97 83 -6.88800955010707150e-01
98 83 -6.88800955010706817e-01
99 83 -6.88800955010707150e-01
100 83 -6.88800955010706595e-01
101 83 -6.88800955010707150e-01
102 83 -6.88800955010706817e-01
103 83 -6.88800955010706928e-01
104 83 -6.88800955010706484e-01
105 83 -6.88800955010706706e-01
106 83 -6.88800955010706706e-01
107 83 -6.88800955010707150e-01
108 83 -6.88800955010706928e-01
109 83 -6.88800955010706928e-01
110 83 -6.88800955010706817e-01
111 83 -6.88800955010706706e-01
112 83 -6.88800955010706928e-01
113 83 -6.88800955010706817e-01
114 83 -6.88800955010706595e-01
115 83 -6.88800955010707261e-01
116 83 -6.88800955010706817e-01
117 83 -6.88800955010706817e-01
118 83 -6.88800955010706817e-01
119 83 -6.88800955010706706e-01
120 83 -6.88800955010706817e-01
121 83 -6.88800955010706928e-01
122 83 -6.88800955010706706e-01
123 83 -6.88800955010706817e-01
124 83 -6.88800955010706817e-01
125 83 -6.88800955010706706e-01
126 83 -6.88800955010706928e-01
127 83 -6.88800955010706706e-01
128 83 -6.88800955010706706e-01
129 83 -6.88800955010706706e-01
130 83 -6.88800955010707150e-01
131 83 -6.88800955010706817e-01
132 83 -6.88800955010707150e-01
133 83 -6.88800955010706595e-01
1 84 -7.25412607362388107e-01
2 84 -7.25412607362388662e-01
3 84 -7.25412607362388440e-01
4 84 -7.25412607362388551e-01
5 84 -7.25412607362387996e-01
6 84 -7.25412607362388329e-01
7 84 -7.25412607362388218e-01
8 84 -7.25412607362388773e-01
9 84 -7.25412607362388440e-01
10 84 -7.25412607362388440e-01
11 84 -7.25412607362388440e-01
12 84 -7.25412607362388329e-01
13 84 -7.25412607362388329e-01
14 84 -7.25412607362388440e-01
15 84 -7.25412607362388107e-01
16 84 -7.25412607362388773e-01
17 84 -7.25412607362388440e-01
18 84 -7.25412607362388440e-01
19 84 -7.25412607362388329e-01
20 84 -7.25412607362388218e-01
21 84 -7.25412607362388440e-01
22 84 -7.25412607362388329e-01
23 84 -7.25412607362388329e-01
24 84 -7.25412607362388440e-01
25 84 -7.25412607362388440e-01
26 84 -7.25412607362388329e-01
27 84 -7.25412607362388551e-01
28 84 -7.25412607362388218e-01
29 84 -7.25412607362388218e-01
30 84 -7.25412607362388107e-01
31 84 -7.25412607362388662e-01
32 84 -7.25412607362388329e-01
33 84 -7.25412607362388662e-01
34 84 -7.25412607362388107e-01
35 84 -7.25412607362388662e-01
36 84 -7.25412607362388440e-01
37 84 -7.25412607362388551e-01
38 84 -7.25412607362387996e-01
39 84 -7.25412607362388329e-01
40 84 -7.25412607362388218e-01
41 84 -7.25412607362388773e-01
42 84 -7.25412607362388440e-01
43 84 -7.25412607362388440e-01
44 84 -7.25412607362388440e-01
45 84 -7.25412607362388329e-01
46 84 -7.25412607362388329e-01
47 84 -7.25412607362388440e-01
48 84 -7.25412607362388107e-01
49 84 -7.25412607362388773e-01
50 84 -7.25412607362388440e-01
51 84 -7.25412607362388440e-01
52 84 -7.25412607362388329e-01
53 84 -7.25412607362388218e-01
54 84 -7.25412607362388440e-01
55 84 -7.25412607362388329e-01
56 84 -7.25412607362388329e-01
57 84 -7.25412607362388440e-01
58 84 -7.25412607362388440e-01
59 84 -7.25412607362388329e-01
60 84 -7.25412607362388551e-01
61 84 -7.25412607362388218e-01
62 84 -7.25412607362388218e-01
63 84 -7.25412607362388107e-01
64 84 -7.25412607362388662e-01
65 84 -7.25412607362388329e-01
66 84 -7.25412607362388662e-01
67 84 -7.25412607362388107e-01
68 84 -7.25412607362388662e-01
69 84 -7.25412607362388440e-01
70 84 -7.25412607362388551e-01
71 84 -7.25412607362387996e-01
72 84 -7.25412607362388329e-01
73 84 -7.25412607362388218e-01
74 84 -7.25412607362388773e-01
75 84 -7.25412607362388440e-01
76 84 -7.25412607362388440e-01
77 84 -7.25412607362388440e-01
78 84 -7.25412607362388329e-01
79 84 -7.25412607362388329e-01
80 84 -7.25412607362388440e-01
81 84 -7.25412607362388107e-01
82 84 -7.25412607362388773e-01
83 84 -7.25412607362388440e-01
84 84 -7.25412607362388440e-01
85 84 -7.25412607362388329e-01
86 84 -7.25412607362388218e-01
87 84 -7.25412607362388440e-01
88 84 -7.25412607362388329e-01
89 84 -7.25412607362388329e-01
90 84 -7.25412607362388440e-01
91 84 -7.25412607362388440e-01
92 84 -7.25412607362388329e-01
93 84 -7.25412607362388551e-01
94 84 -7.25412607362388218e-01
95 84 -7.25412607362388218e-01
96 84 -7.25412607362388107e-01
97 84 -7.25412607362388662e-01
98 84 -7.25412607362388329e-01
99 84 -7.25412607362388662e-01
100 84 -7.25412607362388107e-01
101 84 -7.25412607362388662e-01
102 84 -7.25412607362388440e-01
103 84 -7.25412607362388551e-01
104 84 -7.25412607362387996e-01
105 84 -7.25412607362388329e-01
106 84 -7.25412607362388218e-01
107 84 -7.25412607362388773e-01
108 84 -7.25412607362388440e-01
109 84 -7.25412607362388440e-01
110 84 -7.25412607362388440e-01
111 84 -7.25412607362388329e-01
112 84 -7.25412607362388329e-01
113 84 -7.25412607362388440e-01
114 84 -7.25412607362388107e-01
115 84 -7.25412607362388773e-01
116 84 -7.25412607362388440e-01
117 84 -7.25412607362388440e-01
118 84 -7.25412607362388329e-01
119 84 -7.25412607362388218e-01
120 84 -7.25412607362388440e-01
121 84 -7.25412607362388329e-01
122 84 -7.25412607362388329e-01
123 84 -7.25412607362388440e-01
124 84 -7.25412607362388440e-01
125 84 -7.25412607362388329e-01
126 84 -7.25412607362388551e-01
127 84 -7.25412607362388218e-01
128 84 -7.25412607362388218e-01
129 84 -7.25412607362388107e-01
130 84 -7.25412607362388662e-01
131 84 -7.25412607362388329e-01
132 84 -7.25412607362388662e-01
133 84 -7.25412607362388107e-01
1 85 -7.60057653303947367e-01
2 85 -7.60057653303947700e-01
3 85 -7.60057653303947700e-01
4 85 -7.60057653303947700e-01
5 85 -7.60057653303947256e-01
6 85 -7.60057653303947589e-01
7 85 -7.60057653303947478e-01
8 85 -7.60057653303948033e-01
9 85 -7.60057653303947589e-01
10 85 -7.60057653303947589e-01
11 85 -7.60057653303947589e-01
12 85 -7.60057653303947589e-01
13 85 -7.60057653303947589e-01
14 85 -7.60057653303947589e-01
15 85 -7.60057653303947367e-01
16 85 -7.60057653303948033e-01
17 85 -7.60057653303947700e-01
18 85 -7.60057653303947700e-01
19 85 -7.60057653303947589e-01
20 85 -7.60057653303947478e-01
21 85 -7.60057653303947589e-01
22 85 -7.60057653303947589e-01
23 85 -7.60057653303947589e-01
24 85 -7.60057653303947589e-01
25 85 -7.60057653303947589e-01
26 85 -7.60057653303947367e-01
27 85 -7.60057653303947700e-01
28 85 -7.60057653303947478e-01
29 85 -7.60057653303947478e-01
30 85 -7.60057653303947367e-01
31 85 -7.60057653303947811e-01
32 85 -7.60057653303947589e-01
33 85 -7.60057653303947700e-01
34 85 -7.60057653303947367e-01
35 85 -7.60057653303947700e-01
36 85 -7.60057653303947700e-01
37 85 -7.60057653303947700e-01
38 85 -7.60057653303947256e-01
39 85 -7.60057653303947589e-01
40 85 -7.60057653303947478e-01
41 85 -7.60057653303948033e-01
42 85 -7.60057653303947589e-01
43 85 -7.60057653303947589e-01
44 85 -7.60057653303947589e-01
45 85 -7.60057653303947589e-01
46 85 -7.60057653303947589e-01
47 85 -7.60057653303947589e-01
48 85 -7.60057653303947367e-01
49 85 -7.60057653303948033e-01
50 85 -7.60057653303947700e-01
51 85 -7.60057653303947700e-01
52 85 -7.60057653303947589e-01
53 85 -7.60057653303947478e-01
54 85 -7.60057653303947589e-01
55 85 -7.60057653303947589e-01
56 85 -7.60057653303947589e-01
57 85 -7.60057653303947589e-01
58 85 -7.60057653303947589e-01
59 85 -7.60057653303947367e-01
60 85 -7.60057653303947700e-01
61 85 -7.60057653303947478e-01
62 85 -7.60057653303947478e-01
63 85 -7.60057653303947367e-01
64 85 -7.60057653303947811e-01
65 85 -7.60057653303947589e-01
66 85 -7.60057653303947700e-01
67 85 -7.60057653303947367e-01
68 85 -7.60057653303947700e-01
69 85 -7.60057653303947700e-01
70 85 -7.60057653303947700e-01
71 85 -7.60057653303947256e-01
72 85 -7.60057653303947589e-01
73 85 -7.60057653303947478e-01
74 85 -7.60057653303948033e-01
75 85 -7.60057653303947589e-01
76 85 -7.60057653303947589e-01
77 85 -7.60057653303947589e-01
78 85 -7.60057653303947589e-01
79 85 -7.60057653303947589e-01
80 85 -7.60057653303947589e-01
81 85 -7.60057653303947367e-01
82 85 -7.60057653303948033e-01
83 85 -7.60057653303947700e-01
84 85 -7.60057653303947700e-01
85 85 -7.60057653303947589e-01
86 85 -7.60057653303947478e-01
87 85 -7.60057653303947589e-01
88 85 -7.60057653303947589e-01
89 85 -7.60057653303947589e-01
90 85 -7.60057653303947589e-01
91 85 -7.60057653303947589e-01
92 85 -7.60057653303947367e-01
93 85 -7.60057653303947700e-01
94 85 -7.60057653303947478e-01
95 85 -7.60057653303947478e-01
96 85 -7.60057653303947367e-01
97 85 -7.60057653303947811e-01
98 85 -7.60057653303947589e-01
99 85 -7.60057653303947700e-01
100 85 -7.60057653303947367e-01
101 85 -7.60057653303947700e-01
102 85 -7.60057653303947700e-01
103 85 -7.60057653303947700e-01
104 85 -7.60057653303947256e-01
105 85 -7.60057653303947589e-01
106 85 -7.60057653303947478e-01
107 85 -7.60057653303948033e-01
108 85 -7.60057653303947589e-01
109 85 -7.60057653303947589e-01
110 85 -7.60057653303947589e-01
111 85 -7.60057653303947589e-01
112 85 -7.60057653303947589e-01
113 85 -7.60057653303947589e-01
114 85 -7.60057653303947367e-01
115 85 -7.60057653303948033e-01
116 85 -7.60057653303947700e-01
117 85 -7.60057653303947700e-01
118 85 -7.60057653303947589e-01
119 85 -7.60057653303947478e-01
120 85 -7.60057653303947589e-01
121 85 -7.60057653303947589e-01
122 85 -7.60057653303947589e-01
123 85 -7.60057653303947589e-01
124 85 -7.60057653303947589e-01
125 85 -7.60057653303947367e-01
126 85 -7.60057653303947700e-01
127 85 -7.60057653303947478e-01
128 85 -7.60057653303947478e-01
129 85 -7.60057653303947367e-01
130 85 -7.60057653303947811e-01
131 85 -7.60057653303947589e-01
132 85 -7.60057653303947700e-01
133 85 -7.60057653303947367e-01
1 86 -7.92605211317161884e-01
2 86 -7.92605211317162106e-01
3 86 -7.92605211317162217e-01
4 86 -7.92605211317162106e-01
5 86 -7.92605211317161884e-01
6 86 -7.92605211317162106e-01
7 86 -7.92605211317161995e-01
8 86 -7.92605211317162550e-01
9 86 -7.92605211317162106e-01
10 86 -7.92605211317162106e-01
11 86 -7.92605211317162217e-01
12 86 -7.92605211317162217e-01
13 86 -7.92605211317162217e-01
14 86 -7.92605211317162217e-01
15 86 -7.92605211317161884e-01
16 86 -7.92605211317162661e-01
17 86 -7.92605211317162328e-01
18 86 -7.92605211317162328e-01
19 86 -7.92605211317162217e-01
20 86 -7.92605211317161995e-01
21 86 -7.92605211317162217e-01
22 86 -7.92605211317162217e-01
23 86 -7.92605211317162217e-01
24 86 -7.92605211317162217e-01
25 86 -7.92605211317162106e-01
26 86 -7.92605211317161884e-01
27 86 -7.92605211317162217e-01
28 86 -7.92605211317161995e-01
29 86 -7.92605211317161995e-01
30 86 -7.92605211317161884e-01
31 86 -7.92605211317162217e-01
32 86 -7.92605211317162106e-01
33 86 -7.92605211317162106e-01
34 86 -7.92605211317161884e-01
35 86 -7.92605211317162106e-01
36 86 -7.92605211317162217e-01
37 86 -7.92605211317162106e-01
38 86 -7.92605211317161884e-01
39 86 -7.92605211317162106e-01
40 86 -7.92605211317161995e-01
41 86 -7.92605211317162550e-01
42 86 -7.92605211317162106e-01
43 86 -7.92605211317162106e-01
44 86 -7.92605211317162217e-01
45 86 -7.92605211317162217e-01
46 86 -7.92605211317162217e-01
47 86 -7.92605211317162217e-01
48 86 -7.92605211317161884e-01
49 86 -7.92605211317162661e-01
50 86 -7.92605211317162328e-01
51 86 -7.92605211317162328e-01
52 86 -7.92605211317162217e-01
53 86 -7.92605211317161995e-01
54 86 -7.92605211317162217e-01
55 86 -7.92605211317162217e-01
56 86 -7.92605211317162217e-01
57 86 -7.92605211317162217e-01
58 86 -7.92605211317162106e-01
59 86 -7.92605211317161884e-01
60 86 -7.92605211317162217e-01
61 86 -7.92605211317161995e-01
62 86 -7.92605211317161995e-01
63 86 -7.92605211317161884e-01
64 86 -7.92605211317162217e-01
65 86 -7.92605211317162106e-01
66 86 -7.92605211317162106e-01
67 86 -7.92605211317161884e-01
68 86 -7.92605211317162106e-01
69 86 -7.92605211317162217e-01
70 86 -7.92605211317162106e-01
71 86 -7.92605211317161884e-01
72 86 -7.92605211317162106e-01
73 86 -7.92605211317161995e-01
74 86 -7.92605211317162550e-01
75 86 -7.92605211317162106e-01
76 86 -7.92605211317162106e-01
77 86 -7.92605211317162217e-01
78 86 -7.92605211317162217e-01
79 86 -7.92605211317162217e-01
80 86 -7.92605211317162217e-01
81 86 -7.92605211317161884e-01
82 86 -7.92605211317162661e-01
83 86 -7.92605211317162328e-01
84 86 -7.92605211317162328e-01
85 86 -7.92605211317162217e-01
86 86 -7.92605211317161995e-01
87 86 -7.92605211317162217e-01
88 86 -7.92605211317162217e-01
89 86 -7.92605211317162217e-01
90 86 -7.92605211317162217e-01
91 86 -7.92605211317162106e-01
92 86 -7.92605211317161884e-01
93 86 -7.92605211317162217e-01
94 86 -7.92605211317161995e-01
95 86 -7.92605211317161995e-01
96 86 -7.92605211317161884e-01
97 86 -7.92605211317162217e-01
98 86 -7.92605211317162106e-01
99 86 -7.92605211317162106e-01
100 86 -7.92605211317161884e-01
101 86 -7.92605211317162106e-01
102 86 -7.92605211317162217e-01
103 86 -7.92605211317162106e-01
104 86 -7.92605211317161884e-01
105 86 -7.92605211317162106e-01
106 86 -7.92605211317161995e-01
107 86 -7.92605211317162550e-01
108 86 -7.92605211317162106e-01
109 86 -7.92605211317162106e-01
110 86 -7.92605211317162217e-01
111 86 -7.92605211317162217e-01
112 86 -7.92605211317162217e-01
113 86 -7.92605211317162217e-01
114 86 -7.92605211317161884e-01
115 86 -7.92605211317162661e-01
116 86 -7.92605211317162328e-01
117 86 -7.92605211317162328e-01
118 86 -7.92605211317162217e-01
119 86 -7.92605211317161995e-01
120 86 -7.92605211317162217e-01
121 86 -7.92605211317162217e-01
122 86 -7.92605211317162217e-01
123 86 -7.92605211317162217e-01
124 86 -7.92605211317162106e-01
125 86 -7.92605211317161884e-01
126 86 -7.92605211317162217e-01
127 86 -7.92605211317161995e-01
128 86 -7.92605211317161995e-01
129 86 -7.92605211317161884e-01
130 86 -7.92605211317162217e-01
131 86 -7.92605211317162106e-01
132 86 -7.92605211317162106e-01
133 86 -7.92605211317161884e-01
1 87 -8.22942178512991340e-01
2 87 -8.22942178512991562e-01
3 87 -8.22942178512991673e-01
4 87 -8.22942178512991673e-01
5 87 -8.22942178512991451e-01
6 87 -8.22942178512991562e-01
7 87 -8.22942178512991562e-01
8 87 -8.22942178512992006e-01
9 87 -8.22942178512991562e-01
10 87 -8.22942178512991673e-01
11 87 -8.22942178512991673e-01
12 87 -8.22942178512991673e-01
13 87 -8.22942178512991784e-01
14 87 -8.22942178512991562e-01
15 87 -8.22942178512991451e-01
16 87 -8.22942178512992117e-01
17 87 -8.22942178512991784e-01
18 87 -8.22942178512991784e-01
19 87 -8.22942178512991784e-01
20 87 -8.22942178512991562e-01
21 87 -8.22942178512991562e-01
22 87 -8.22942178512991784e-01
23 87 -8.22942178512991673e-01
24 87 -8.22942178512991673e-01
25 87 -8.22942178512991562e-01
26 87 -8.22942178512991451e-01
27 87 -8.22942178512991784e-01
28 87 -8.22942178512991562e-01
29 87 -8.22942178512991562e-01
30 87 -8.22942178512991562e-01
31 87 -8.22942178512991784e-01
32 87 -8.22942178512991784e-01
33 87 -8.22942178512991451e-01
34 87 -8.22942178512991340e-01
35 87 -8.22942178512991562e-01
36 87 -8.22942178512991673e-01
37 87 -8.22942178512991673e-01
38 87 -8.22942178512991451e-01
39 87 -8.22942178512991562e-01
40 87 -8.22942178512991562e-01
41 87 -8.22942178512992006e-01
42 87 -8.22942178512991562e-01
43 87 -8.22942178512991673e-01
44 87 -8.22942178512991673e-01
45 87 -8.22942178512991673e-01
46 87 -8.22942178512991784e-01
47 87 -8.22942178512991562e-01
48 87 -8.22942178512991451e-01
49 87 -8.22942178512992117e-01
50 87 -8.22942178512991784e-01
51 87 -8.22942178512991784e-01
52 87 -8.22942178512991784e-01
53 87 -8.22942178512991562e-01
54 87 -8.22942178512991562e-01
55 87 -8.22942178512991784e-01
56 87 -8.22942178512991673e-01
57 87 -8.22942178512991673e-01
58 87 -8.22942178512991562e-01
59 87 -8.22942178512991451e-01
60 87 -8.22942178512991784e-01
61 87 -8.22942178512991562e-01
62 87 -8.22942178512991562e-01
63 87 -8.22942178512991562e-01
64 87 -8.22942178512991784e-01
65 87 -8.22942178512991784e-01
66 87 -8.22942178512991451e-01
67 87 -8.22942178512991340e-01
68 87 -8.22942178512991562e-01
69 87 -8.22942178512991673e-01
70 87 -8.22942178512991673e-01
71 87 -8.22942178512991451e-01
72 87 -8.22942178512991562e-01
73 87 -8.22942178512991562e-01
74 87 -8.22942178512992006e-01
75 87 -8.22942178512991562e-01
76 87 -8.22942178512991673e-01
77 87 -8.22942178512991673e-01
78 87 -8.22942178512991673e-01
79 87 -8.22942178512991784e-01
80 87 -8.22942178512991562e-01
81 87 -8.22942178512991451e-01
82 87 -8.22942178512992117e-01
83 87 -8.22942178512991784e-01
84 87 -8.22942178512991784e-01
85 87 -8.22942178512991784e-01
86 87 -8.22942178512991562e-01
87 87 -8.22942178512991562e-01
88 87 -8.22942178512991784e-01
89 87 -8.22942178512991673e-01
90 87 -8.22942178512991673e-01
91 87 -8.22942178512991562e-01
92 87 -8.22942178512991451e-01
93 87 -8.22942178512991784e-01
94 87 -8.22942178512991562e-01
95 87 -8.22942178512991562e-01
96 87 -8.22942178512991562e-01
97 87 -8.22942178512991784e-01
98 87 -8.22942178512991784e-01
99 87 -8.22942178512991451e-01
100 87 -8.22942178512991340e-01
101 87 -8.22942178512991562e-01
102 87 -8.22942178512991673e-01
103 87 -8.22942178512991673e-01
104 87 -8.22942178512991451e-01
105 87 -8.22942178512991562e-01
106 87 -8.22942178512991562e-01
107 87 -8.22942178512992006e-01
108 87 -8.22942178512991562e-01
109 87 -8.22942178512991673e-01
110 87 -8.22942178512991673e-01
111 87 -8.22942178512991673e-01
112 87 -8.22942178512991784e-01
113 87 -8.22942178512991562e-01
114 87 -8.22942178512991451e-01
115 87 -8.22942178512992117e-01
116 87 -8.22942178512991784e-01
117 87 -8.22942178512991784e-01
118 87 -8.22942178512991784e-01
119 87 -8.22942178512991562e-01
120 87 -8.22942178512991562e-01
121 87 -8.22942178512991784e-01
122 87 -8.22942178512991673e-01
123 87 -8.22942178512991673e-01
124 87 -8.22942178512991562e-01
125 87 -8.22942178512991451e-01
126 87 -8.22942178512991784e-01
127 87 -8.22942178512991562e-01
128 87 -8.22942178512991562e-01
129 87 -8.22942178512991562e-01
130 87 -8.22942178512991784e-01
131 87 -8.22942178512991784e-01
132 87 -8.22942178512991451e-01
133 87 -8.22942178512991340e-01
1 88 -8.50974491469989491e-01
2 88 -8.50974491469989713e-01
3 88 -8.50974491469989824e-01
4 88 -8.50974491469989713e-01
5 88 -8.50974491469989602e-01
6 88 -8.50974491469989824e-01
7 88 -8.50974491469989713e-01
8 88 -8.50974491469990157e-01
9 88 -8.50974491469989824e-01
10 88 -8.50974491469989824e-01
11 88 -8.50974491469989935e-01
12 88 -8.50974491469989824e-01
13 88 -8.50974491469990046e-01
14 88 -8.50974491469989713e-01
15 88 -8.50974491469989602e-01
16 88 -8.50974491469990268e-01
17 88 -8.50974491469990046e-01
18 88 -8.50974491469990046e-01
19 88 -8.50974491469989935e-01
20 88 -8.50974491469989713e-01
21 88 -8.50974491469989713e-01
22 88 -8.50974491469990046e-01
23 88 -8.50974491469989824e-01
24 88 -8.50974491469989935e-01
25 88 -8.50974491469989824e-01
26 88 -8.50974491469989713e-01
27 88 -8.50974491469990046e-01
28 88 -8.50974491469989824e-01
29 88 -8.50974491469989824e-01
30 88 -8.50974491469989824e-01
31 88 -8.50974491469989824e-01
32 88 -8.50974491469989824e-01
33 88 -8.50974491469989602e-01
34 88 -8.50974491469989491e-01
35 88 -8.50974491469989713e-01
36 88 -8.50974491469989824e-01
37 88 -8.50974491469989713e-01
38 88 -8.50974491469989602e-01
39 88 -8.50974491469989824e-01
40 88 -8.50974491469989713e-01
41 88 -8.50974491469990157e-01
42 88 -8.50974491469989824e-01
43 88 -8.50974491469989824e-01
44 88 -8.50974491469989935e-01
45 88 -8.50974491469989824e-01
46 88 -8.50974491469990046e-01
47 88 -8.50974491469989713e-01
48 88 -8.50974491469989602e-01
49 88 -8.50974491469990268e-01
50 88 -8.50974491469990046e-01
51 88 -8.50974491469990046e-01
52 88 -8.50974491469989935e-01
53 88 -8.50974491469989713e-01
54 88 -8.50974491469989713e-01
55 88 -8.50974491469990046e-01
56 88 -8.50974491469989824e-01
57 88 -8.50974491469989935e-01
58 88 -8.50974491469989824e-01
59 88 -8.50974491469989713e-01
60 88 -8.50974491469990046e-01
61 88 -8.50974491469989824e-01
62 88 -8.50974491469989824e-01
63 88 -8.50974491469989824e-01
64 88 -8.50974491469989824e-01
65 88 -8.50974491469989824e-01
66 88 -8.50974491469989602e-01
67 88 -8.50974491469989491e-01
68 88 -8.50974491469989713e-01
69 88 -8.50974491469989824e-01
70 88 -8.50974491469989713e-01
71 88 -8.50974491469989602e-01
72 88 -8.50974491469989824e-01
73 88 -8.50974491469989713e-01
74 88 -8.50974491469990157e-01
75 88 -8.50974491469989824e-01
76 88 -8.50974491469989824e-01
77 88 -8.50974491469989935e-01
78 88 -8.50974491469989824e-01
79 88 -8.50974491469990046e-01
80 88 -8.50974491469989713e-01
81 88 -8.50974491469989602e-01
82 88 -8.50974491469990268e-01
83 88 -8.50974491469990046e-01
84 88 -8.50974491469990046e-01
85 88 -8.50974491469989935e-01
86 88 -8.50974491469989713e-01
87 88 -8.50974491469989713e-01
88 88 -8.50974491469990046e-01
89 88 -8.50974491469989824e-01
90 88 -8.50974491469989935e-01
91 88 -8.50974491469989824e-01
92 88 -8.50974491469989713e-01
93 88 -8.50974491469990046e-01
94 88 -8.50974491469989824e-01
95 88 -8.50974491469989824e-01
96 88 -8.50974491469989824e-01
97 88 -8.50974491469989824e-01
98 88 -8.50974491469989824e-01
99 88 -8.50974491469989602e-01
100 88 -8.50974491469989491e-01
101 88 -8.50974491469989713e-01
102 88 -8.50974491469989824e-01
103 88 -8.50974491469989713e-01
104 88 -8.50974491469989602e-01
105 88 -8.50974491469989824e-01
106 88 -8.50974491469989713e-01
107 88 -8.50974491469990157e-01
108 88 -8.50974491469989824e-01
109 88 -8.50974491469989824e-01
110 88 -8.50974491469989935e-01
111 88 -8.50974491469989824e-01
112 88 -8.50974491469990046e-01
113 88 -8.50974491469989713e-01
114 88 -8.50974491469989602e-01
115 88 -8.50974491469990268e-01
116 88 -8.50974491469990046e-01
117 88 -8.50974491469990046e-01
118 88 -8.50974491469989935e-01
119 88 -8.50974491469989713e-01
120 88 -8.50974491469989713e-01
121 88 -8.50974491469990046e-01
122 88 -8.50974491469989824e-01
123 88 -8.50974491469989935e-01
124 88 -8.50974491469989824e-01
125 88 -8.50974491469989713e-01
126 88 -8.50974491469990046e-01
127 88 -8.50974491469989824e-01
128 88 -8.50974491469989824e-01
129 88 -8.50974491469989824e-01
130 88 -8.50974491469989824e-01
131 88 -8.50974491469989824e-01
132 88 -8.50974491469989602e-01
133 88 -8.50974491469989491e-01
1 89 -8.76627986955611171e-01
2 89 -8.76627986955611394e-01
3 89 -8.76627986955611505e-01
4 89 -8.76627986955611505e-01
5 89 -8.76627986955611171e-01
6 89 -8.76627986955611505e-01
7 89 -8.76627986955611394e-01
8 89 -8.76627986955611838e-01
9 89 -8.76627986955611505e-01
10 89 -8.76627986955611505e-01
11 89 -8.76627986955611505e-01
12 89 -8.76627986955611505e-01
13 89 -8.76627986955611616e-01
14 89 -8.76627986955611282e-01
15 89 -8.76627986955611394e-01
16 89 -8.76627986955611838e-01
17 89 -8.76627986955611616e-01
18 89 -8.76627986955611616e-01
19 89 -8.76627986955611616e-01
20 89 -8.76627986955611505e-01
21 89 -8.76627986955611282e-01
22 89 -8.76627986955611616e-01
23 89 -8.76627986955611394e-01
24 89 -8.76627986955611505e-01
25 89 -8.76627986955611505e-01
26 89 -8.76627986955611282e-01
27 89 -8.76627986955611616e-01
28 89 -8.76627986955611505e-01
29 89 -8.76627986955611394e-01
30 89 -8.76627986955611505e-01
31 89 -8.76627986955611505e-01
32 89 -8.76627986955611394e-01
33 89 -8.76627986955611282e-01
34 89 -8.76627986955611171e-01
35 89 -8.76627986955611394e-01
36 89 -8.76627986955611505e-01
37 89 -8.76627986955611505e-01
38 89 -8.76627986955611171e-01
39 89 -8.76627986955611505e-01
40 89 -8.76627986955611394e-01
41 89 -8.76627986955611838e-01
42 89 -8.76627986955611505e-01
43 89 -8.76627986955611505e-01
44 89 -8.76627986955611505e-01
45 89 -8.76627986955611505e-01
46 89 -8.76627986955611616e-01
47 89 -8.76627986955611282e-01
48 89 -8.76627986955611394e-01
49 89 -8.76627986955611838e-01
50 89 -8.76627986955611616e-01
51 89 -8.76627986955611616e-01
52 89 -8.76627986955611616e-01
53 89 -8.76627986955611505e-01
54 89 -8.76627986955611282e-01
55 89 -8.76627986955611616e-01
56 89 -8.76627986955611394e-01
57 89 -8.76627986955611505e-01
58 89 -8.76627986955611505e-01
59 89 -8.76627986955611282e-01
60 89 -8.76627986955611616e-01
61 89 -8.76627986955611505e-01
62 89 -8.76627986955611394e-01
63 89 -8.76627986955611505e-01
64 89 -8.76627986955611505e-01
65 89 -8.76627986955611394e-01
66 89 -8.76627986955611282e-01
67 89 -8.76627986955611171e-01
68 89 -8.76627986955611394e-01
69 89 -8.76627986955611505e-01
70 89 -8.76627986955611505e-01
71 89 -8.76627986955611171e-01
72 89 -8.76627986955611505e-01
73 89 -8.76627986955611394e-01
74 89 -8.76627986955611838e-01
75 89 -8.76627986955611505e-01
76 89 -8.76627986955611505e-01
77 89 -8.76627986955611505e-01
78 89 -8.76627986955611505e-01
79 89 -8.76627986955611616e-01
80 89 -8.76627986955611282e-01
81 89 -8.76627986955611394e-01
82 89 -8.76627986955611838e-01
83 89 -8.76627986955611616e-01
84 89 -8.76627986955611616e-01
85 89 -8.76627986955611616e-01
86 89 -8.76627986955611505e-01
87 89 -8.76627986955611282e-01
88 89 -8.76627986955611616e-01
89 89 -8.76627986955611394e-01
90 89 -8.76627986955611505e-01
91 89 -8.76627986955611505e-01
92 89 -8.76627986955611282e-01
93 89 -8.76627986955611616e-01
94 89 -8.76627986955611505e-01
95 89 -8.76627986955611394e-01
96 89 -8.76627986955611505e-01
97 89 -8.76627986955611505e-01
98 89 -8.76627986955611394e-01
99 89 -8.76627986955611282e-01
100 89 -8.76627986955611171e-01
101 89 -8.76627986955611394e-01
102 89 -8.76627986955611505e-01
103 89 -8.76627986955611505e-01
104 89 -8.76627986955611171e-01
105 89 -8.76627986955611505e-01
106 89 -8.76627986955611394e-01
107 89 -8.76627986955611838e-01
108 89 -8.76627986955611505e-01
109 89 -8.76627986955611505e-01
110 89 -8.76627986955611505e-01
111 89 -8.76627986955611505e-01
112 89 -8.76627986955611616e-01
113 89 -8.76627986955611282e-01
114 89 -8.76627986955611394e-01
115 89 -8.76627986955611838e-01
116 89 -8.76627986955611616e-01
117 89 -8.76627986955611616e-01
118 89 -8.76627986955611616e-01
119 89 -8.76627986955611505e-01
120 89 -8.76627986955611282e-01
121 89 -8.76627986955611616e-01
122 89 -8.76627986955611394e-01
123 89 -8.76627986955611505e-01
124 89 -8.76627986955611505e-01
125 89 -8.76627986955611282e-01
126 89 -8.76627986955611616e-01
127 89 -8.76627986955611505e-01
128 89 -8.76627986955611394e-01
129 89 -8.76627986955611505e-01
130 89 -8.76627986955611505e-01
131 89 -8.76627986955611394e-01
132 89 -8.76627986955611282e-01
133 89 -8.76627986955611171e-01
1 90 -8.99848849919983595e-01
2 90 -8.99848849919983595e-01
3 90 -8.99848849919983929e-01
4 90 -8.99848849919983818e-01
5 90 -8.99848849919983595e-01
6 90 -8.99848849919983818e-01
7 90 -8.99848849919983818e-01
8 90 -8.99848849919984151e-01
9 90 -8.99848849919983818e-01
10 90 -8.99848849919983818e-01
11 90 -8.99848849919983929e-01
12 90 -8.99848849919983929e-01
13 90 -8.99848849919984040e-01
14 90 -8.99848849919983707e-01
15 90 -8.99848849919983818e-01
16 90 -8.99848849919984151e-01
17 90 -8.99848849919984040e-01
18 90 -8.99848849919984040e-01
19 90 -8.99848849919984151e-01
20 90 -8.99848849919983818e-01
21 90 -8.99848849919983707e-01
22 90 -8.99848849919984040e-01
23 90 -8.99848849919983707e-01
24 90 -8.99848849919983929e-01
25 90 -8.99848849919983929e-01
26 90 -8.99848849919983818e-01
27 90 -8.99848849919984040e-01
28 90 -8.99848849919983818e-01
29 90 -8.99848849919983707e-01
30 90 -8.99848849919983818e-01
31 90 -8.99848849919983818e-01
32 90 -8.99848849919983929e-01
33 90 -8.99848849919983595e-01
34 90 -8.99848849919983595e-01
35 90 -8.99848849919983595e-01
36 90 -8.99848849919983929e-01
37 90 -8.99848849919983818e-01
38 90 -8.99848849919983595e-01
39 90 -8.99848849919983818e-01
40 90 -8.99848849919983818e-01
41 90 -8.99848849919984151e-01
42 90 -8.99848849919983818e-01
43 90 -8.99848849919983818e-01
44 90 -8.99848849919983929e-01
45 90 -8.99848849919983929e-01
46 90 -8.99848849919984040e-01
47 90 -8.99848849919983707e-01
48 90 -8.99848849919983818e-01
49 90 -8.99848849919984151e-01
50 90 -8.99848849919984040e-01
51 90 -8.99848849919984040e-01
52 90 -8.99848849919984151e-01
53 90 -8.99848849919983818e-01
54 90 -8.99848849919983707e-01
55 90 -8.99848849919984040e-01
56 90 -8.99848849919983707e-01
57 90 -8.99848849919983929e-01
58 90 -8.99848849919983929e-01
59 90 -8.99848849919983818e-01
60 90 -8.99848849919984040e-01
61 90 -8.99848849919983818e-01
62 90 -8.99848849919983707e-01
63 90 -8.99848849919983818e-01
64 90 -8.99848849919983818e-01
65 90 -8.99848849919983929e-01
66 90 -8.99848849919983595e-01
67 90 -8.99848849919983595e-01
68 90 -8.99848849919983595e-01
69 90 -8.99848849919983929e-01
70 90 -8.99848849919983818e-01
71 90 -8.99848849919983595e-01
72 90 -8.99848849919983818e-01
73 90 -8.99848849919983818e-01
74 90 -8.99848849919984151e-01
75 90 -8.99848849919983818e-01
76 90 -8.99848849919983818e-01
77 90 -8.99848849919983929e-01
78 90 -8.99848849919983929e-01
79 90 -8.99848849919984040e-01
80 90 -8.99848849919983707e-01
81 90 -8.99848849919983818e-01
82 90 -8.99848849919984151e-01
83 90 -8.99848849919984040e-01
84 90 -8.99848849919984040e-01
85 90 -8.99848849919984151e-01
86 90 -8.99848849919983818e-01
87 90 -8.99848849919983707e-01
88 90 -8.99848849919984040e-01
89 90 -8.99848849919983707e-01
90 90 -8.99848849919983929e-01
91 90 -8.99848849919983929e-01
92 90 -8.99848849919983818e-01
93 90 -8.99848849919984040e-01
94 90 -8.99848849919983818e-01
95 90 -8.99848849919983707e-01
96 90 -8.99848849919983818e-01
97 90 -8.99848849919983818e-01
98 90 -8.99848849919983929e-01
99 90 -8.99848849919983595e-01
100 90 -8.99848849919983595e-01
101 90 -8.99848849919983595e-01
102 90 -8.99848849919983929e-01
103 90 -8.99848849919983818e-01
104 90 -8.99848849919983595e-01
105 90 -8.99848849919983818e-01
106 90 -8.99848849919983818e-01
107 90 -8.99848849919984151e-01
108 90 -8.99848849919983818e-01
109 90 -8.99848849919983818e-01
110 90 -8.99848849919983929e-01
111 90 -8.99848849919983929e-01
112 90 -8.99848849919984040e-01
113 90 -8.99848849919983707e-01
114 90 -8.99848849919983818e-01
115 90 -8.99848849919984151e-01
116 90 -8.99848849919984040e-01
117 90 -8.99848849919984040e-01
118 90 -8.99848849919984151e-01
119 90 -8.99848849919983818e-01
120 90 -8.99848849919983707e-01
121 90 -8.99848849919984040e-01
122 90 -8.99848849919983707e-01
123 90 -8.99848849919983929e-01
124 90 -8.99848849919983929e-01
125 90 -8.99848849919983818e-01
126 90 -8.99848849919984040e-01
127 90 -8.99848849919983818e-01
128 90 -8.99848849919983707e-01
129 90 -8.99848849919983818e-01
130 90 -8.99848849919983818e-01
131 90 -8.99848849919983929e-01
132 90 -8.99848849919983595e-01
133 90 -8.99848849919983595e-01
1 91 -9.20603651537845513e-01
2 91 -9.20603651537845624e-01
3 91 -9.20603651537845846e-01
4 91 -9.20603651537845735e-01
5 91 -9.20603651537845402e-01
6 91 -9.20603651537845846e-01
7 91 -9.20603651537845735e-01
8 91 -9.20603651537846068e-01
9 91 -9.20603651537845624e-01
10 91 -9.20603651537845846e-01
11 91 -9.20603651537845846e-01
12 91 -9.20603651537845957e-01
13 91 -9.20603651537845957e-01
14 91 -9.20603651537845735e-01
15 91 -9.20603651537845846e-01
16 91 -9.20603651537846068e-01
17 91 -9.20603651537846068e-01
18 91 -9.20603651537846068e-01
19 91 -9.20603651537846068e-01
20 91 -9.20603651537845846e-01
21 91 -9.20603651537845735e-01
22 91 -9.20603651537845957e-01
23 91 -9.20603651537845846e-01
24 91 -9.20603651537845846e-01
25 91 -9.20603651537845846e-01
26 91 -9.20603651537845735e-01
27 91 -9.20603651537845957e-01
28 91 -9.20603651537845735e-01
29 91 -9.20603651537845624e-01
30 91 -9.20603651537845735e-01
31 91 -9.20603651537845735e-01
32 91 -9.20603651537845846e-01
33 91 -9.20603651537845624e-01
34 91 -9.20603651537845513e-01
35 91 -9.20603651537845624e-01
36 91 -9.20603651537845846e-01
37 91 -9.20603651537845735e-01
38 91 -9.20603651537845402e-01
39 91 -9.20603651537845846e-01
40 91 -9.20603651537845735e-01
41 91 -9.20603651537846068e-01
42 91 -9.20603651537845624e-01
43 91 -9.20603651537845846e-01
44 91 -9.20603651537845846e-01
45 91 -9.20603651537845957e-01
46 91 -9.20603651537845957e-01
47 91 -9.20603651537845735e-01
48 91 -9.20603651537845846e-01
49 91 -9.20603651537846068e-01
50 91 -9.20603651537846068e-01
51 91 -9.20603651537846068e-01
52 91 -9.20603651537846068e-01
53 91 -9.20603651537845846e-01
54 91 -9.20603651537845735e-01
55 91 -9.20603651537845957e-01
56 91 -9.20603651537845846e-01
57 91 -9.20603651537845846e-01
58 91 -9.20603651537845846e-01
59 91 -9.20603651537845735e-01
60 91 -9.20603651537845957e-01
61 91 -9.20603651537845735e-01
62 91 -9.20603651537845624e-01
63 91 -9.20603651537845735e-01
64 91 -9.20603651537845735e-01
65 91 -9.20603651537845846e-01
66 91 -9.20603651537845624e-01
67 91 -9.20603651537845513e-01
68 91 -9.20603651537845624e-01
69 91 -9.20603651537845846e-01
70 91 -9.20603651537845735e-01
71 91 -9.20603651537845402e-01
72 91 -9.20603651537845846e-01
73 91 -9.20603651537845735e-01
74 91 -9.20603651537846068e-01
75 91 -9.20603651537845624e-01
76 91 -9.20603651537845846e-01
77 91 -9.20603651537845846e-01
78 91 -9.20603651537845957e-01
79 91 -9.20603651537845957e-01
80 91 -9.20603651537845735e-01
81 91 -9.20603651537845846e-01
82 91 -9.20603651537846068e-01
83 91 -9.20603651537846068e-01
84 91 -9.20603651537846068e-01
85 91 -9.20603651537846068e-01
86 91 -9.20603651537845846e-01
87 91 -9.20603651537845735e-01
88 91 -9.20603651537845957e-01
89 91 -9.20603651537845846e-01
90 91 -9.20603651537845846e-01
91 91 -9.20603651537845846e-01
92 91 -9.20603651537845735e-01
93 91 -9.20603651537845957e-01
94 91 -9.20603651537845735e-01
95 91 -9.20603651537845624e-01
96 91 -9.20603651537845735e-01
97 91 -9.20603651537845735e-01
98 91 -9.20603651537845846e-01
99 91 -9.20603651537845624e-01
100 91 -9.20603651537845513e-01
101 91 -9.20603651537845624e-01
102 91 -9.20603651537845846e-01
103 91 -9.20603651537845735e-01
104 91 -9.20603651537845402e-01
105 91 -9.20603651537845846e-01
106 91 -9.20603651537845735e-01
107 91 -9.20603651537846068e-01
108 91 -9.20603651537845624e-01
109 91 -9.20603651537845846e-01
110 91 -9.20603651537845846e-01
111 91 -9.20603651537845957e-01
112 91 -9.20603651537845957e-01
113 91 -9.20603651537845735e-01
114 91 -9.20603651537845846e-01
115 91 -9.20603651537846068e-01
116 91 -9.20603651537846068e-01
117 91 -9.20603651537846068e-01
118 91 -9.20603651537846068e-01
119 91 -9.20603651537845846e-01
120 91 -9.20603651537845735e-01
121 91 -9.20603651537845957e-01
122 91 -9.20603651537845846e-01
123 91 -9.20603651537845846e-01
124 91 -9.20603651537845846e-01
125 91 -9.20603651537845735e-01
126 91 -9.20603651537845957e-01
127 91 -9.20603651537845735e-01
128 91 -9.20603651537845624e-01
129 91 -9.20603651537845735e-01
130 91 -9.20603651537845735e-01
131 91 -9.20603651537845846e-01
132 91 -9.20603651537845624e-01
133 91 -9.20603651537845513e-01
1 92 -9.38878994624438246e-01
2 92 -9.38878994624438357e-01
3 92 -9.38878994624438579e-01
4 92 -9.38878994624438468e-01
5 92 -9.38878994624438135e-01
6 92 -9.38878994624438579e-01
7 92 -9.38878994624438468e-01
8 92 -9.38878994624438690e-01
9 92 -9.38878994624438357e-01
10 92 -9.38878994624438468e-01
11 92 -9.38878994624438579e-01
12 92 -9.38878994624438579e-01
13 92 -9.38878994624438579e-01
14 92 -9.38878994624438468e-01
15 92 -9.38878994624438579e-01
16 92 -9.38878994624438690e-01
17 92 -9.38878994624438801e-01
18 92 -9.38878994624438801e-01
19 92 -9.38878994624438690e-01
20 92 -9.38878994624438579e-01
21 92 -9.38878994624438468e-01
22 92 -9.38878994624438579e-01
23 92 -9.38878994624438468e-01
24 92 -9.38878994624438579e-01
25 92 -9.38878994624438468e-01
26 92 -9.38878994624438468e-01
27 92 -9.38878994624438579e-01
28 92 -9.38878994624438579e-01
29 92 -9.38878994624438357e-01
30 92 -9.38878994624438468e-01
31 92 -9.38878994624438468e-01
32 92 -9.38878994624438579e-01
33 92 -9.38878994624438357e-01
34 92 -9.38878994624438246e-01
35 92 -9.38878994624438357e-01
36 92 -9.38878994624438579e-01
37 92 -9.38878994624438468e-01
38 92 -9.38878994624438135e-01
39 92 -9.38878994624438579e-01
40 92 -9.38878994624438468e-01
41 92 -9.38878994624438690e-01
42 92 -9.38878994624438357e-01
43 92 -9.38878994624438468e-01
44 92 -9.38878994624438579e-01
45 92 -9.38878994624438579e-01
46 92 -9.38878994624438579e-01
47 92 -9.38878994624438468e-01
48 92 -9.38878994624438579e-01
49 92 -9.38878994624438690e-01
50 92 -9.38878994624438801e-01
51 92 -9.38878994624438801e-01
52 92 -9.38878994624438690e-01
53 92 -9.38878994624438579e-01
54 92 -9.38878994624438468e-01
55 92 -9.38878994624438579e-01
56 92 -9.38878994624438468e-01
57 92 -9.38878994624438579e-01
58 92 -9.38878994624438468e-01
59 92 -9.38878994624438468e-01
60 92 -9.38878994624438579e-01
61 92 -9.38878994624438579e-01
62 92 -9.38878994624438357e-01
63 92 -9.38878994624438468e-01
64 92 -9.38878994624438468e-01
65 92 -9.38878994624438579e-01
66 92 -9.38878994624438357e-01
67 92 -9.38878994624438246e-01
68 92 -9.38878994624438357e-01
69 92 -9.38878994624438579e-01
70 92 -9.38878994624438468e-01
71 92 -9.38878994624438135e-01
72 92 -9.38878994624438579e-01
73 92 -9.38878994624438468e-01
74 92 -9.38878994624438690e-01
75 92 -9.38878994624438357e-01
76 92 -9.38878994624438468e-01
77 92 -9.38878994624438579e-01
78 92 -9.38878994624438579e-01
79 92 -9.38878994624438579e-01
80 92 -9.38878994624438468e-01
81 92 -9.38878994624438579e-01
82 92 -9.38878994624438690e-01
83 92 -9.38878994624438801e-01
84 92 -9.38878994624438801e-01
85 92 -9.38878994624438690e-01
86 92 -9.38878994624438579e-01
87 92 -9.38878994624438468e-01
88 92 -9.38878994624438579e-01
89 92 -9.38878994624438468e-01
90 92 -9.38878994624438579e-01
91 92 -9.38878994624438468e-01
92 92 -9.38878994624438468e-01
93 92 -9.38878994624438579e-01
94 92 -9.38878994624438579e-01
95 92 -9.38878994624438357e-01
96 92 -9.38878994624438468e-01
97 92 -9.38878994624438468e-01
98 92 -9.38878994624438579e-01
99 92 -9.38878994624438357e-01
100 92 -9.38878994624438246e-01
101 92 -9.38878994624438357e-01
102 92 -9.38878994624438579e-01
103 92 -9.38878994624438468e-01
104 92 -9.38878994624438135e-01
105 92 -9.38878994624438579e-01
106 92 -9.38878994624438468e-01
107 92 -9.38878994624438690e-01
108 92 -9.38878994624438357e-01
109 92 -9.38878994624438468e-01
110 92 -9.38878994624438579e-01
111 92 -9.38878994624438579e-01
112 92 -9.38878994624438579e-01
113 92 -9.38878994624438468e-01
114 92 -9.38878994624438579e-01
115 92 -9.38878994624438690e-01
116 92 -9.38878994624438801e-01
117 92 -9.38878994624438801e-01
118 92 -9.38878994624438690e-01
119 92 -9.38878994624438579e-01
120 92 -9.38878994624438468e-01
121 92 -9.38878994624438579e-01
122 92 -9.38878994624438468e-01
123 92 -9.38878994624438579e-01
124 92 -9.38878994624438468e-01
125 92 -9.38878994624438468e-01
126 92 -9.38878994624438579e-01
127 92 -9.38878994624438579e-01
128 92 -9.38878994624438357e-01
129 92 -9.38878994624438468e-01
130 92 -9.38878994624438468e-01
131 92 -9.38878994624438579e-01
132 92 -9.38878994624438357e-01
133 92 -9.38878994624438246e-01
1 93 -9.54680796685007160e-01
2 93 -9.54680796685007271e-01
3 93 -9.54680796685007382e-01
4 93 -9.54680796685007271e-01
5 93 -9.54680796685007049e-01
6 93 -9.54680796685007382e-01
7 93 -9.54680796685007160e-01
8 93 -9.54680796685007382e-01
9 93 -9.54680796685007160e-01
10 93 -9.54680796685007382e-01
11 93 -9.54680796685007493e-01
12 93 -9.54680796685007271e-01
13 93 -9.54680796685007493e-01
14 93 -9.54680796685007271e-01
15 93 -9.54680796685007493e-01
16 93 -9.54680796685007493e-01
17 93 -9.54680796685007715e-01
18 93 -9.54680796685007715e-01
19 93 -9.54680796685007493e-01
20 93 -9.54680796685007493e-01
21 93 -9.54680796685007271e-01
22 93 -9.54680796685007493e-01
23 93 -9.54680796685007271e-01
24 93 -9.54680796685007493e-01
25 93 -9.54680796685007382e-01
26 93 -9.54680796685007382e-01
27 93 -9.54680796685007382e-01
28 93 -9.54680796685007382e-01
29 93 -9.54680796685007160e-01
30 93 -9.54680796685007271e-01
31 93 -9.54680796685007271e-01
32 93 -9.54680796685007493e-01
33 93 -9.54680796685007271e-01
34 93 -9.54680796685007160e-01
35 93 -9.54680796685007271e-01
36 93 -9.54680796685007382e-01
37 93 -9.54680796685007271e-01
38 93 -9.54680796685007049e-01
39 93 -9.54680796685007382e-01
40 93 -9.54680796685007160e-01
41 93 -9.54680796685007382e-01
42 93 -9.54680796685007160e-01
43 93 -9.54680796685007382e-01
44 93 -9.54680796685007493e-01
45 93 -9.54680796685007271e-01
46 93 -9.54680796685007493e-01
47 93 -9.54680796685007271e-01
48 93 -9.54680796685007493e-01
49 93 -9.54680796685007493e-01
50 93 -9.54680796685007715e-01
51 93 -9.54680796685007715e-01
52 93 -9.54680796685007493e-01
53 93 -9.54680796685007493e-01
54 93 -9.54680796685007271e-01
55 93 -9.54680796685007493e-01
56 93 -9.54680796685007271e-01
57 93 -9.54680796685007493e-01
58 93 -9.54680796685007382e-01
59 93 -9.54680796685007382e-01
60 93 -9.54680796685007382e-01
61 93 -9.54680796685007382e-01
62 93 -9.54680796685007160e-01
63 93 -9.54680796685007271e-01
64 93 -9.54680796685007271e-01
65 93 -9.54680796685007493e-01
66 93 -9.54680796685007271e-01
67 93 -9.54680796685007160e-01
68 93 -9.54680796685007271e-01
69 93 -9.54680796685007382e-01
70 93 -9.54680796685007271e-01
71 93 -9.54680796685007049e-01
72 93 -9.54680796685007382e-01
73 93 -9.54680796685007160e-01
74 93 -9.54680796685007382e-01
75 93 -9.54680796685007160e-01
76 93 -9.54680796685007382e-01
77 93 -9.54680796685007493e-01
78 93 -9.54680796685007271e-01
79 93 -9.54680796685007493e-01
80 93 -9.54680796685007271e-01
81 93 -9.54680796685007493e-01
82 93 -9.54680796685007493e-01
83 93 -9.54680796685007715e-01
84 93 -9.54680796685007715e-01
85 93 -9.54680796685007493e-01
86 93 -9.54680796685007493e-01
87 93 -9.54680796685007271e-01
88 93 -9.54680796685007493e-01
89 93 -9.54680796685007271e-01
90 93 -9.54680796685007493e-01
91 93 -9.54680796685007382e-01
92 93 -9.54680796685007382e-01
93 93 -9.54680796685007382e-01
94 93 -9.54680796685007382e-01
95 93 -9.54680796685007160e-01
96 93 -9.54680796685007271e-01
97 93 -9.54680796685007271e-01
98 93 -9.54680796685007493e-01
99 93 -9.54680796685007271e-01
100 93 -9.54680796685007160e-01
101 93 -9.54680796685007271e-01
102 93 -9.54680796685007382e-01
103 93 -9.54680796685007271e-01
104 93 -9.54680796685007049e-01
105 93 -9.54680796685007382e-01
106 93 -9.54680796685007160e-01
107 93 -9.54680796685007382e-01
108 93 -9.54680796685007160e-01
109 93 -9.54680796685007382e-01
110 93 -9.54680796685007493e-01
111 93 -9.54680796685007271e-01
112 93 -9.54680796685007493e-01
113 93 -9.54680796685007271e-01
114 93 -9.54680796685007493e-01
115 93 -9.54680796685007493e-01
116 93 -9.54680796685007715e-01
117 93 -9.54680796685007715e-01
118 93 -9.54680796685007493e-01
119 93 -9.54680796685007493e-01
120 93 -9.54680796685007271e-01
121 93 -9.54680796685007493e-01
122 93 -9.54680796685007271e-01
123 93 -9.54680796685007493e-01
124 93 -9.54680796685007382e-01
125 93 -9.54680796685007382e-01
126 93 -9.54680796685007382e-01
127 93 -9.54680796685007382e-01
128 93 -9.54680796685007160e-01
129 93 -9.54680796685007271e-01
130 93 -9.54680796685007271e-01
131 93 -9.54680796685007493e-01
132 93 -9.54680796685007271e-01
133 93 -9.54680796685007160e-01
1 94 -9.68033251559624053e-01
2 94 -9.68033251559624164e-01
3 94 -9.68033251559624275e-01
4 94 -9.68033251559624164e-01
5 94 -9.68033251559623831e-01
6 94 -9.68033251559624164e-01
7 94 -9.68033251559624053e-01
8 94 -9.68033251559624164e-01
9 94 -9.68033251559624053e-01
10 94 -9.68033251559624164e-01
11 94 -9.68033251559624275e-01
12 94 -9.68033251559624053e-01
13 94 -9.68033251559624275e-01
14 94 -9.68033251559623942e-01
15 94 -9.68033251559624275e-01
16 94 -9.68033251559624275e-01
17 94 -9.68033251559624497e-01
18 94 -9.68033251559624497e-01
19 94 -9.68033251559624275e-01
20 94 -9.68033251559624275e-01
21 94 -9.68033251559623942e-01
22 94 -9.68033251559624275e-01
23 94 -9.68033251559624275e-01
24 94 -9.68033251559624275e-01
25 94 -9.68033251559624275e-01
26 94 -9.68033251559624164e-01
27 94 -9.68033251559624164e-01
28 94 -9.68033251559624164e-01
29 94 -9.68033251559624164e-01
30 94 -9.68033251559624164e-01
31 94 -9.68033251559624164e-01
32 94 -9.68033251559624386e-01
33 94 -9.68033251559624164e-01
34 94 -9.68033251559624053e-01
35 94 -9.68033251559624164e-01
36 94 -9.68033251559624275e-01
37 94 -9.68033251559624164e-01
38 94 -9.68033251559623831e-01
39 94 -9.68033251559624164e-01
40 94 -9.68033251559624053e-01
41 94 -9.68033251559624164e-01
42 94 -9.68033251559624053e-01
43 94 -9.68033251559624164e-01
44 94 -9.68033251559624275e-01
45 94 -9.68033251559624053e-01
46 94 -9.68033251559624275e-01
47 94 -9.68033251559623942e-01
48 94 -9.68033251559624275e-01
49 94 -9.68033251559624275e-01
50 94 -9.68033251559624497e-01
51 94 -9.68033251559624497e-01
52 94 -9.68033251559624275e-01
53 94 -9.68033251559624275e-01
54 94 -9.68033251559623942e-01
55 94 -9.68033251559624275e-01
56 94 -9.68033251559624275e-01
57 94 -9.68033251559624275e-01
58 94 -9.68033251559624275e-01
59 94 -9.68033251559624164e-01
60 94 -9.68033251559624164e-01
61 94 -9.68033251559624164e-01
62 94 -9.68033251559624164e-01
63 94 -9.68033251559624164e-01
64 94 -9.68033251559624164e-01
65 94 -9.68033251559624386e-01
66 94 -9.68033251559624164e-01
67 94 -9.68033251559624053e-01
68 94 -9.68033251559624164e-01
69 94 -9.68033251559624275e-01
70 94 -9.68033251559624164e-01
71 94 -9.68033251559623831e-01
72 94 -9.68033251559624164e-01
73 94 -9.68033251559624053e-01
74 94 -9.68033251559624164e-01
75 94 -9.68033251559624053e-01
76 94 -9.68033251559624164e-01
77 94 -9.68033251559624275e-01
78 94 -9.68033251559624053e-01
79 94 -9.68033251559624275e-01
80 94 -9.68033251559623942e-01
81 94 -9.68033251559624275e-01
82 94 -9.68033251559624275e-01
83 94 -9.68033251559624497e-01
84 94 -9.68033251559624497e-01
85 94 -9.68033251559624275e-01
86 94 -9.68033251559624275e-01
87 94 -9.68033251559623942e-01
88 94 -9.68033251559624275e-01
89 94 -9.68033251559624275e-01
90 94 -9.68033251559624275e-01
91 94 -9.68033251559624275e-01
92 94 -9.68033251559624164e-01
93 94 -9.68033251559624164e-01
94 94 -9.68033251559624164e-01
95 94 -9.68033251559624164e-01
96 94 -9.68033251559624164e-01
97 94 -9.68033251559624164e-01
98 94 -9.68033251559624386e-01
99 94 -9.68033251559624164e-01
100 94 -9.68033251559624053e-01
101 94 -9.68033251559624164e-01
102 94 -9.68033251559624275e-01
103 94 -9.68033251559624164e-01
104 94 -9.68033251559623831e-01
105 94 -9.68033251559624164e-01
106 94 -9.68033251559624053e-01
107 94 -9.68033251559624164e-01
108 94 -9.68033251559624053e-01
109 94 -9.68033251559624164e-01
110 94 -9.68033251559624275e-01
111 94 -9.68033251559624053e-01
112 94 -9.68033251559624275e-01
113 94 -9.68033251559623942e-01
114 94 -9.68033251559624275e-01
115 94 -9.68033251559624275e-01
116 94 -9.68033251559624497e-01
117 94 -9.68033251559624497e-01
118 94 -9.68033251559624275e-01
119 94 -9.68033251559624275e-01
120 94 -9.68033251559623942e-01
121 94 -9.68033251559624275e-01
122 94 -9.68033251559624275e-01
123 94 -9.68033251559624275e-01
124 94 -9.68033251559624275e-01
125 94 -9.68033251559624164e-01
126 94 -9.68033251559624164e-01
127 94 -9.68033251559624164e-01
128 94 -9.68033251559624164e-01
129 94 -9.68033251559624164e-01
130 94 -9.68033251559624164e-01
131 94 -9.68033251559624386e-01
132 94 -9.68033251559624164e-01
133 94 -9.68033251559624053e-01
1 95 -9.78977518680848591e-01
2 95 -9.78977518680848813e-01
3 95 -9.78977518680848813e-01
4 95 -9.78977518680848813e-01
5 95 -9.78977518680848480e-01
6 95 -9.78977518680848591e-01
7 95 -9.78977518680848591e-01
8 95 -9.78977518680848702e-01
9 95 -9.78977518680848480e-01
10 95 -9.78977518680848702e-01
11 95 -9.78977518680848813e-01
12 95 -9.78977518680848702e-01
13 95 -9.78977518680848702e-01
14 95 -9.78977518680848591e-01
15 95 -9.78977518680848702e-01
16 95 -9.78977518680848924e-01
17 95 -9.78977518680849035e-01
18 95 -9.78977518680849035e-01
19 95 -9.78977518680848924e-01
20 95 -9.78977518680848813e-01
21 95 -9.78977518680848591e-01
22 95 -9.78977518680848702e-01
23 95 -9.78977518680848702e-01
24 95 -9.78977518680848813e-01
25 95 -9.78977518680848813e-01
26 95 -9.78977518680848591e-01
27 95 -9.78977518680848702e-01
28 95 -9.78977518680848702e-01
29 95 -9.78977518680848591e-01
30 95 -9.78977518680848702e-01
31 95 -9.78977518680848702e-01
32 95 -9.78977518680848813e-01
33 95 -9.78977518680848813e-01
34 95 -9.78977518680848591e-01
35 95 -9.78977518680848813e-01
36 95 -9.78977518680848813e-01
37 95 -9.78977518680848813e-01
38 95 -9.78977518680848480e-01
39 95 -9.78977518680848591e-01
40 95 -9.78977518680848591e-01
41 95 -9.78977518680848702e-01
42 95 -9.78977518680848480e-01
43 95 -9.78977518680848702e-01
44 95 -9.78977518680848813e-01
45 95 -9.78977518680848702e-01
46 95 -9.78977518680848702e-01
47 95 -9.78977518680848591e-01
48 95 -9.78977518680848702e-01
49 95 -9.78977518680848924e-01
50 95 -9.78977518680849035e-01
51 95 -9.78977518680849035e-01
52 95 -9.78977518680848924e-01
53 95 -9.78977518680848813e-01
54 95 -9.78977518680848591e-01
55 95 -9.78977518680848702e-01
56 95 -9.78977518680848702e-01
57 95 -9.78977518680848813e-01
58 95 -9.78977518680848813e-01
59 95 -9.78977518680848591e-01
60 95 -9.78977518680848702e-01
61 95 -9.78977518680848702e-01
62 95 -9.78977518680848591e-01
63 95 -9.78977518680848702e-01
64 95 -9.78977518680848702e-01
65 95 -9.78977518680848813e-01
66 95 -9.78977518680848813e-01
67 95 -9.78977518680848591e-01
68 95 -9.78977518680848813e-01
69 95 -9.78977518680848813e-01
70 95 -9.78977518680848813e-01
71 95 -9.78977518680848480e-01
72 95 -9.78977518680848591e-01
73 95 -9.78977518680848591e-01
74 95 -9.78977518680848702e-01
75 95 -9.78977518680848480e-01
76 95 -9.78977518680848702e-01
77 95 -9.78977518680848813e-01
78 95 -9.78977518680848702e-01
79 95 -9.78977518680848702e-01
80 95 -9.78977518680848591e-01
81 95 -9.78977518680848702e-01
82 95 -9.78977518680848924e-01
83 95 -9.78977518680849035e-01
84 95 -9.78977518680849035e-01
85 95 -9.78977518680848924e-01
86 95 -9.78977518680848813e-01
87 95 -9.78977518680848591e-01
88 95 -9.78977518680848702e-01
89 95 -9.78977518680848702e-01
90 95 -9.78977518680848813e-01
91 95 -9.78977518680848813e-01
92 95 -9.78977518680848591e-01
93 95 -9.78977518680848702e-01
94 95 -9.78977518680848702e-01
95 95 -9.78977518680848591e-01
96 95 -9.78977518680848702e-01
97 95 -9.78977518680848702e-01
98 95 -9.78977518680848813e-01
99 95 -9.78977518680848813e-01
100 95 -9.78977518680848591e-01
101 95 -9.78977518680848813e-01
102 95 -9.78977518680848813e-01
103 95 -9.78977518680848813e-01
104 95 -9.78977518680848480e-01
105 95 -9.78977518680848591e-01
106 95 -9.78977518680848591e-01
107 95 -9.78977518680848702e-01
108 95 -9.78977518680848480e-01
109 95 -9.78977518680848702e-01
110 95 -9.78977518680848813e-01
111 95 -9.78977518680848702e-01
112 95 -9.78977518680848702e-01
113 95 -9.78977518680848591e-01
114 95 -9.78977518680848702e-01
115 95 -9.78977518680848924e-01
116 95 -9.78977518680849035e-01
117 95 -9.78977518680849035e-01
118 95 -9.78977518680848924e-01
119 95 -9.78977518680848813e-01
120 95 -9.78977518680848591e-01
121 95 -9.78977518680848702e-01
122 95 -9.78977518680848702e-01
123 95 -9.78977518680848813e-01
124 95 -9.78977518680848813e-01
125 95 -9.78977518680848591e-01
126 95 -9.78977518680848702e-01
127 95 -9.78977518680848702e-01
128 95 -9.78977518680848591e-01
129 95 -9.78977518680848702e-01
130 95 -9.78977518680848702e-01
131 95 -9.78977518680848813e-01
132 95 -9.78977518680848813e-01
133 95 -9.78977518680848591e-01
1 96 -9.87570194172242566e-01
2 96 -9.87570194172242677e-01
3 96 -9.87570194172242566e-01
4 96 -9.87570194172242677e-01
5 96 -9.87570194172242455e-01
6 96 -9.87570194172242455e-01
7 96 -9.87570194172242566e-01
8 96 -9.87570194172242566e-01
9 96 -9.87570194172242455e-01
10 96 -9.87570194172242677e-01
11 96 -9.87570194172242788e-01
12 96 -9.87570194172242566e-01
13 96 -9.87570194172242566e-01
14 96 -9.87570194172242455e-01
15 96 -9.87570194172242566e-01
16 96 -9.87570194172242677e-01
17 96 -9.87570194172242899e-01
18 96 -9.87570194172242899e-01
19 96 -9.87570194172242677e-01
20 96 -9.87570194172242677e-01
21 96 -9.87570194172242455e-01
22 96 -9.87570194172242566e-01
23 96 -9.87570194172242566e-01
24 96 -9.87570194172242788e-01
25 96 -9.87570194172242677e-01
26 96 -9.87570194172242455e-01
27 96 -9.87570194172242566e-01
28 96 -9.87570194172242566e-01
29 96 -9.87570194172242455e-01
30 96 -9.87570194172242677e-01
31 96 -9.87570194172242566e-01
32 96 -9.87570194172242566e-01
33 96 -9.87570194172242677e-01
34 96 -9.87570194172242566e-01
35 96 -9.87570194172242677e-01
36 96 -9.87570194172242566e-01
37 96 -9.87570194172242677e-01
38 96 -9.87570194172242455e-01
39 96 -9.87570194172242455e-01
40 96 -9.87570194172242566e-01
41 96 -9.87570194172242566e-01
42 96 -9.87570194172242455e-01
43 96 -9.87570194172242677e-01
44 96 -9.87570194172242788e-01
45 96 -9.87570194172242566e-01
46 96 -9.87570194172242566e-01
47 96 -9.87570194172242455e-01
48 96 -9.87570194172242566e-01
49 96 -9.87570194172242677e-01
50 96 -9.87570194172242899e-01
51 96 -9.87570194172242899e-01
52 96 -9.87570194172242677e-01
53 96 -9.87570194172242677e-01
54 96 -9.87570194172242455e-01
55 96 -9.87570194172242566e-01
56 96 -9.87570194172242566e-01
57 96 -9.87570194172242788e-01
58 96 -9.87570194172242677e-01
59 96 -9.87570194172242455e-01
60 96 -9.87570194172242566e-01
61 96 -9.87570194172242566e-01
62 96 -9.87570194172242455e-01
63 96 -9.87570194172242677e-01
64 96 -9.87570194172242566e-01
65 96 -9.87570194172242566e-01
66 96 -9.87570194172242677e-01
67 96 -9.87570194172242566e-01
68 96 -9.87570194172242677e-01
69 96 -9.87570194172242566e-01
70 96 -9.87570194172242677e-01
71 96 -9.87570194172242455e-01
72 96 -9.87570194172242455e-01
73 96 -9.87570194172242566e-01
74 96 -9.87570194172242566e-01
75 96 -9.87570194172242455e-01
76 96 -9.87570194172242677e-01
77 96 -9.87570194172242788e-01
78 96 -9.87570194172242566e-01
79 96 -9.87570194172242566e-01
80 96 -9.87570194172242455e-01
81 96 -9.87570194172242566e-01
82 96 -9.87570194172242677e-01
83 96 -9.87570194172242899e-01
84 96 -9.87570194172242899e-01
85 96 -9.87570194172242677e-01
86 96 -9.87570194172242677e-01
87 96 -9.87570194172242455e-01
88 96 -9.87570194172242566e-01
89 96 -9.87570194172242566e-01
90 96 -9.87570194172242788e-01
91 96 -9.87570194172242677e-01
92 96 -9.87570194172242455e-01
93 96 -9.87570194172242566e-01
94 96 -9.87570194172242566e-01
95 96 -9.87570194172242455e-01
96 96 -9.87570194172242677e-01
97 96 -9.87570194172242566e-01
98 96 -9.87570194172242566e-01
99 96 -9.87570194172242677e-01
100 96 -9.87570194172242566e-01
101 96 -9.87570194172242677e-01
102 96 -9.87570194172242566e-01
103 96 -9.87570194172242677e-01
104 96 -9.87570194172242455e-01
105 96 -9.87570194172242455e-01
106 96 -9.87570194172242566e-01
107 96 -9.87570194172242566e-01
108 96 -9.87570194172242455e-01
109 96 -9.87570194172242677e-01
110 96 -9.87570194172242788e-01
111 96 -9.87570194172242566e-01
112 96 -9.87570194172242566e-01
113 96 -9.87570194172242455e-01
114 96 -9.87570194172242566e-01
115 96 -9.87570194172242677e-01
116 96 -9.87570194172242899e-01
117 96 -9.87570194172242899e-01
118 96 -9.87570194172242677e-01
119 96 -9.87570194172242677e-01
120 96 -9.87570194172242455e-01
121 96 -9.87570194172242566e-01
122 96 -9.87570194172242566e-01
123 96 -9.87570194172242788e-01
124 96 -9.87570194172242677e-01
125 96 -9.87570194172242455e-01
126 96 -9.87570194172242566e-01
127 96 -9.87570194172242566e-01
128 96 -9.87570194172242455e-01
129 96 -9.87570194172242677e-01
130 96 -9.87570194172242566e-01
131 96 -9.87570194172242566e-01
132 96 -9.87570194172242677e-01
133 96 -9.87570194172242566e-01
1 97 -9.93881620389746590e-01
2 97 -9.93881620389746701e-01
3 97 -9.93881620389746590e-01
4 97 -9.93881620389746701e-01
5 97 -9.93881620389746478e-01
6 97 -9.93881620389746478e-01
7 97 -9.93881620389746590e-01
8 97 -9.93881620389746590e-01
9 97 -9.93881620389746478e-01
10 97 -9.93881620389746590e-01
11 97 -9.93881620389746701e-01
12 97 -9.93881620389746590e-01
13 97 -9.93881620389746478e-01
14 97 -9.93881620389746478e-01
15 97 -9.93881620389746590e-01
16 97 -9.93881620389746701e-01
17 97 -9.93881620389746812e-01
18 97 -9.93881620389746812e-01
19 97 -9.93881620389746701e-01
20 97 -9.93881620389746590e-01
21 97 -9.93881620389746478e-01
22 97 -9.93881620389746478e-01
23 97 -9.93881620389746590e-01
24 97 -9.93881620389746701e-01
25 97 -9.93881620389746590e-01
26 97 -9.93881620389746478e-01
27 97 -9.93881620389746590e-01
28 97 -9.93881620389746590e-01
29 97 -9.93881620389746478e-01
30 97 -9.93881620389746590e-01
31 97 -9.93881620389746590e-01
32 97 -9.93881620389746590e-01
33 97 -9.93881620389746701e-01
34 97 -9.93881620389746590e-01
35 97 -9.93881620389746701e-01
36 97 -9.93881620389746590e-01
37 97 -9.93881620389746701e-01
38 97 -9.93881620389746478e-01
39 97 -9.93881620389746478e-01
40 97 -9.93881620389746590e-01
41 97 -9.93881620389746590e-01
42 97 -9.93881620389746478e-01
43 97 -9.93881620389746590e-01
44 97 -9.93881620389746701e-01
45 97 -9.93881620389746590e-01
46 97 -9.93881620389746478e-01
47 97 -9.93881620389746478e-01
48 97 -9.93881620389746590e-01
49 97 -9.93881620389746701e-01
50 97 -9.93881620389746812e-01
51 97 -9.93881620389746812e-01
52 97 -9.93881620389746701e-01
53 97 -9.93881620389746590e-01
54 97 -9.93881620389746478e-01
55 97 -9.93881620389746478e-01
56 97 -9.93881620389746590e-01
57 97 -9.93881620389746701e-01
58 97 -9.93881620389746590e-01
59 97 -9.93881620389746478e-01
60 97 -9.93881620389746590e-01
61 97 -9.93881620389746590e-01
62 97 -9.93881620389746478e-01
63 97 -9.93881620389746590e-01
64 97 -9.93881620389746590e-01
65 97 -9.93881620389746590e-01
66 97 -9.93881620389746701e-01
67 97 -9.93881620389746590e-01
68 97 -9.93881620389746701e-01
69 97 -9.93881620389746590e-01
70 97 -9.93881620389746701e-01
71 97 -9.93881620389746478e-01
72 97 -9.93881620389746478e-01
73 97 -9.93881620389746590e-01
74 97 -9.93881620389746590e-01
75 97 -9.93881620389746478e-01
76 97 -9.93881620389746590e-01
77 97 -9.93881620389746701e-01
78 97 -9.93881620389746590e-01
79 97 -9.93881620389746478e-01
80 97 -9.93881620389746478e-01
81 97 -9.93881620389746590e-01
82 97 -9.93881620389746701e-01
83 97 -9.93881620389746812e-01
84 97 -9.93881620389746812e-01
85 97 -9.93881620389746701e-01
86 97 -9.93881620389746590e-01
87 97 -9.93881620389746478e-01
88 97 -9.93881620389746478e-01
89 97 -9.93881620389746590e-01
90 97 -9.93881620389746701e-01
91 97 -9.93881620389746590e-01
92 97 -9.93881620389746478e-01
93 97 -9.93881620389746590e-01
94 97 -9.93881620389746590e-01
95 97 -9.93881620389746478e-01
96 97 -9.93881620389746590e-01
97 97 -9.93881620389746590e-01
98 97 -9.93881620389746590e-01
99 97 -9.93881620389746701e-01
100 97 -9.93881620389746590e-01
101 97 -9.93881620389746701e-01
102 97 -9.93881620389746590e-01
103 97 -9.93881620389746701e-01
104 97 -9.93881620389746478e-01
105 97 -9.93881620389746478e-01
106 97 -9.93881620389746590e-01
107 97 -9.93881620389746590e-01
108 97 -9.93881620389746478e-01
109 97 -9.93881620389746590e-01
110 97 -9.93881620389746701e-01
111 97 -9.93881620389746590e-01
112 97 -9.93881620389746478e-01
113 97 -9.93881620389746478e-01
114 97 -9.93881620389746590e-01
115 97 -9.93881620389746701e-01
116 97 -9.93881620389746812e-01
117 97 -9.93881620389746812e-01
118 97 -9.93881620389746701e-01
119 97 -9.93881620389746590e-01
120 97 -9.93881620389746478e-01
121 97 -9.93881620389746478e-01
122 97 -9.93881620389746590e-01
123 97 -9.93881620389746701e-01
124 97 -9.93881620389746590e-01
125 97 -9.93881620389746478e-01
126 97 -9.93881620389746590e-01
127 97 -9.93881620389746590e-01
128 97 -9.93881620389746478e-01
129 97 -9.93881620389746590e-01
130 97 -9.93881620389746590e-01
131 97 -9.93881620389746590e-01
132 97 -9.93881620389746701e-01
133 97 -9.93881620389746590e-01
1 98 -9.97994090236534293e-01
2 98 -9.97994090236534293e-01
3 98 -9.97994090236534293e-01
4 98 -9.97994090236534404e-01
5 98 -9.97994090236534293e-01
6 98 -9.97994090236534293e-01
7 98 -9.97994090236534293e-01
8 98 -9.97994090236534293e-01
9 98 -9.97994090236534181e-01
10 98 -9.97994090236534181e-01
11 98 -9.97994090236534293e-01
12 98 -9.97994090236534181e-01
13 98 -9.97994090236534181e-01
14 98 -9.97994090236534181e-01
15 98 -9.97994090236534293e-01
16 98 -9.97994090236534293e-01
17 98 -9.97994090236534404e-01
18 98 -9.97994090236534404e-01
19 98 -9.97994090236534293e-01
20 98 -9.97994090236534293e-01
21 98 -9.97994090236534181e-01
22 98 -9.97994090236534181e-01
23 98 -9.97994090236534181e-01
24 98 -9.97994090236534293e-01
25 98 -9.97994090236534181e-01
26 98 -9.97994090236534181e-01
27 98 -9.97994090236534293e-01
28 98 -9.97994090236534293e-01
29 98 -9.97994090236534181e-01
30 98 -9.97994090236534293e-01
31 98 -9.97994090236534293e-01
32 98 -9.97994090236534293e-01
33 98 -9.97994090236534293e-01
34 98 -9.97994090236534293e-01
35 98 -9.97994090236534293e-01
36 98 -9.97994090236534293e-01
37 98 -9.97994090236534404e-01
38 98 -9.97994090236534293e-01
39 98 -9.97994090236534293e-01
40 98 -9.97994090236534293e-01
41 98 -9.97994090236534293e-01
42 98 -9.97994090236534181e-01
43 98 -9.97994090236534181e-01
44 98 -9.97994090236534293e-01
45 98 -9.97994090236534181e-01
46 98 -9.97994090236534181e-01
47 98 -9.97994090236534181e-01
48 98 -9.97994090236534293e-01
49 98 -9.97994090236534293e-01
50 98 -9.97994090236534404e-01
51 98 -9.97994090236534404e-01
52 98 -9.97994090236534293e-01
53 98 -9.97994090236534293e-01
54 98 -9.97994090236534181e-01
55 98 -9.97994090236534181e-01
56 98 -9.97994090236534181e-01
57 98 -9.97994090236534293e-01
58 98 -9.97994090236534181e-01
59 98 -9.97994090236534181e-01
60 98 -9.97994090236534293e-01
61 98 -9.97994090236534293e-01
62 98 -9.97994090236534181e-01
63 98 -9.97994090236534293e-01
64 98 -9.97994090236534293e-01
65 98 -9.97994090236534293e-01
66 98 -9.97994090236534293e-01
67 98 -9.97994090236534293e-01
68 98 -9.97994090236534293e-01
69 98 -9.97994090236534293e-01
70 98 -9.97994090236534404e-01
71 98 -9.97994090236534293e-01
72 98 -9.97994090236534293e-01
73 98 -9.97994090236534293e-01
74 98 -9.97994090236534293e-01
75 98 -9.97994090236534181e-01
76 98 -9.97994090236534181e-01
77 98 -9.97994090236534293e-01
78 98 -9.97994090236534181e-01
79 98 -9.97994090236534181e-01
80 98 -9.97994090236534181e-01
81 98 -9.97994090236534293e-01
82 98 -9.97994090236534293e-01
83 98 -9.97994090236534404e-01
84 98 -9.97994090236534404e-01
85 98 -9.97994090236534293e-01
86 98 -9.97994090236534293e-01
87 98 -9.97994090236534181e-01
88 98 -9.97994090236534181e-01
89 98 -9.97994090236534181e-01
90 98 -9.97994090236534293e-01
91 98 -9.97994090236534181e-01
92 98 -9.97994090236534181e-01
93 98 -9.97994090236534293e-01
94 98 -9.97994090236534293e-01
95 98 -9.97994090236534181e-01
96 98 -9.97994090236534293e-01
97 98 -9.97994090236534293e-01
98 98 -9.97994090236534293e-01
99 98 -9.97994090236534293e-01
100 98 -9.97994090236534293e-01
101 98 -9.97994090236534293e-01
102 98 -9.97994090236534293e-01
103 98 -9.97994090236534404e-01
104 98 -9.97994090236534293e-01
105 98 -9.97994090236534293e-01
106 98 -9.97994090236534293e-01
107 98 -9.97994090236534293e-01
108 98 -9.97994090236534181e-01
109 98 -9.97994090236534181e-01
110 98 -9.97994090236534293e-01
111 98 -9.97994090236534181e-01
112 98 -9.97994090236534181e-01
113 98 -9.97994090236534181e-01
114 98 -9.97994090236534293e-01
115 98 -9.97994090236534293e-01
116 98 -9.97994090236534404e-01
117 98 -9.97994090236534404e-01
118 98 -9.97994090236534293e-01
119 98 -9.97994090236534293e-01
120 98 -9.97994090236534181e-01
121 98 -9.97994090236534181e-01
122 98 -9.97994090236534181e-01
123 98 -9.97994090236534293e-01
124 98 -9.97994090236534181e-01
125 98 -9.97994090236534181e-01
126 98 -9.97994090236534293e-01
127 98 -9.97994090236534293e-01
128 98 -9.97994090236534181e-01
129 98 -9.97994090236534293e-01
130 98 -9.97994090236534293e-01
131 98 -9.97994090236534293e-01
132 98 -9.97994090236534293e-01
133 98 -9.97994090236534293e-01
1 99 -1.00000000000000000e+00
2 99 -1.00000000000000000e+00
3 99 -1.00000000000000000e+00
4 99 -1.00000000000000000e+00
5 99 -1.00000000000000000e+00
6 99 -1.00000000000000000e+00
7 99 -1.00000000000000000e+00
8 99 -1.00000000000000000e+00
9 99 -1.00000000000000000e+00
10 99 -1.00000000000000000e+00
11 99 -1.00000000000000000e+00
12 99 -1.00000000000000000e+00
13 99 -1.00000000000000000e+00
14 99 -1.00000000000000000e+00
15 99 -1.00000000000000000e+00
16 99 -1.00000000000000000e+00
17 99 -1.00000000000000000e+00
18 99 -1.00000000000000000e+00
19 99 -1.00000000000000000e+00
20 99 -1.00000000000000000e+00
21 99 -1.00000000000000000e+00
22 99 -1.00000000000000000e+00
23 99 -1.00000000000000000e+00
24 99 -1.00000000000000000e+00
25 99 -1.00000000000000000e+00
26 99 -1.00000000000000000e+00
27 99 -1.00000000000000000e+00
28 99 -1.00000000000000000e+00
29 99 -1.00000000000000000e+00
30 99 -1.00000000000000000e+00
31 99 -1.00000000000000000e+00
32 99 -1.00000000000000000e+00
33 99 -1.00000000000000000e+00
34 99 -1.00000000000000000e+00
35 99 -1.00000000000000000e+00
36 99 -1.00000000000000000e+00
37 99 -1.00000000000000000e+00
38 99 -1.00000000000000000e+00
39 99 -1.00000000000000000e+00
40 99 -1.00000000000000000e+00
41 99 -1.00000000000000000e+00
42 99 -1.00000000000000000e+00
43 99 -1.00000000000000000e+00
44 99 -1.00000000000000000e+00
45 99 -1.00000000000000000e+00
46 99 -1.00000000000000000e+00
47 99 -1.00000000000000000e+00
48 99 -1.00000000000000000e+00
49 99 -1.00000000000000000e+00
50 99 -1.00000000000000000e+00
51 99 -1.00000000000000000e+00
52 99 -1.00000000000000000e+00
53 99 -1.00000000000000000e+00
54 99 -1.00000000000000000e+00
55 99 -1.00000000000000000e+00
56 99 -1.00000000000000000e+00
57 99 -1.00000000000000000e+00
58 99 -1.00000000000000000e+00
59 99 -1.00000000000000000e+00
60 99 -1.00000000000000000e+00
61 99 -1.00000000000000000e+00
62 99 -1.00000000000000000e+00
63 99 -1.00000000000000000e+00
64 99 -1.00000000000000000e+00
65 99 -1.00000000000000000e+00
66 99 -1.00000000000000000e+00
67 99 -1.00000000000000000e+00
68 99 -1.00000000000000000e+00
69 99 -1.00000000000000000e+00
70 99 -1.00000000000000000e+00
71 99 -1.00000000000000000e+00
72 99 -1.00000000000000000e+00
73 99 -1.00000000000000000e+00
74 99 -1.00000000000000000e+00
75 99 -1.00000000000000000e+00
76 99 -1.00000000000000000e+00
77 99 -1.00000000000000000e+00
78 99 -1.00000000000000000e+00
79 99 -1.00000000000000000e+00
80 99 -1.00000000000000000e+00
81 99 -1.00000000000000000e+00
82 99 -1.00000000000000000e+00
83 99 -1.00000000000000000e+00
84 99 -1.00000000000000000e+00
85 99 -1.00000000000000000e+00
86 99 -1.00000000000000000e+00
87 99 -1.00000000000000000e+00
88 99 -1.00000000000000000e+00
89 99 -1.00000000000000000e+00
90 99 -1.00000000000000000e+00
91 99 -1.00000000000000000e+00
92 99 -1.00000000000000000e+00
93 99 -1.00000000000000000e+00
94 99 -1.00000000000000000e+00
95 99 -1.00000000000000000e+00
96 99 -1.00000000000000000e+00
97 99 -1.00000000000000000e+00
98 99 -1.00000000000000000e+00
99 99 -1.00000000000000000e+00
100 99 -1.00000000000000000e+00
101 99 -1.00000000000000000e+00
102 99 -1.00000000000000000e+00
103 99 -1.00000000000000000e+00
104 99 -1.00000000000000000e+00
105 99 -1.00000000000000000e+00
106 99 -1.00000000000000000e+00
107 99 -1.00000000000000000e+00
108 99 -1.00000000000000000e+00
109 99 -1.00000000000000000e+00
110 99 -1.00000000000000000e+00
111 99 -1.00000000000000000e+00
112 99 -1.00000000000000000e+00
113 99 -1.00000000000000000e+00
114 99 -1.00000000000000000e+00
115 99 -1.00000000000000000e+00
116 99 -1.00000000000000000e+00
117 99 -1.00000000000000000e+00
118 99 -1.00000000000000000e+00
119 99 -1.00000000000000000e+00
120 99 -1.00000000000000000e+00
121 99 -1.00000000000000000e+00
122 99 -1.00000000000000000e+00
123 99 -1.00000000000000000e+00
124 99 -1.00000000000000000e+00
125 99 -1.00000000000000000e+00
126 99 -1.00000000000000000e+00
127 99 -1.00000000000000000e+00
128 99 -1.00000000000000000e+00
129 99 -1.00000000000000000e+00
130 99 -1.00000000000000000e+00
131 99 -1.00000000000000000e+00
132 99 -1.00000000000000000e+00
133 99 -1.00000000000000000e+00
1 100 -1.00000000000000000e+00
2 100 -1.00000000000000000e+00
3 100 -1.00000000000000000e+00
4 100 -1.00000000000000000e+00
5 100 -1.00000000000000000e+00
6 100 -1.00000000000000000e+00
7 100 -1.00000000000000000e+00
8 100 -1.00000000000000000e+00
9 100 -1.00000000000000000e+00
10 100 -1.00000000000000000e+00
11 100 -1.00000000000000000e+00
12 100 -1.00000000000000000e+00
13 100 -1.00000000000000000e+00
14 100 -1.00000000000000000e+00
15 100 -1.00000000000000000e+00
16 100 -1.00000000000000000e+00
17 100 -1.00000000000000000e+00
18 100 -1.00000000000000000e+00
19 100 -1.00000000000000000e+00
20 100 -1.00000000000000000e+00
21 100 -1.00000000000000000e+00
22 100 -1.00000000000000000e+00
23 100 -1.00000000000000000e+00
24 100 -1.00000000000000000e+00
25 100 -1.00000000000000000e+00
26 100 -1.00000000000000000e+00
27 100 -1.00000000000000000e+00
28 100 -1.00000000000000000e+00
29 100 -1.00000000000000000e+00
30 100 -1.00000000000000000e+00
31 100 -1.00000000000000000e+00
32 100 -1.00000000000000000e+00
33 100 -1.00000000000000000e+00
34 100 -1.00000000000000000e+00
35 100 -1.00000000000000000e+00
36 100 -1.00000000000000000e+00
37 100 -1.00000000000000000e+00
38 100 -1.00000000000000000e+00
39 100 -1.00000000000000000e+00
40 100 -1.00000000000000000e+00
41 100 -1.00000000000000000e+00
42 100 -1.00000000000000000e+00
43 100 -1.00000000000000000e+00
44 100 -1.00000000000000000e+00
45 100 -1.00000000000000000e+00
46 100 -1.00000000000000000e+00
47 100 -1.00000000000000000e+00
48 100 -1.00000000000000000e+00
49 100 -1.00000000000000000e+00
50 100 -1.00000000000000000e+00
51 100 -1.00000000000000000e+00
52 100 -1.00000000000000000e+00
53 100 -1.00000000000000000e+00
54 100 -1.00000000000000000e+00
55 100 -1.00000000000000000e+00
56 100 -1.00000000000000000e+00
57 100 -1.00000000000000000e+00
58 100 -1.00000000000000000e+00
59 100 -1.00000000000000000e+00
60 100 -1.00000000000000000e+00
61 100 -1.00000000000000000e+00
62 100 -1.00000000000000000e+00
63 100 -1.00000000000000000e+00
64 100 -1.00000000000000000e+00
65 100 -1.00000000000000000e+00
66 100 -1.00000000000000000e+00
67 100 -1.00000000000000000e+00
68 100 -1.00000000000000000e+00
69 100 -1.00000000000000000e+00
70 100 -1.00000000000000000e+00
71 100 -1.00000000000000000e+00
72 100 -1.00000000000000000e+00
73 100 -1.00000000000000000e+00
74 100 -1.00000000000000000e+00
75 100 -1.00000000000000000e+00
76 100 -1.00000000000000000e+00
77 100 -1.00000000000000000e+00
78 100 -1.00000000000000000e+00
79 100 -1.00000000000000000e+00
80 100 -1.00000000000000000e+00
81 100 -1.00000000000000000e+00
82 100 -1.00000000000000000e+00
83 100 -1.00000000000000000e+00
84 100 -1.00000000000000000e+00
85 100 -1.00000000000000000e+00
86 100 -1.00000000000000000e+00
87 100 -1.00000000000000000e+00
88 100 -1.00000000000000000e+00
89 100 -1.00000000000000000e+00
90 100 -1.00000000000000000e+00
91 100 -1.00000000000000000e+00
92 100 -1.00000000000000000e+00
93 100 -1.00000000000000000e+00
94 100 -1.00000000000000000e+00
95 100 -1.00000000000000000e+00
96 100 -1.00000000000000000e+00
97 100 -1.00000000000000000e+00
98 100 -1.00000000000000000e+00
99 100 -1.00000000000000000e+00
100 100 -1.00000000000000000e+00
101 100 -1.00000000000000000e+00
102 100 -1.00000000000000000e+00
103 100 -1.00000000000000000e+00
104 100 -1.00000000000000000e+00
105 100 -1.00000000000000000e+00
106 100 -1.00000000000000000e+00
107 100 -1.00000000000000000e+00
108 100 -1.00000000000000000e+00
109 100 -1.00000000000000000e+00
110 100 -1.00000000000000000e+00
111 100 -1.00000000000000000e+00
112 100 -1.00000000000000000e+00
113 100 -1.00000000000000000e+00
114 100 -1.00000000000000000e+00
115 100 -1.00000000000000000e+00
116 100 -1.00000000000000000e+00
117 100 -1.00000000000000000e+00
118 100 -1.00000000000000000e+00
119 100 -1.00000000000000000e+00
120 100 -1.00000000000000000e+00
121 100 -1.00000000000000000e+00
122 100 -1.00000000000000000e+00
123 100 -1.00000000000000000e+00
124 100 -1.00000000000000000e+00
125 100 -1.00000000000000000e+00
126 100 -1.00000000000000000e+00
127 100 -1.00000000000000000e+00
128 100 -1.00000000000000000e+00
129 100 -1.00000000000000000e+00
130 100 -1.00000000000000000e+00
131 100 -1.00000000000000000e+00
132 100 -1.00000000000000000e+00
133 100 -1.00000000000000000e+00
1 101 -1.00000000000000000e+00
2 101 -1.00000000000000000e+00
3 101 -1.00000000000000000e+00
4 101 -1.00000000000000000e+00
5 101 -1.00000000000000000e+00
6 101 -1.00000000000000000e+00
7 101 -1.00000000000000000e+00
8 101 -1.00000000000000000e+00
9 101 -1.00000000000000000e+00
10 101 -1.00000000000000000e+00
11 101 -1.00000000000000000e+00
12 101 -1.00000000000000000e+00
13 101 -1.00000000000000000e+00
14 101 -1.00000000000000000e+00
15 101 -1.00000000000000000e+00
16 101 -1.00000000000000000e+00
17 101 -1.00000000000000000e+00
18 101 -1.00000000000000000e+00
19 101 -1.00000000000000000e+00
20 101 -1.00000000000000000e+00
21 101 -1.00000000000000000e+00
22 101 -1.00000000000000000e+00
23 101 -1.00000000000000000e+00
24 101 -1.00000000000000000e+00
25 101 -1.00000000000000000e+00
26 101 -1.00000000000000000e+00
27 101 -1.00000000000000000e+00
28 101 -1.00000000000000000e+00
29 101 -1.00000000000000000e+00
30 101 -1.00000000000000000e+00
31 101 -1.00000000000000000e+00
32 101 -1.00000000000000000e+00
33 101 -1.00000000000000000e+00
34 101 -1.00000000000000000e+00
35 101 -1.00000000000000000e+00
36 101 -1.00000000000000000e+00
37 101 -1.00000000000000000e+00
38 101 -1.00000000000000000e+00
39 101 -1.00000000000000000e+00
40 101 -1.00000000000000000e+00
41 101 -1.00000000000000000e+00
42 101 -1.00000000000000000e+00
43 101 -1.00000000000000000e+00
44 101 -1.00000000000000000e+00
45 101 -1.00000000000000000e+00
46 101 -1.00000000000000000e+00
47 101 -1.00000000000000000e+00
48 101 -1.00000000000000000e+00
49 101 -1.00000000000000000e+00
50 101 -1.00000000000000000e+00
51 101 -1.00000000000000000e+00
52 101 -1.00000000000000000e+00
53 101 -1.00000000000000000e+00
54 101 -1.00000000000000000e+00
55 101 -1.00000000000000000e+00
56 101 -1.00000000000000000e+00
57 101 -1.00000000000000000e+00
58 101 -1.00000000000000000e+00
59 101 -1.00000000000000000e+00
60 101 -1.00000000000000000e+00
61 101 -1.00000000000000000e+00
62 101 -1.00000000000000000e+00
63 101 -1.00000000000000000e+00
64 101 -1.00000000000000000e+00
65 101 -1.00000000000000000e+00
66 101 -1.00000000000000000e+00
67 101 -1.00000000000000000e+00
68 101 -1.00000000000000000e+00
69 101 -1.00000000000000000e+00
70 101 -1.00000000000000000e+00
71 101 -1.00000000000000000e+00
72 101 -1.00000000000000000e+00
73 101 -1.00000000000000000e+00
74 101 -1.00000000000000000e+00
75 101 -1.00000000000000000e+00
76 101 -1.00000000000000000e+00
77 101 -1.00000000000000000e+00
78 101 -1.00000000000000000e+00
79 101 -1.00000000000000000e+00
80 101 -1.00000000000000000e+00
81 101 -1.00000000000000000e+00
82 101 -1.00000000000000000e+00
83 101 -1.00000000000000000e+00
84 101 -1.00000000000000000e+00
85 101 -1.00000000000000000e+00
86 101 -1.00000000000000000e+00
87 101 -1.00000000000000000e+00
88 101 -1.00000000000000000e+00
89 101 -1.00000000000000000e+00
90 101 -1.00000000000000000e+00
91 101 -1.00000000000000000e+00
92 101 -1.00000000000000000e+00
93 101 -1.00000000000000000e+00
94 101 -1.00000000000000000e+00
95 101 -1.00000000000000000e+00
96 101 -1.00000000000000000e+00
97 101 -1.00000000000000000e+00
98 101 -1.00000000000000000e+00
99 101 -1.00000000000000000e+00
100 101 -1.00000000000000000e+00
101 101 -1.00000000000000000e+00
102 101 -1.00000000000000000e+00
103 101 -1.00000000000000000e+00
104 101 -1.00000000000000000e+00
105 101 -1.00000000000000000e+00
106 101 -1.00000000000000000e+00
107 101 -1.00000000000000000e+00
108 101 -1.00000000000000000e+00
109 101 -1.00000000000000000e+00
110 101 -1.00000000000000000e+00
111 101 -1.00000000000000000e+00
112 101 -1.00000000000000000e+00
113 101 -1.00000000000000000e+00
114 101 -1.00000000000000000e+00
115 101 -1.00000000000000000e+00
116 101 -1.00000000000000000e+00
117 101 -1.00000000000000000e+00
118 101 -1.00000000000000000e+00
119 101 -1.00000000000000000e+00
120 101 -1.00000000000000000e+00
121 101 -1.00000000000000000e+00
122 101 -1.00000000000000000e+00
123 101 -1.00000000000000000e+00
124 101 -1.00000000000000000e+00
125 101 -1.00000000000000000e+00
126 101 -1.00000000000000000e+00
127 101 -1.00000000000000000e+00
128 101 -1.00000000000000000e+00
129 101 -1.00000000000000000e+00
130 101 -1.00000000000000000e+00
131 101 -1.00000000000000000e+00
132 101 -1.00000000000000000e+00
133 101 -1.00000000000000000e+00
1 102 -9.97994090236534293e-01
2 102 -9.97994090236534293e-01
3 102 -9.97994090236534181e-01
4 102 -9.97994090236534293e-01
5 102 -9.97994090236534293e-01
6 102 -9.97994090236534293e-01
7 102 -9.97994090236534293e-01
8 102 -9.97994090236534181e-01
9 102 -9.97994090236534404e-01
10 102 -9.97994090236534181e-01
11 102 -9.97994090236534404e-01
12 102 -9.97994090236534404e-01
13 102 -9.97994090236534404e-01
14 102 -9.97994090236534181e-01
15 102 -9.97994090236534293e-01
16 102 -9.97994090236534293e-01
17 102 -9.97994090236534293e-01
18 102 -9.97994090236534293e-01
19 102 -9.97994090236534181e-01
20 102 -9.97994090236534293e-01
21 102 -9.97994090236534181e-01
22 102 -9.97994090236534181e-01
23 102 -9.97994090236534404e-01
24 102 -9.97994090236534293e-01
25 102 -9.97994090236534181e-01
26 102 -9.97994090236534404e-01
27 102 -9.97994090236534293e-01
28 102 -9.97994090236534293e-01
29 102 -9.97994090236534293e-01
30 102 -9.97994090236534293e-01
31 102 -9.97994090236534293e-01
32 102 -9.97994090236534181e-01
33 102 -9.97994090236534293e-01
34 102 -9.97994090236534293e-01
35 102 -9.97994090236534293e-01
36 102 -9.97994090236534181e-01
37 102 -9.97994090236534293e-01
38 102 -9.97994090236534293e-01
39 102 -9.97994090236534293e-01
40 102 -9.97994090236534293e-01
41 102 -9.97994090236534181e-01
42 102 -9.97994090236534404e-01
43 102 -9.97994090236534181e-01
44 102 -9.97994090236534404e-01
45 102 -9.97994090236534404e-01
46 102 -9.97994090236534404e-01
47 102 -9.97994090236534181e-01
48 102 -9.97994090236534293e-01
49 102 -9.97994090236534293e-01
50 102 -9.97994090236534293e-01
51 102 -9.97994090236534293e-01
52 102 -9.97994090236534181e-01
53 102 -9.97994090236534293e-01
54 102 -9.97994090236534181e-01
55 102 -9.97994090236534181e-01
56 102 -9.97994090236534404e-01
57 102 -9.97994090236534293e-01
58 102 -9.97994090236534181e-01
59 102 -9.97994090236534404e-01
60 102 -9.97994090236534293e-01
61 102 -9.97994090236534293e-01
62 102 -9.97994090236534293e-01
63 102 -9.97994090236534293e-01
64 102 -9.97994090236534293e-01
65 102 -9.97994090236534181e-01
66 102 -9.97994090236534293e-01
67 102 -9.97994090236534293e-01
68 102 -9.97994090236534293e-01
69 102 -9.97994090236534181e-01
70 102 -9.97994090236534293e-01
71 102 -9.97994090236534293e-01
72 102 -9.97994090236534293e-01
73 102 -9.97994090236534293e-01
74 102 -9.97994090236534181e-01
75 102 -9.97994090236534404e-01
76 102 -9.97994090236534181e-01
77 102 -9.97994090236534404e-01
78 102 -9.97994090236534404e-01
79 102 -9.97994090236534404e-01
80 102 -9.97994090236534181e-01
81 102 -9.97994090236534293e-01
82 102 -9.97994090236534293e-01
83 102 -9.97994090236534293e-01
84 102 -9.97994090236534293e-01
85 102 -9.97994090236534181e-01
86 102 -9.97994090236534293e-01
87 102 -9.97994090236534181e-01
88 102 -9.97994090236534181e-01
89 102 -9.97994090236534404e-01
90 102 -9.97994090236534293e-01
91 102 -9.97994090236534181e-01
92 102 -9.97994090236534404e-01
93 102 -9.97994090236534293e-01
94 102 -9.97994090236534293e-01
95 102 -9.97994090236534293e-01
96 102 -9.97994090236534293e-01
97 102 -9.97994090236534293e-01
98 102 -9.97994090236534181e-01
99 102 -9.97994090236534293e-01
100 102 -9.97994090236534293e-01
101 102 -9.97994090236534293e-01
102 102 -9.97994090236534181e-01
103 102 -9.97994090236534293e-01
104 102 -9.97994090236534293e-01
105 102 -9.97994090236534293e-01
106 102 -9.97994090236534293e-01
107 102 -9.97994090236534181e-01
108 102 -9.97994090236534404e-01
109 102 -9.97994090236534181e-01
110 102 -9.97994090236534404e-01
111 102 -9.97994090236534404e-01
112 102 -9.97994090236534404e-01
113 102 -9.97994090236534181e-01
114 102 -9.97994090236534293e-01
115 102 -9.97994090236534293e-01
116 102 -9.97994090236534293e-01
117 102 -9.97994090236534293e-01
118 102 -9.97994090236534181e-01
119 102 -9.97994090236534293e-01
120 102 -9.97994090236534181e-01
121 102 -9.97994090236534181e-01
122 102 -9.97994090236534404e-01
123 102 -9.97994090236534293e-01
124 102 -9.97994090236534181e-01
125 102 -9.97994090236534404e-01
126 102 -9.97994090236534293e-01
127 102 -9.97994090236534293e-01
128 102 -9.97994090236534293e-01
129 102 -9.97994090236534293e-01
130 102 -9.97994090236534293e-01
131 102 -9.97994090236534181e-01
132 102 -9.97994090236534293e-01
133 102 -9.97994090236534293e-01
1 103 -9.93881620389746590e-01
2 103 -9.93881620389746590e-01
3 103 -9.93881620389746478e-01
4 103 -9.93881620389746478e-01
5 103 -9.93881620389746590e-01
6 103 -9.93881620389746701e-01
7 103 -9.93881620389746590e-01
8 103 -9.93881620389746478e-01
9 103 -9.93881620389746590e-01
10 103 -9.93881620389746590e-01
11 103 -9.93881620389746590e-01
12 103 -9.93881620389746590e-01
13 103 -9.93881620389746590e-01
14 103 -9.93881620389746478e-01
15 103 -9.93881620389746590e-01
16 103 -9.93881620389746590e-01
17 103 -9.93881620389746590e-01
18 103 -9.93881620389746590e-01
19 103 -9.93881620389746590e-01
20 103 -9.93881620389746590e-01
21 103 -9.93881620389746478e-01
22 103 -9.93881620389746590e-01
23 103 -9.93881620389746590e-01
24 103 -9.93881620389746590e-01
25 103 -9.93881620389746590e-01
26 103 -9.93881620389746590e-01
27 103 -9.93881620389746590e-01
28 103 -9.93881620389746590e-01
29 103 -9.93881620389746701e-01
30 103 -9.93881620389746590e-01
31 103 -9.93881620389746590e-01
32 103 -9.93881620389746478e-01
33 103 -9.93881620389746590e-01
34 103 -9.93881620389746590e-01
35 103 -9.93881620389746590e-01
36 103 -9.93881620389746478e-01
37 103 -9.93881620389746478e-01
38 103 -9.93881620389746590e-01
39 103 -9.93881620389746701e-01
40 103 -9.93881620389746590e-01
41 103 -9.93881620389746478e-01
42 103 -9.93881620389746590e-01
43 103 -9.93881620389746590e-01
44 103 -9.93881620389746590e-01
45 103 -9.93881620389746590e-01
46 103 -9.93881620389746590e-01
47 103 -9.93881620389746478e-01
48 103 -9.93881620389746590e-01
49 103 -9.93881620389746590e-01
50 103 -9.93881620389746590e-01
51 103 -9.93881620389746590e-01
52 103 -9.93881620389746590e-01
53 103 -9.93881620389746590e-01
54 103 -9.93881620389746478e-01
55 103 -9.93881620389746590e-01
56 103 -9.93881620389746590e-01
57 103 -9.93881620389746590e-01
58 103 -9.93881620389746590e-01
59 103 -9.93881620389746590e-01
60 103 -9.93881620389746590e-01
61 103 -9.93881620389746590e-01
62 103 -9.93881620389746701e-01
63 103 -9.93881620389746590e-01
64 103 -9.93881620389746590e-01
65 103 -9.93881620389746478e-01
66 103 -9.93881620389746590e-01
67 103 -9.93881620389746590e-01
68 103 -9.93881620389746590e-01
69 103 -9.93881620389746478e-01
70 103 -9.93881620389746478e-01
71 103 -9.93881620389746590e-01
72 103 -9.93881620389746701e-01
73 103 -9.93881620389746590e-01
74 103 -9.93881620389746478e-01
75 103 -9.93881620389746590e-01
76 103 -9.93881620389746590e-01
77 103 -9.93881620389746590e-01
78 103 -9.93881620389746590e-01
79 103 -9.93881620389746590e-01
80 103 -9.93881620389746478e-01
81 103 -9.93881620389746590e-01
82 103 -9.93881620389746590e-01
83 103 -9.93881620389746590e-01
84 103 -9.93881620389746590e-01
85 103 -9.93881620389746590e-01
86 103 -9.93881620389746590e-01
87 103 -9.93881620389746478e-01
88 103 -9.93881620389746590e-01
89 103 -9.93881620389746590e-01
90 103 -9.93881620389746590e-01
91 103 -9.93881620389746590e-01
92 103 -9.93881620389746590e-01
93 103 -9.93881620389746590e-01
94 103 -9.93881620389746590e-01
95 103 -9.93881620389746701e-01
96 103 -9.93881620389746590e-01
97 103 -9.93881620389746590e-01
98 103 -9.93881620389746478e-01
99 103 -9.93881620389746590e-01
100 103 -9.93881620389746590e-01
101 103 -9.93881620389746590e-01
102 103 -9.93881620389746478e-01
103 103 -9.93881620389746478e-01
104 103 -9.93881620389746590e-01
105 103 -9.93881620389746701e-01
106 103 -9.93881620389746590e-01
107 103 -9.93881620389746478e-01
108 103 -9.93881620389746590e-01
109 103 -9.93881620389746590e-01
110 103 -9.93881620389746590e-01
111 103 -9.93881620389746590e-01
112 103 -9.93881620389746590e-01
113 103 -9.93881620389746478e-01
114 103 -9.93881620389746590e-01
115 103 -9.93881620389746590e-01
116 103 -9.93881620389746590e-01
117 103 -9.93881620389746590e-01
118 103 -9.93881620389746590e-01
119 103 -9.93881620389746590e-01
120 103 -9.93881620389746478e-01
121 103 -9.93881620389746590e-01
122 103 -9.93881620389746590e-01
123 103 -9.93881620389746590e-01
124 103 -9.93881620389746590e-01
125 103 -9.93881620389746590e-01
126 103 -9.93881620389746590e-01
127 103 -9.93881620389746590e-01
128 103 -9.93881620389746701e-01
129 103 -9.93881620389746590e-01
130 103 -9.93881620389746590e-01
131 103 -9.93881620389746478e-01
132 103 -9.93881620389746590e-01
133 103 -9.93881620389746590e-01
1 104 -9.87570194172242566e-01
2 104 -9.87570194172242566e-01
3 104 -9.87570194172242566e-01
4 104 -9.87570194172242455e-01
5 104 -9.87570194172242566e-01
6 104 -9.87570194172242677e-01
7 104 -9.87570194172242566e-01
8 104 -9.87570194172242455e-01
9 104 -9.87570194172242677e-01
10 104 -9.87570194172242566e-01
11 104 -9.87570194172242566e-01
12 104 -9.87570194172242566e-01
13 104 -9.87570194172242677e-01
14 104 -9.87570194172242344e-01
15 104 -9.87570194172242566e-01
16 104 -9.87570194172242566e-01
17 104 -9.87570194172242566e-01
18 104 -9.87570194172242566e-01
19 104 -9.87570194172242566e-01
20 104 -9.87570194172242677e-01
21 104 -9.87570194172242344e-01
22 104 -9.87570194172242677e-01
23 104 -9.87570194172242566e-01
24 104 -9.87570194172242566e-01
25 104 -9.87570194172242566e-01
26 104 -9.87570194172242455e-01
27 104 -9.87570194172242677e-01
28 104 -9.87570194172242566e-01
29 104 -9.87570194172242788e-01
30 104 -9.87570194172242566e-01
31 104 -9.87570194172242566e-01
32 104 -9.87570194172242455e-01
33 104 -9.87570194172242566e-01
34 104 -9.87570194172242566e-01
35 104 -9.87570194172242566e-01
36 104 -9.87570194172242566e-01
37 104 -9.87570194172242455e-01
38 104 -9.87570194172242566e-01
39 104 -9.87570194172242677e-01
40 104 -9.87570194172242566e-01
41 104 -9.87570194172242455e-01
42 104 -9.87570194172242677e-01
43 104 -9.87570194172242566e-01
44 104 -9.87570194172242566e-01
45 104 -9.87570194172242566e-01
46 104 -9.87570194172242677e-01
47 104 -9.87570194172242344e-01
48 104 -9.87570194172242566e-01
49 104 -9.87570194172242566e-01
50 104 -9.87570194172242566e-01
51 104 -9.87570194172242566e-01
52 104 -9.87570194172242566e-01
53 104 -9.87570194172242677e-01
54 104 -9.87570194172242344e-01
55 104 -9.87570194172242677e-01
56 104 -9.87570194172242566e-01
57 104 -9.87570194172242566e-01
58 104 -9.87570194172242566e-01
59 104 -9.87570194172242455e-01
60 104 -9.87570194172242677e-01
61 104 -9.87570194172242566e-01
62 104 -9.87570194172242788e-01
63 104 -9.87570194172242566e-01
64 104 -9.87570194172242566e-01
65 104 -9.87570194172242455e-01
66 104 -9.87570194172242566e-01
67 104 -9.87570194172242566e-01
68 104 -9.87570194172242566e-01
69 104 -9.87570194172242566e-01
70 104 -9.87570194172242455e-01
71 104 -9.87570194172242566e-01
72 104 -9.87570194172242677e-01
73 104 -9.87570194172242566e-01
74 104 -9.87570194172242455e-01
75 104 -9.87570194172242677e-01
76 104 -9.87570194172242566e-01
77 104 -9.87570194172242566e-01
78 104 -9.87570194172242566e-01
79 104 -9.87570194172242677e-01
80 104 -9.87570194172242344e-01
81 104 -9.87570194172242566e-01
82 104 -9.87570194172242566e-01
83 104 -9.87570194172242566e-01
84 104 -9.87570194172242566e-01
85 104 -9.87570194172242566e-01
86 104 -9.87570194172242677e-01
87 104 -9.87570194172242344e-01
88 104 -9.87570194172242677e-01
89 104 -9.87570194172242566e-01
90 104 -9.87570194172242566e-01
91 104 -9.87570194172242566e-01
92 104 -9.87570194172242455e-01
93 104 -9.87570194172242677e-01
94 104 -9.87570194172242566e-01
95 104 -9.87570194172242788e-01
96 104 -9.87570194172242566e-01
97 104 -9.87570194172242566e-01
98 104 -9.87570194172242455e-01
99 104 -9.87570194172242566e-01
100 104 -9.87570194172242566e-01
101 104 -9.87570194172242566e-01
102 104 -9.87570194172242566e-01
103 104 -9.87570194172242455e-01
104 104 -9.87570194172242566e-01
105 104 -9.87570194172242677e-01
106 104 -9.87570194172242566e-01
107 104 -9.87570194172242455e-01
108 104 -9.87570194172242677e-01
109 104 -9.87570194172242566e-01
110 104 -9.87570194172242566e-01
111 104 -9.87570194172242566e-01
112 104 -9.87570194172242677e-01
113 104 -9.87570194172242344e-01
114 104 -9.87570194172242566e-01
115 104 -9.87570194172242566e-01
116 104 -9.87570194172242566e-01
117 104 -9.87570194172242566e-01
118 104 -9.87570194172242566e-01
119 104 -9.87570194172242677e-01
120 104 -9.87570194172242344e-01
121 104 -9.87570194172242677e-01
122 104 -9.87570194172242566e-01
123 104 -9.87570194172242566e-01
124 104 -9.87570194172242566e-01
125 104 -9.87570194172242455e-01
126 104 -9.87570194172242677e-01
127 104 -9.87570194172242566e-01
128 104 -9.87570194172242788e-01
129 104 -9.87570194172242566e-01
130 104 -9.87570194172242566e-01
131 104 -9.87570194172242455e-01
132 104 -9.87570194172242566e-01
133 104 -9.87570194172242566e-01
1 105 -9.78977518680848702e-01
2 105 -9.78977518680848813e-01
3 105 -9.78977518680848702e-01
4 105 -9.78977518680848702e-01
5 105 -9.78977518680848702e-01
6 105 -9.78977518680848702e-01
7 105 -9.78977518680848702e-01
8 105 -9.78977518680848702e-01
9 105 -9.78977518680848591e-01
10 105 -9.78977518680848702e-01
11 105 -9.78977518680848702e-01
12 105 -9.78977518680848591e-01
13 105 -9.78977518680848702e-01
14 105 -9.78977518680848480e-01
15 105 -9.78977518680848591e-01
16 105 -9.78977518680848702e-01
17 105 -9.78977518680848591e-01
18 105 -9.78977518680848591e-01
19 105 -9.78977518680848591e-01
20 105 -9.78977518680848813e-01
21 105 -9.78977518680848480e-01
22 105 -9.78977518680848702e-01
23 105 -9.78977518680848591e-01
24 105 -9.78977518680848702e-01
25 105 -9.78977518680848702e-01
26 105 -9.78977518680848591e-01
27 105 -9.78977518680848702e-01
28 105 -9.78977518680848702e-01
29 105 -9.78977518680848924e-01
30 105 -9.78977518680848702e-01
31 105 -9.78977518680848591e-01
32 105 -9.78977518680848702e-01
33 105 -9.78977518680848813e-01
34 105 -9.78977518680848702e-01
35 105 -9.78977518680848813e-01
36 105 -9.78977518680848702e-01
37 105 -9.78977518680848702e-01
38 105 -9.78977518680848702e-01
39 105 -9.78977518680848702e-01
40 105 -9.78977518680848702e-01
41 105 -9.78977518680848702e-01
42 105 -9.78977518680848591e-01
43 105 -9.78977518680848702e-01
44 105 -9.78977518680848702e-01
45 105 -9.78977518680848591e-01
46 105 -9.78977518680848702e-01
47 105 -9.78977518680848480e-01
48 105 -9.78977518680848591e-01
49 105 -9.78977518680848702e-01
50 105 -9.78977518680848591e-01
51 105 -9.78977518680848591e-01
52 105 -9.78977518680848591e-01
53 105 -9.78977518680848813e-01
54 105 -9.78977518680848480e-01
55 105 -9.78977518680848702e-01
56 105 -9.78977518680848591e-01
57 105 -9.78977518680848702e-01
58 105 -9.78977518680848702e-01
59 105 -9.78977518680848591e-01
60 105 -9.78977518680848702e-01
61 105 -9.78977518680848702e-01
62 105 -9.78977518680848924e-01
63 105 -9.78977518680848702e-01
64 105 -9.78977518680848591e-01
65 105 -9.78977518680848702e-01
66 105 -9.78977518680848813e-01
67 105 -9.78977518680848702e-01
68 105 -9.78977518680848813e-01
69 105 -9.78977518680848702e-01
70 105 -9.78977518680848702e-01
71 105 -9.78977518680848702e-01
72 105 -9.78977518680848702e-01
73 105 -9.78977518680848702e-01
74 105 -9.78977518680848702e-01
75 105 -9.78977518680848591e-01
76 105 -9.78977518680848702e-01
77 105 -9.78977518680848702e-01
78 105 -9.78977518680848591e-01
79 105 -9.78977518680848702e-01
80 105 -9.78977518680848480e-01
81 105 -9.78977518680848591e-01
82 105 -9.78977518680848702e-01
83 105 -9.78977518680848591e-01
84 105 -9.78977518680848591e-01
85 105 -9.78977518680848591e-01
86 105 -9.78977518680848813e-01
87 105 -9.78977518680848480e-01
88 105 -9.78977518680848702e-01
89 105 -9.78977518680848591e-01
90 105 -9.78977518680848702e-01
91 105 -9.78977518680848702e-01
92 105 -9.78977518680848591e-01
93 105 -9.78977518680848702e-01
94 105 -9.78977518680848702e-01
95 105 -9.78977518680848924e-01
96 105 -9.78977518680848702e-01
97 105 -9.78977518680848591e-01
98 105 -9.78977518680848702e-01
99 105 -9.78977518680848813e-01
100 105 -9.78977518680848702e-01
101 105 -9.78977518680848813e-01
102 105 -9.78977518680848702e-01
103 105 -9.78977518680848702e-01
104 105 -9.78977518680848702e-01
105 105 -9.78977518680848702e-01
106 105 -9.78977518680848702e-01
107 105 -9.78977518680848702e-01
108 105 -9.78977518680848591e-01
109 105 -9.78977518680848702e-01
110 105 -9.78977518680848702e-01
111 105 -9.78977518680848591e-01
112 105 -9.78977518680848702e-01
113 105 -9.78977518680848480e-01
114 105 -9.78977518680848591e-01
115 105 -9.78977518680848702e-01
116 105 -9.78977518680848591e-01
117 105 -9.78977518680848591e-01
118 105 -9.78977518680848591e-01
119 105 -9.78977518680848813e-01
120 105 -9.78977518680848480e-01
121 105 -9.78977518680848702e-01
122 105 -9.78977518680848591e-01
123 105 -9.78977518680848702e-01
124 105 -9.78977518680848702e-01
125 105 -9.78977518680848591e-01
126 105 -9.78977518680848702e-01
127 105 -9.78977518680848702e-01
128 105 -9.78977518680848924e-01
129 105 -9.78977518680848702e-01
130 105 -9.78977518680848591e-01
131 105 -9.78977518680848702e-01
132 105 -9.78977518680848813e-01
133 105 -9.78977518680848702e-01
1 106 -9.68033251559624164e-01
2 106 -9.68033251559624164e-01
3 106 -9.68033251559624164e-01
4 106 -9.68033251559624164e-01
5 106 -9.68033251559624275e-01
6 106 -9.68033251559624275e-01
7 106 -9.68033251559624053e-01
8 106 -9.68033251559624275e-01
9 106 -9.68033251559624053e-01
10 106 -9.68033251559624164e-01
11 106 -9.68033251559624164e-01
12 106 -9.68033251559624053e-01
13 106 -9.68033251559624164e-01
14 106 -9.68033251559623942e-01
15 106 -9.68033251559624053e-01
16 106 -9.68033251559624275e-01
17 106 -9.68033251559624164e-01
18 106 -9.68033251559624164e-01
19 106 -9.68033251559624164e-01
20 106 -9.68033251559624275e-01
21 106 -9.68033251559623942e-01
22 106 -9.68033251559624164e-01
23 106 -9.68033251559624053e-01
24 106 -9.68033251559624164e-01
25 106 -9.68033251559624164e-01
26 106 -9.68033251559624053e-01
27 106 -9.68033251559624164e-01
28 106 -9.68033251559624053e-01
29 106 -9.68033251559624386e-01
30 106 -9.68033251559624275e-01
31 106 -9.68033251559624053e-01
32 106 -9.68033251559624164e-01
33 106 -9.68033251559624164e-01
34 106 -9.68033251559624164e-01
35 106 -9.68033251559624164e-01
36 106 -9.68033251559624164e-01
37 106 -9.68033251559624164e-01
38 106 -9.68033251559624275e-01
39 106 -9.68033251559624275e-01
40 106 -9.68033251559624053e-01
41 106 -9.68033251559624275e-01
42 106 -9.68033251559624053e-01
43 106 -9.68033251559624164e-01
44 106 -9.68033251559624164e-01
45 106 -9.68033251559624053e-01
46 106 -9.68033251559624164e-01
47 106 -9.68033251559623942e-01
48 106 -9.68033251559624053e-01
49 106 -9.68033251559624275e-01
50 106 -9.68033251559624164e-01
51 106 -9.68033251559624164e-01
52 106 -9.68033251559624164e-01
53 106 -9.68033251559624275e-01
54 106 -9.68033251559623942e-01
55 106 -9.68033251559624164e-01
56 106 -9.68033251559624053e-01
57 106 -9.68033251559624164e-01
58 106 -9.68033251559624164e-01
59 106 -9.68033251559624053e-01
60 106 -9.68033251559624164e-01
61 106 -9.68033251559624053e-01
62 106 -9.68033251559624386e-01
63 106 -9.68033251559624275e-01
64 106 -9.68033251559624053e-01
65 106 -9.68033251559624164e-01
66 106 -9.68033251559624164e-01
67 106 -9.68033251559624164e-01
68 106 -9.68033251559624164e-01
69 106 -9.68033251559624164e-01
70 106 -9.68033251559624164e-01
71 106 -9.68033251559624275e-01
72 106 -9.68033251559624275e-01
73 106 -9.68033251559624053e-01
74 106 -9.68033251559624275e-01
75 106 -9.68033251559624053e-01
76 106 -9.68033251559624164e-01
77 106 -9.68033251559624164e-01
78 106 -9.68033251559624053e-01
79 106 -9.68033251559624164e-01
80 106 -9.68033251559623942e-01
81 106 -9.68033251559624053e-01
82 106 -9.68033251559624275e-01
83 106 -9.68033251559624164e-01
84 106 -9.68033251559624164e-01
85 106 -9.68033251559624164e-01
86 106 -9.68033251559624275e-01
87 106 -9.68033251559623942e-01
88 106 -9.68033251559624164e-01
89 106 -9.68033251559624053e-01
90 106 -9.68033251559624164e-01
91 106 -9.68033251559624164e-01
92 106 -9.68033251559624053e-01
93 106 -9.68033251559624164e-01
94 106 -9.68033251559624053e-01
95 106 -9.68033251559624386e-01
96 106 -9.68033251559624275e-01
97 106 -9.68033251559624053e-01
98 106 -9.68033251559624164e-01
99 106 -9.68033251559624164e-01
100 106 -9.68033251559624164e-01
101 106 -9.68033251559624164e-01
102 106 -9.68033251559624164e-01
103 106 -9.68033251559624164e-01
104 106 -9.68033251559624275e-01
105 106 -9.68033251559624275e-01
106 106 -9.68033251559624053e-01
107 106 -9.68033251559624275e-01
108 106 -9.68033251559624053e-01
109 106 -9.68033251559624164e-01
110 106 -9.68033251559624164e-01
111 106 -9.68033251559624053e-01
112 106 -9.68033251559624164e-01
113 106 -9.68033251559623942e-01
114 106 -9.68033251559624053e-01
115 106 -9.68033251559624275e-01
116 106 -9.68033251559624164e-01
117 106 -9.68033251559624164e-01
118 106 -9.68033251559624164e-01
119 106 -9.68033251559624275e-01
120 106 -9.68033251559623942e-01
121 106 -9.68033251559624164e-01
122 106 -9.68033251559624053e-01
123 106 -9.68033251559624164e-01
124 106 -9.68033251559624164e-01
125 106 -9.68033251559624053e-01
126 106 -9.68033251559624164e-01
127 106 -9.68033251559624053e-01
128 106 -9.68033251559624386e-01
129 106 -9.68033251559624275e-01
130 106 -9.68033251559624053e-01
131 106 -9.68033251559624164e-01
132 106 -9.68033251559624164e-01
133 106 -9.68033251559624164e-01
1 107 -9.54680796685007271e-01
2 107 -9.54680796685007271e-01
3 107 -9.54680796685007271e-01
4 107 -9.54680796685007382e-01
5 107 -9.54680796685007271e-01
6 107 -9.54680796685007493e-01
7 107 -9.54680796685007271e-01
8 107 -9.54680796685007493e-01
9 107 -9.54680796685007271e-01
10 107 -9.54680796685007382e-01
11 107 -9.54680796685007271e-01
12 107 -9.54680796685007271e-01
13 107 -9.54680796685007271e-01
14 107 -9.54680796685007049e-01
15 107 -9.54680796685007160e-01
16 107 -9.54680796685007493e-01
17 107 -9.54680796685007382e-01
18 107 -9.54680796685007382e-01
19 107 -9.54680796685007160e-01
20 107 -9.54680796685007382e-01
21 107 -9.54680796685007049e-01
22 107 -9.54680796685007271e-01
23 107 -9.54680796685007271e-01
24 107 -9.54680796685007271e-01
25 107 -9.54680796685007382e-01
26 107 -9.54680796685007271e-01
27 107 -9.54680796685007382e-01
28 107 -9.54680796685007271e-01
29 107 -9.54680796685007493e-01
30 107 -9.54680796685007271e-01
31 107 -9.54680796685007382e-01
32 107 -9.54680796685007160e-01
33 107 -9.54680796685007271e-01
34 107 -9.54680796685007271e-01
35 107 -9.54680796685007271e-01
36 107 -9.54680796685007271e-01
37 107 -9.54680796685007382e-01
38 107 -9.54680796685007271e-01
39 107 -9.54680796685007493e-01
40 107 -9.54680796685007271e-01
41 107 -9.54680796685007493e-01
42 107 -9.54680796685007271e-01
43 107 -9.54680796685007382e-01
44 107 -9.54680796685007271e-01
45 107 -9.54680796685007271e-01
46 107 -9.54680796685007271e-01
47 107 -9.54680796685007049e-01
48 107 -9.54680796685007160e-01
49 107 -9.54680796685007493e-01
50 107 -9.54680796685007382e-01
51 107 -9.54680796685007382e-01
52 107 -9.54680796685007160e-01
53 107 -9.54680796685007382e-01
54 107 -9.54680796685007049e-01
55 107 -9.54680796685007271e-01
56 107 -9.54680796685007271e-01
57 107 -9.54680796685007271e-01
58 107 -9.54680796685007382e-01
59 107 -9.54680796685007271e-01
60 107 -9.54680796685007382e-01
61 107 -9.54680796685007271e-01
62 107 -9.54680796685007493e-01
63 107 -9.54680796685007271e-01
64 107 -9.54680796685007382e-01
65 107 -9.54680796685007160e-01
66 107 -9.54680796685007271e-01
67 107 -9.54680796685007271e-01
68 107 -9.54680796685007271e-01
69 107 -9.54680796685007271e-01
70 107 -9.54680796685007382e-01
71 107 -9.54680796685007271e-01
72 107 -9.54680796685007493e-01
73 107 -9.54680796685007271e-01
74 107 -9.54680796685007493e-01
75 107 -9.54680796685007271e-01
76 107 -9.54680796685007382e-01
77 107 -9.54680796685007271e-01
78 107 -9.54680796685007271e-01
79 107 -9.54680796685007271e-01
80 107 -9.54680796685007049e-01
81 107 -9.54680796685007160e-01
82 107 -9.54680796685007493e-01
83 107 -9.54680796685007382e-01
84 107 -9.54680796685007382e-01
85 107 -9.54680796685007160e-01
86 107 -9.54680796685007382e-01
87 107 -9.54680796685007049e-01
88 107 -9.54680796685007271e-01
89 107 -9.54680796685007271e-01
90 107 -9.54680796685007271e-01
91 107 -9.54680796685007382e-01
92 107 -9.54680796685007271e-01
93 107 -9.54680796685007382e-01
94 107 -9.54680796685007271e-01
95 107 -9.54680796685007493e-01
96 107 -9.54680796685007271e-01
97 107 -9.54680796685007382e-01
98 107 -9.54680796685007160e-01
99 107 -9.54680796685007271e-01
100 107 -9.54680796685007271e-01
101 107 -9.54680796685007271e-01
102 107 -9.54680796685007271e-01
103 107 -9.54680796685007382e-01
104 107 -9.54680796685007271e-01
105 107 -9.54680796685007493e-01
106 107 -9.54680796685007271e-01
107 107 -9.54680796685007493e-01
108 107 -9.54680796685007271e-01
109 107 -9.54680796685007382e-01
110 107 -9.54680796685007271e-01
111 107 -9.54680796685007271e-01
112 107 -9.54680796685007271e-01
113 107 -9.54680796685007049e-01
114 107 -9.54680796685007160e-01
115 107 -9.54680796685007493e-01
116 107 -9.54680796685007382e-01
117 107 -9.54680796685007382e-01
118 107 -9.54680796685007160e-01
119 107 -9.54680796685007382e-01
120 107 -9.54680796685007049e-01
121 107 -9.54680796685007271e-01
122 107 -9.54680796685007271e-01
123 107 -9.54680796685007271e-01
124 107 -9.54680796685007382e-01
125 107 -9.54680796685007271e-01
126 107 -9.54680796685007382e-01
127 107 -9.54680796685007271e-01
128 107 -9.54680796685007493e-01
129 107 -9.54680796685007271e-01
130 107 -9.54680796685007382e-01
131 107 -9.54680796685007160e-01
132 107 -9.54680796685007271e-01
133 107 -9.54680796685007271e-01
1 108 -9.38878994624438246e-01
2 108 -9.38878994624438468e-01
3 108 -9.38878994624438468e-01
4 108 -9.38878994624438579e-01
5 108 -9.38878994624438468e-01
6 108 -9.38878994624438579e-01
7 108 -9.38878994624438468e-01
8 108 -9.38878994624438690e-01
9 108 -9.38878994624438357e-01
10 108 -9.38878994624438468e-01
11 108 -9.38878994624438468e-01
12 108 -9.38878994624438468e-01
13 108 -9.38878994624438357e-01
14 108 -9.38878994624438357e-01
15 108 -9.38878994624438357e-01
16 108 -9.38878994624438690e-01
17 108 -9.38878994624438579e-01
18 108 -9.38878994624438579e-01
19 108 -9.38878994624438357e-01
20 108 -9.38878994624438579e-01
21 108 -9.38878994624438357e-01
22 108 -9.38878994624438468e-01
23 108 -9.38878994624438468e-01
24 108 -9.38878994624438357e-01
25 108 -9.38878994624438468e-01
26 108 -9.38878994624438468e-01
27 108 -9.38878994624438690e-01
28 108 -9.38878994624438468e-01
29 108 -9.38878994624438579e-01
30 108 -9.38878994624438468e-01
31 108 -9.38878994624438579e-01
32 108 -9.38878994624438468e-01
33 108 -9.38878994624438468e-01
34 108 -9.38878994624438246e-01
35 108 -9.38878994624438468e-01
36 108 -9.38878994624438468e-01
37 108 -9.38878994624438579e-01
38 108 -9.38878994624438468e-01
39 108 -9.38878994624438579e-01
40 108 -9.38878994624438468e-01
41 108 -9.38878994624438690e-01
42 108 -9.38878994624438357e-01
43 108 -9.38878994624438468e-01
44 108 -9.38878994624438468e-01
45 108 -9.38878994624438468e-01
46 108 -9.38878994624438357e-01
47 108 -9.38878994624438357e-01
48 108 -9.38878994624438357e-01
49 108 -9.38878994624438690e-01
50 108 -9.38878994624438579e-01
51 108 -9.38878994624438579e-01
52 108 -9.38878994624438357e-01
53 108 -9.38878994624438579e-01
54 108 -9.38878994624438357e-01
55 108 -9.38878994624438468e-01
56 108 -9.38878994624438468e-01
57 108 -9.38878994624438357e-01
58 108 -9.38878994624438468e-01
59 108 -9.38878994624438468e-01
60 108 -9.38878994624438690e-01
61 108 -9.38878994624438468e-01
62 108 -9.38878994624438579e-01
63 108 -9.38878994624438468e-01
64 108 -9.38878994624438579e-01
65 108 -9.38878994624438468e-01
66 108 -9.38878994624438468e-01
67 108 -9.38878994624438246e-01
68 108 -9.38878994624438468e-01
69 108 -9.38878994624438468e-01
70 108 -9.38878994624438579e-01
71 108 -9.38878994624438468e-01
72 108 -9.38878994624438579e-01
73 108 -9.38878994624438468e-01
74 108 -9.38878994624438690e-01
75 108 -9.38878994624438357e-01
76 108 -9.38878994624438468e-01
77 108 -9.38878994624438468e-01
78 108 -9.38878994624438468e-01
79 108 -9.38878994624438357e-01
80 108 -9.38878994624438357e-01
81 108 -9.38878994624438357e-01
82 108 -9.38878994624438690e-01
83 108 -9.38878994624438579e-01
84 108 -9.38878994624438579e-01
85 108 -9.38878994624438357e-01
86 108 -9.38878994624438579e-01
87 108 -9.38878994624438357e-01
88 108 -9.38878994624438468e-01
89 108 -9.38878994624438468e-01
90 108 -9.38878994624438357e-01
91 108 -9.38878994624438468e-01
92 108 -9.38878994624438468e-01
93 108 -9.38878994624438690e-01
94 108 -9.38878994624438468e-01
95 108 -9.38878994624438579e-01
96 108 -9.38878994624438468e-01
97 108 -9.38878994624438579e-01
98 108 -9.38878994624438468e-01
99 108 -9.38878994624438468e-01
100 108 -9.38878994624438246e-01
101 108 -9.38878994624438468e-01
102 108 -9.38878994624438468e-01
103 108 -9.38878994624438579e-01
104 108 -9.38878994624438468e-01
105 108 -9.38878994624438579e-01
106 108 -9.38878994624438468e-01
107 108 -9.38878994624438690e-01
108 108 -9.38878994624438357e-01
109 108 -9.38878994624438468e-01
110 108 -9.38878994624438468e-01
111 108 -9.38878994624438468e-01
112 108 -9.38878994624438357e-01
113 108 -9.38878994624438357e-01
114 108 -9.38878994624438357e-01
115 108 -9.38878994624438690e-01
116 108 -9.38878994624438579e-01
117 108 -9.38878994624438579e-01
118 108 -9.38878994624438357e-01
119 108 -9.38878994624438579e-01
120 108 -9.38878994624438357e-01
121 108 -9.38878994624438468e-01
122 108 -9.38878994624438468e-01
123 108 -9.38878994624438357e-01
124 108 -9.38878994624438468e-01
125 108 -9.38878994624438468e-01
126 108 -9.38878994624438690e-01
127 108 -9.38878994624438468e-01
128 108 -9.38878994624438579e-01
129 108 -9.38878994624438468e-01
130 108 -9.38878994624438579e-01
131 108 -9.38878994624438468e-01
132 108 -9.38878994624438468e-01
133 108 -9.38878994624438246e-01
1 109 -9.20603651537845513e-01
2 109 -9.20603651537845735e-01
3 109 -9.20603651537845846e-01
4 109 -9.20603651537845735e-01
5 109 -9.20603651537845735e-01
6 109 -9.20603651537845846e-01
7 109 -9.20603651537845735e-01
8 109 -9.20603651537845957e-01
9 109 -9.20603651537845735e-01
10 109 -9.20603651537845846e-01
11 109 -9.20603651537845846e-01
12 109 -9.20603651537845624e-01
13 109 -9.20603651537845513e-01
14 109 -9.20603651537845624e-01
15 109 -9.20603651537845735e-01
16 109 -9.20603651537845957e-01
17 109 -9.20603651537845846e-01
18 109 -9.20603651537845846e-01
19 109 -9.20603651537845735e-01
20 109 -9.20603651537845735e-01
21 109 -9.20603651537845624e-01
22 109 -9.20603651537845846e-01
23 109 -9.20603651537845624e-01
24 109 -9.20603651537845624e-01
25 109 -9.20603651537845846e-01
26 109 -9.20603651537845735e-01
27 109 -9.20603651537845957e-01
28 109 -9.20603651537845735e-01
29 109 -9.20603651537845846e-01
30 109 -9.20603651537845735e-01
31 109 -9.20603651537845735e-01
32 109 -9.20603651537845735e-01
33 109 -9.20603651537845735e-01
34 109 -9.20603651537845513e-01
35 109 -9.20603651537845735e-01
36 109 -9.20603651537845846e-01
37 109 -9.20603651537845735e-01
38 109 -9.20603651537845735e-01
39 109 -9.20603651537845846e-01
40 109 -9.20603651537845735e-01
41 109 -9.20603651537845957e-01
42 109 -9.20603651537845735e-01
43 109 -9.20603651537845846e-01
44 109 -9.20603651537845846e-01
45 109 -9.20603651537845624e-01
46 109 -9.20603651537845513e-01
47 109 -9.20603651537845624e-01
48 109 -9.20603651537845735e-01
49 109 -9.20603651537845957e-01
50 109 -9.20603651537845846e-01
51 109 -9.20603651537845846e-01
52 109 -9.20603651537845735e-01
53 109 -9.20603651537845735e-01
54 109 -9.20603651537845624e-01
55 109 -9.20603651537845846e-01
56 109 -9.20603651537845624e-01
57 109 -9.20603651537845624e-01
58 109 -9.20603651537845846e-01
59 109 -9.20603651537845735e-01
60 109 -9.20603651537845957e-01
61 109 -9.20603651537845735e-01
62 109 -9.20603651537845846e-01
63 109 -9.20603651537845735e-01
64 109 -9.20603651537845735e-01
65 109 -9.20603651537845735e-01
66 109 -9.20603651537845735e-01
67 109 -9.20603651537845513e-01
68 109 -9.20603651537845735e-01
69 109 -9.20603651537845846e-01
70 109 -9.20603651537845735e-01
71 109 -9.20603651537845735e-01
72 109 -9.20603651537845846e-01
73 109 -9.20603651537845735e-01
74 109 -9.20603651537845957e-01
75 109 -9.20603651537845735e-01
76 109 -9.20603651537845846e-01
77 109 -9.20603651537845846e-01
78 109 -9.20603651537845624e-01
79 109 -9.20603651537845513e-01
80 109 -9.20603651537845624e-01
81 109 -9.20603651537845735e-01
82 109 -9.20603651537845957e-01
83 109 -9.20603651537845846e-01
84 109 -9.20603651537845846e-01
85 109 -9.20603651537845735e-01
86 109 -9.20603651537845735e-01
87 109 -9.20603651537845624e-01
88 109 -9.20603651537845846e-01
89 109 -9.20603651537845624e-01
90 109 -9.20603651537845624e-01
91 109 -9.20603651537845846e-01
92 109 -9.20603651537845735e-01
93 109 -9.20603651537845957e-01
94 109 -9.20603651537845735e-01
95 109 -9.20603651537845846e-01
96 109 -9.20603651537845735e-01
97 109 -9.20603651537845735e-01
98 109 -9.20603651537845735e-01
99 109 -9.20603651537845735e-01
100 109 -9.20603651537845513e-01
101 109 -9.20603651537845735e-01
102 109 -9.20603651537845846e-01
103 109 -9.20603651537845735e-01
104 109 -9.20603651537845735e-01
105 109 -9.20603651537845846e-01
106 109 -9.20603651537845735e-01
107 109 -9.20603651537845957e-01
108 109 -9.20603651537845735e-01
109 109 -9.20603651537845846e-01
110 109 -9.20603651537845846e-01
111 109 -9.20603651537845624e-01
112 109 -9.20603651537845513e-01
113 109 -9.20603651537845624e-01
114 109 -9.20603651537845735e-01
115 109 -9.20603651537845957e-01
116 109 -9.20603651537845846e-01
117 109 -9.20603651537845846e-01
118 109 -9.20603651537845735e-01
119 109 -9.20603651537845735e-01
120 109 -9.20603651537845624e-01
121 109 -9.20603651537845846e-01
122 109 -9.20603651537845624e-01
123 109 -9.20603651537845624e-01
124 109 -9.20603651537845846e-01
125 109 -9.20603651537845735e-01
126 109 -9.20603651537845957e-01
127 109 -9.20603651537845735e-01
128 109 -9.20603651537845846e-01
129 109 -9.20603651537845735e-01
130 109 -9.20603651537845735e-01
131 109 -9.20603651537845735e-01
132 109 -9.20603651537845735e-01
133 109 -9.20603651537845513e-01
1 110 -8.99848849919983595e-01
2 110 -8.99848849919983818e-01
3 110 -8.99848849919983929e-01
4 110 -8.99848849919983818e-01
5 110 -8.99848849919983818e-01
6 110 -8.99848849919983929e-01
7 110 -8.99848849919983818e-01
8 110 -8.99848849919983929e-01
9 110 -8.99848849919983818e-01
10 110 -8.99848849919983929e-01
11 110 -8.99848849919983929e-01
12 110 -8.99848849919983929e-01
13 110 -8.99848849919983707e-01
14 110 -8.99848849919983707e-01
15 110 -8.99848849919983818e-01
16 110 -8.99848849919983929e-01
17 110 -8.99848849919983818e-01
18 110 -8.99848849919983818e-01
19 110 -8.99848849919983818e-01
20 110 -8.99848849919983707e-01
21 110 -8.99848849919983707e-01
22 110 -8.99848849919984040e-01
23 110 -8.99848849919983929e-01
24 110 -8.99848849919983595e-01
25 110 -8.99848849919983929e-01
26 110 -8.99848849919983818e-01
27 110 -8.99848849919983929e-01
28 110 -8.99848849919983818e-01
29 110 -8.99848849919983929e-01
30 110 -8.99848849919983818e-01
31 110 -8.99848849919983818e-01
32 110 -8.99848849919983818e-01
33 110 -8.99848849919983818e-01
34 110 -8.99848849919983595e-01
35 110 -8.99848849919983818e-01
36 110 -8.99848849919983929e-01
37 110 -8.99848849919983818e-01
38 110 -8.99848849919983818e-01
39 110 -8.99848849919983929e-01
40 110 -8.99848849919983818e-01
41 110 -8.99848849919983929e-01
42 110 -8.99848849919983818e-01
43 110 -8.99848849919983929e-01
44 110 -8.99848849919983929e-01
45 110 -8.99848849919983929e-01
46 110 -8.99848849919983707e-01
47 110 -8.99848849919983707e-01
48 110 -8.99848849919983818e-01
49 110 -8.99848849919983929e-01
50 110 -8.99848849919983818e-01
51 110 -8.99848849919983818e-01
52 110 -8.99848849919983818e-01
53 110 -8.99848849919983707e-01
54 110 -8.99848849919983707e-01
55 110 -8.99848849919984040e-01
56 110 -8.99848849919983929e-01
57 110 -8.99848849919983595e-01
58 110 -8.99848849919983929e-01
59 110 -8.99848849919983818e-01
60 110 -8.99848849919983929e-01
61 110 -8.99848849919983818e-01
62 110 -8.99848849919983929e-01
63 110 -8.99848849919983818e-01
64 110 -8.99848849919983818e-01
65 110 -8.99848849919983818e-01
66 110 -8.99848849919983818e-01
67 110 -8.99848849919983595e-01
68 110 -8.99848849919983818e-01
69 110 -8.99848849919983929e-01
70 110 -8.99848849919983818e-01
71 110 -8.99848849919983818e-01
72 110 -8.99848849919983929e-01
73 110 -8.99848849919983818e-01
74 110 -8.99848849919983929e-01
75 110 -8.99848849919983818e-01
76 110 -8.99848849919983929e-01
77 110 -8.99848849919983929e-01
78 110 -8.99848849919983929e-01
79 110 -8.99848849919983707e-01
80 110 -8.99848849919983707e-01
81 110 -8.99848849919983818e-01
82 110 -8.99848849919983929e-01
83 110 -8.99848849919983818e-01
84 110 -8.99848849919983818e-01
85 110 -8.99848849919983818e-01
86 110 -8.99848849919983707e-01
87 110 -8.99848849919983707e-01
88 110 -8.99848849919984040e-01
89 110 -8.99848849919983929e-01
90 110 -8.99848849919983595e-01
91 110 -8.99848849919983929e-01
92 110 -8.99848849919983818e-01
93 110 -8.99848849919983929e-01
94 110 -8.99848849919983818e-01
95 110 -8.99848849919983929e-01
96 110 -8.99848849919983818e-01
97 110 -8.99848849919983818e-01
98 110 -8.99848849919983818e-01
99 110 -8.99848849919983818e-01
100 110 -8.99848849919983595e-01
101 110 -8.99848849919983818e-01
102 110 -8.99848849919983929e-01
103 110 -8.99848849919983818e-01
104 110 -8.99848849919983818e-01
105 110 -8.99848849919983929e-01
106 110 -8.99848849919983818e-01
107 110 -8.99848849919983929e-01
108 110 -8.99848849919983818e-01
109 110 -8.99848849919983929e-01
110 110 -8.99848849919983929e-01
111 110 -8.99848849919983929e-01
112 110 -8.99848849919983707e-01
113 110 -8.99848849919983707e-01
114 110 -8.99848849919983818e-01
115 110 -8.99848849919983929e-01
116 110 -8.99848849919983818e-01
117 110 -8.99848849919983818e-01
118 110 -8.99848849919983818e-01
119 110 -8.99848849919983707e-01
120 110 -8.99848849919983707e-01
121 110 -8.99848849919984040e-01
122 110 -8.99848849919983929e-01
123 110 -8.99848849919983595e-01
124 110 -8.99848849919983929e-01
125 110 -8.99848849919983818e-01
126 110 -8.99848849919983929e-01
127 110 -8.99848849919983818e-01
128 110 -8.99848849919983929e-01
129 110 -8.99848849919983818e-01
130 110 -8.99848849919983818e-01
131 110 -8.99848849919983818e-01
132 110 -8.99848849919983818e-01
133 110 -8.99848849919983595e-01
1 111 -8.76627986955611171e-01
2 111 -8.76627986955611394e-01
3 111 -8.76627986955611505e-01
4 111 -8.76627986955611505e-01
5 111 -8.76627986955611505e-01
6 111 -8.76627986955611505e-01
7 111 -8.76627986955611394e-01
8 111 -8.76627986955611505e-01
9 111 -8.76627986955611394e-01
10 111 -8.76627986955611505e-01
11 111 -8.76627986955611505e-01
12 111 -8.76627986955611505e-01
13 111 -8.76627986955611282e-01
14 111 -8.76627986955611282e-01
15 111 -8.76627986955611282e-01
16 111 -8.76627986955611616e-01
17 111 -8.76627986955611282e-01
18 111 -8.76627986955611282e-01
19 111 -8.76627986955611394e-01
20 111 -8.76627986955611394e-01
21 111 -8.76627986955611282e-01
22 111 -8.76627986955611616e-01
23 111 -8.76627986955611505e-01
24 111 -8.76627986955611394e-01
25 111 -8.76627986955611505e-01
26 111 -8.76627986955611282e-01
27 111 -8.76627986955611505e-01
28 111 -8.76627986955611394e-01
29 111 -8.76627986955611616e-01
30 111 -8.76627986955611394e-01
31 111 -8.76627986955611505e-01
32 111 -8.76627986955611505e-01
33 111 -8.76627986955611394e-01
34 111 -8.76627986955611171e-01
35 111 -8.76627986955611394e-01
36 111 -8.76627986955611505e-01
37 111 -8.76627986955611505e-01
38 111 -8.76627986955611505e-01
39 111 -8.76627986955611505e-01
40 111 -8.76627986955611394e-01
41 111 -8.76627986955611505e-01
42 111 -8.76627986955611394e-01
43 111 -8.76627986955611505e-01
44 111 -8.76627986955611505e-01
45 111 -8.76627986955611505e-01
46 111 -8.76627986955611282e-01
47 111 -8.76627986955611282e-01
48 111 -8.76627986955611282e-01
49 111 -8.76627986955611616e-01
50 111 -8.76627986955611282e-01
51 111 -8.76627986955611282e-01
52 111 -8.76627986955611394e-01
53 111 -8.76627986955611394e-01
54 111 -8.76627986955611282e-01
55 111 -8.76627986955611616e-01
56 111 -8.76627986955611505e-01
57 111 -8.76627986955611394e-01
58 111 -8.76627986955611505e-01
59 111 -8.76627986955611282e-01
60 111 -8.76627986955611505e-01
61 111 -8.76627986955611394e-01
62 111 -8.76627986955611616e-01
63 111 -8.76627986955611394e-01
64 111 -8.76627986955611505e-01
65 111 -8.76627986955611505e-01
66 111 -8.76627986955611394e-01
67 111 -8.76627986955611171e-01
68 111 -8.76627986955611394e-01
69 111 -8.76627986955611505e-01
70 111 -8.76627986955611505e-01
71 111 -8.76627986955611505e-01
72 111 -8.76627986955611505e-01
73 111 -8.76627986955611394e-01
74 111 -8.76627986955611505e-01
75 111 -8.76627986955611394e-01
76 111 -8.76627986955611505e-01
77 111 -8.76627986955611505e-01
78 111 -8.76627986955611505e-01
79 111 -8.76627986955611282e-01
80 111 -8.76627986955611282e-01
81 111 -8.76627986955611282e-01
82 111 -8.76627986955611616e-01
83 111 -8.76627986955611282e-01
84 111 -8.76627986955611282e-01
85 111 -8.76627986955611394e-01
86 111 -8.76627986955611394e-01
87 111 -8.76627986955611282e-01
88 111 -8.76627986955611616e-01
89 111 -8.76627986955611505e-01
90 111 -8.76627986955611394e-01
91 111 -8.76627986955611505e-01
92 111 -8.76627986955611282e-01
93 111 -8.76627986955611505e-01
94 111 -8.76627986955611394e-01
95 111 -8.76627986955611616e-01
96 111 -8.76627986955611394e-01
97 111 -8.76627986955611505e-01
98 111 -8.76627986955611505e-01
99 111 -8.76627986955611394e-01
100 111 -8.76627986955611171e-01
101 111 -8.76627986955611394e-01
102 111 -8.76627986955611505e-01
103 111 -8.76627986955611505e-01
104 111 -8.76627986955611505e-01
105 111 -8.76627986955611505e-01
106 111 -8.76627986955611394e-01
107 111 -8.76627986955611505e-01
108 111 -8.76627986955611394e-01
109 111 -8.76627986955611505e-01
110 111 -8.76627986955611505e-01
111 111 -8.76627986955611505e-01
112 111 -8.76627986955611282e-01
113 111 -8.76627986955611282e-01
114 111 -8.76627986955611282e-01
115 111 -8.76627986955611616e-01
116 111 -8.76627986955611282e-01
117 111 -8.76627986955611282e-01
118 111 -8.76627986955611394e-01
119 111 -8.76627986955611394e-01
120 111 -8.76627986955611282e-01
121 111 -8.76627986955611616e-01
122 111 -8.76627986955611505e-01
123 111 -8.76627986955611394e-01
124 111 -8.76627986955611505e-01
125 111 -8.76627986955611282e-01
126 111 -8.76627986955611505e-01
127 111 -8.76627986955611394e-01
128 111 -8.76627986955611616e-01
129 111 -8.76627986955611394e-01
130 111 -8.76627986955611505e-01
131 111 -8.76627986955611505e-01
132 111 -8.76627986955611394e-01
133 111 -8.76627986955611171e-01
1 112 -8.50974491469989602e-01
2 112 -8.50974491469989713e-01
3 112 -8.50974491469989824e-01
4 112 -8.50974491469989824e-01
5 112 -8.50974491469989935e-01
6 112 -8.50974491469989824e-01
7 112 -8.50974491469989713e-01
8 112 -8.50974491469989935e-01
9 112 -8.50974491469989713e-01
10 112 -8.50974491469989824e-01
11 112 -8.50974491469989713e-01
12 112 -8.50974491469989824e-01
13 112 -8.50974491469989713e-01
14 112 -8.50974491469989713e-01
15 112 -8.50974491469989602e-01
16 112 -8.50974491469989935e-01
17 112 -8.50974491469989713e-01
18 112 -8.50974491469989713e-01
19 112 -8.50974491469989713e-01
20 112 -8.50974491469989713e-01
21 112 -8.50974491469989713e-01
22 112 -8.50974491469989713e-01
23 112 -8.50974491469989824e-01
24 112 -8.50974491469989713e-01
25 112 -8.50974491469989824e-01
26 112 -8.50974491469989713e-01
27 112 -8.50974491469989935e-01
28 112 -8.50974491469989713e-01
29 112 -8.50974491469989824e-01
30 112 -8.50974491469989713e-01
31 112 -8.50974491469989824e-01
32 112 -8.50974491469989824e-01
33 112 -8.50974491469989713e-01
34 112 -8.50974491469989602e-01
35 112 -8.50974491469989713e-01
36 112 -8.50974491469989824e-01
37 112 -8.50974491469989824e-01
38 112 -8.50974491469989935e-01
39 112 -8.50974491469989824e-01
40 112 -8.50974491469989713e-01
41 112 -8.50974491469989935e-01
42 112 -8.50974491469989713e-01
43 112 -8.50974491469989824e-01
44 112 -8.50974491469989713e-01
45 112 -8.50974491469989824e-01
46 112 -8.50974491469989713e-01
47 112 -8.50974491469989713e-01
48 112 -8.50974491469989602e-01
49 112 -8.50974491469989935e-01
50 112 -8.50974491469989713e-01
51 112 -8.50974491469989713e-01
52 112 -8.50974491469989713e-01
53 112 -8.50974491469989713e-01
54 112 -8.50974491469989713e-01
55 112 -8.50974491469989713e-01
56 112 -8.50974491469989824e-01
57 112 -8.50974491469989713e-01
58 112 -8.50974491469989824e-01
59 112 -8.50974491469989713e-01
60 112 -8.50974491469989935e-01
61 112 -8.50974491469989713e-01
62 112 -8.50974491469989824e-01
63 112 -8.50974491469989713e-01
64 112 -8.50974491469989824e-01
65 112 -8.50974491469989824e-01
66 112 -8.50974491469989713e-01
67 112 -8.50974491469989602e-01
68 112 -8.50974491469989713e-01
69 112 -8.50974491469989824e-01
70 112 -8.50974491469989824e-01
71 112 -8.50974491469989935e-01
72 112 -8.50974491469989824e-01
73 112 -8.50974491469989713e-01
74 112 -8.50974491469989935e-01
75 112 -8.50974491469989713e-01
76 112 -8.50974491469989824e-01
77 112 -8.50974491469989713e-01
78 112 -8.50974491469989824e-01
79 112 -8.50974491469989713e-01
80 112 -8.50974491469989713e-01
81 112 -8.50974491469989602e-01
82 112 -8.50974491469989935e-01
83 112 -8.50974491469989713e-01
84 112 -8.50974491469989713e-01
85 112 -8.50974491469989713e-01
86 112 -8.50974491469989713e-01
87 112 -8.50974491469989713e-01
88 112 -8.50974491469989713e-01
89 112 -8.50974491469989824e-01
90 112 -8.50974491469989713e-01
91 112 -8.50974491469989824e-01
92 112 -8.50974491469989713e-01
93 112 -8.50974491469989935e-01
94 112 -8.50974491469989713e-01
95 112 -8.50974491469989824e-01
96 112 -8.50974491469989713e-01
97 112 -8.50974491469989824e-01
98 112 -8.50974491469989824e-01
99 112 -8.50974491469989713e-01
100 112 -8.50974491469989602e-01
101 112 -8.50974491469989713e-01
102 112 -8.50974491469989824e-01
103 112 -8.50974491469989824e-01
104 112 -8.50974491469989935e-01
105 112 -8.50974491469989824e-01
106 112 -8.50974491469989713e-01
107 112 -8.50974491469989935e-01
108 112 -8.50974491469989713e-01
109 112 -8.50974491469989824e-01
110 112 -8.50974491469989713e-01
111 112 -8.50974491469989824e-01
112 112 -8.50974491469989713e-01
113 112 -8.50974491469989713e-01
114 112 -8.50974491469989602e-01
115 112 -8.50974491469989935e-01
116 112 -8.50974491469989713e-01
117 112 -8.50974491469989713e-01
118 112 -8.50974491469989713e-01
119 112 -8.50974491469989713e-01
120 112 -8.50974491469989713e-01
121 112 -8.50974491469989713e-01
122 112 -8.50974491469989824e-01
123 112 -8.50974491469989713e-01
124 112 -8.50974491469989824e-01
125 112 -8.50974491469989713e-01
126 112 -8.50974491469989935e-01
127 112 -8.50974491469989713e-01
128 112 -8.50974491469989824e-01
129 112 -8.50974491469989713e-01
130 112 -8.50974491469989824e-01
131 112 -8.50974491469989824e-01
132 112 -8.50974491469989713e-01
133 112 -8.50974491469989602e-01
1 113 -8.22942178512991451e-01
2 113 -8.22942178512991562e-01
3 113 -8.22942178512991673e-01
4 113 -8.22942178512991673e-01
5 113 -8.22942178512991673e-01
6 113 -8.22942178512991673e-01
7 113 -8.22942178512991562e-01
8 113 -8.22942178512991784e-01
9 113 -8.22942178512991451e-01
10 113 -8.22942178512991673e-01
11 113 -8.22942178512991562e-01
12 113 -8.22942178512991562e-01
13 113 -8.22942178512991451e-01
14 113 -8.22942178512991562e-01
15 113 -8.22942178512991451e-01
16 113 -8.22942178512991673e-01
17 113 -8.22942178512991562e-01
18 113 -8.22942178512991562e-01
19 113 -8.22942178512991451e-01
20 113 -8.22942178512991562e-01
21 113 -8.22942178512991562e-01
22 113 -8.22942178512991451e-01
23 113 -8.22942178512991562e-01
24 113 -8.22942178512991562e-01
25 113 -8.22942178512991562e-01
26 113 -8.22942178512991451e-01
27 113 -8.22942178512991784e-01
28 113 -8.22942178512991562e-01
29 113 -8.22942178512991562e-01
30 113 -8.22942178512991562e-01
31 113 -8.22942178512991673e-01
32 113 -8.22942178512991673e-01
33 113 -8.22942178512991562e-01
34 113 -8.22942178512991451e-01
35 113 -8.22942178512991562e-01
36 113 -8.22942178512991673e-01
37 113 -8.22942178512991673e-01
38 113 -8.22942178512991673e-01
39 113 -8.22942178512991673e-01
40 113 -8.22942178512991562e-01
41 113 -8.22942178512991784e-01
42 113 -8.22942178512991451e-01
43 113 -8.22942178512991673e-01
44 113 -8.22942178512991562e-01
45 113 -8.22942178512991562e-01
46 113 -8.22942178512991451e-01
47 113 -8.22942178512991562e-01
48 113 -8.22942178512991451e-01
49 113 -8.22942178512991673e-01
50 113 -8.22942178512991562e-01
51 113 -8.22942178512991562e-01
52 113 -8.22942178512991451e-01
53 113 -8.22942178512991562e-01
54 113 -8.22942178512991562e-01
55 113 -8.22942178512991451e-01
56 113 -8.22942178512991562e-01
57 113 -8.22942178512991562e-01
58 113 -8.22942178512991562e-01
59 113 -8.22942178512991451e-01
60 113 -8.22942178512991784e-01
61 113 -8.22942178512991562e-01
62 113 -8.22942178512991562e-01
63 113 -8.22942178512991562e-01
64 113 -8.22942178512991673e-01
65 113 -8.22942178512991673e-01
66 113 -8.22942178512991562e-01
67 113 -8.22942178512991451e-01
68 113 -8.22942178512991562e-01
69 113 -8.22942178512991673e-01
70 113 -8.22942178512991673e-01
71 113 -8.22942178512991673e-01
72 113 -8.22942178512991673e-01
73 113 -8.22942178512991562e-01
74 113 -8.22942178512991784e-01
75 113 -8.22942178512991451e-01
76 113 -8.22942178512991673e-01
77 113 -8.22942178512991562e-01
78 113 -8.22942178512991562e-01
79 113 -8.22942178512991451e-01
80 113 -8.22942178512991562e-01
81 113 -8.22942178512991451e-01
82 113 -8.22942178512991673e-01
83 113 -8.22942178512991562e-01
84 113 -8.22942178512991562e-01
85 113 -8.22942178512991451e-01
86 113 -8.22942178512991562e-01
87 113 -8.22942178512991562e-01
88 113 -8.22942178512991451e-01
89 113 -8.22942178512991562e-01
90 113 -8.22942178512991562e-01
91 113 -8.22942178512991562e-01
92 113 -8.22942178512991451e-01
93 113 -8.22942178512991784e-01
94 113 -8.22942178512991562e-01
95 113 -8.22942178512991562e-01
96 113 -8.22942178512991562e-01
97 113 -8.22942178512991673e-01
98 113 -8.22942178512991673e-01
99 113 -8.22942178512991562e-01
100 113 -8.22942178512991451e-01
101 113 -8.22942178512991562e-01
102 113 -8.22942178512991673e-01
103 113 -8.22942178512991673e-01
104 113 -8.22942178512991673e-01
105 113 -8.22942178512991673e-01
106 113 -8.22942178512991562e-01
107 113 -8.22942178512991784e-01
108 113 -8.22942178512991451e-01
109 113 -8.22942178512991673e-01
110 113 -8.22942178512991562e-01
111 113 -8.22942178512991562e-01
112 113 -8.22942178512991451e-01
113 113 -8.22942178512991562e-01
114 113 -8.22942178512991451e-01
115 113 -8.22942178512991673e-01
116 113 -8.22942178512991562e-01
117 113 -8.22942178512991562e-01
118 113 -8.22942178512991451e-01
119 113 -8.22942178512991562e-01
120 113 -8.22942178512991562e-01
121 113 -8.22942178512991451e-01
122 113 -8.22942178512991562e-01
123 113 -8.22942178512991562e-01
124 113 -8.22942178512991562e-01
125 113 -8.22942178512991451e-01
126 113 -8.22942178512991784e-01
127 113 -8.22942178512991562e-01
128 113 -8.22942178512991562e-01
129 113 -8.22942178512991562e-01
130 113 -8.22942178512991673e-01
131 113 -8.22942178512991673e-01
132 113 -8.22942178512991562e-01
133 113 -8.22942178512991451e-01
1 114 -7.92605211317161995e-01
2 114 -7.92605211317161995e-01
3 114 -7.92605211317162106e-01
4 114 -7.92605211317162106e-01
5 114 -7.92605211317162217e-01
6 114 -7.92605211317162106e-01
7 114 -7.92605211317162106e-01
8 114 -7.92605211317162328e-01
9 114 -7.92605211317161884e-01
10 114 -7.92605211317162106e-01
11 114 -7.92605211317161995e-01
12 114 -7.92605211317161995e-01
13 114 -7.92605211317161884e-01
14 114 -7.92605211317161995e-01
15 114 -7.92605211317161884e-01
16 114 -7.92605211317162106e-01
17 114 -7.92605211317162106e-01
18 114 -7.92605211317162106e-01
19 114 -7.92605211317161884e-01
20 114 -7.92605211317161995e-01
21 114 -7.92605211317161995e-01
22 114 -7.92605211317161884e-01
23 114 -7.92605211317161995e-01
24 114 -7.92605211317161995e-01
25 114 -7.92605211317162106e-01
26 114 -7.92605211317161995e-01
27 114 -7.92605211317162328e-01
28 114 -7.92605211317162106e-01
29 114 -7.92605211317162106e-01
30 114 -7.92605211317161995e-01
31 114 -7.92605211317162106e-01
32 114 -7.92605211317162106e-01
33 114 -7.92605211317161995e-01
34 114 -7.92605211317161995e-01
35 114 -7.92605211317161995e-01
36 114 -7.92605211317162106e-01
37 114 -7.92605211317162106e-01
38 114 -7.92605211317162217e-01
39 114 -7.92605211317162106e-01
40 114 -7.92605211317162106e-01
41 114 -7.92605211317162328e-01
42 114 -7.92605211317161884e-01
43 114 -7.92605211317162106e-01
44 114 -7.92605211317161995e-01
45 114 -7.92605211317161995e-01
46 114 -7.92605211317161884e-01
47 114 -7.92605211317161995e-01
48 114 -7.92605211317161884e-01
49 114 -7.92605211317162106e-01
50 114 -7.92605211317162106e-01
51 114 -7.92605211317162106e-01
52 114 -7.92605211317161884e-01
53 114 -7.92605211317161995e-01
54 114 -7.92605211317161995e-01
55 114 -7.92605211317161884e-01
56 114 -7.92605211317161995e-01
57 114 -7.92605211317161995e-01
58 114 -7.92605211317162106e-01
59 114 -7.92605211317161995e-01
60 114 -7.92605211317162328e-01
61 114 -7.92605211317162106e-01
62 114 -7.92605211317162106e-01
63 114 -7.92605211317161995e-01
64 114 -7.92605211317162106e-01
65 114 -7.92605211317162106e-01
66 114 -7.92605211317161995e-01
67 114 -7.92605211317161995e-01
68 114 -7.92605211317161995e-01
69 114 -7.92605211317162106e-01
70 114 -7.92605211317162106e-01
71 114 -7.92605211317162217e-01
72 114 -7.92605211317162106e-01
73 114 -7.92605211317162106e-01
74 114 -7.92605211317162328e-01
75 114 -7.92605211317161884e-01
76 114 -7.92605211317162106e-01
77 114 -7.92605211317161995e-01
78 114 -7.92605211317161995e-01
79 114 -7.92605211317161884e-01
80 114 -7.92605211317161995e-01
81 114 -7.92605211317161884e-01
82 114 -7.92605211317162106e-01
83 114 -7.92605211317162106e-01
84 114 -7.92605211317162106e-01
85 114 -7.92605211317161884e-01
86 114 -7.92605211317161995e-01
87 114 -7.92605211317161995e-01
88 114 -7.92605211317161884e-01
89 114 -7.92605211317161995e-01
90 114 -7.92605211317161995e-01
91 114 -7.92605211317162106e-01
92 114 -7.92605211317161995e-01
93 114 -7.92605211317162328e-01
94 114 -7.92605211317162106e-01
95 114 -7.92605211317162106e-01
96 114 -7.92605211317161995e-01
97 114 -7.92605211317162106e-01
98 114 -7.92605211317162106e-01
99 114 -7.92605211317161995e-01
100 114 -7.92605211317161995e-01
101 114 -7.92605211317161995e-01
102 114 -7.92605211317162106e-01
103 114 -7.92605211317162106e-01
104 114 -7.92605211317162217e-01
105 114 -7.92605211317162106e-01
106 114 -7.92605211317162106e-01
107 114 -7.92605211317162328e-01
108 114 -7.92605211317161884e-01
109 114 -7.92605211317162106e-01
110 114 -7.92605211317161995e-01
111 114 -7.92605211317161995e-01
112 114 -7.92605211317161884e-01
113 114 -7.92605211317161995e-01
114 114 -7.92605211317161884e-01
115 114 -7.92605211317162106e-01
116 114 -7.92605211317162106e-01
117 114 -7.92605211317162106e-01
118 114 -7.92605211317161884e-01
119 114 -7.92605211317161995e-01
120 114 -7.92605211317161995e-01
121 114 -7.92605211317161884e-01
122 114 -7.92605211317161995e-01
123 114 -7.92605211317161995e-01
124 114 -7.92605211317162106e-01
125 114 -7.92605211317161995e-01
126 114 -7.92605211317162328e-01
127 114 -7.92605211317162106e-01
128 114 -7.92605211317162106e-01
129 114 -7.92605211317161995e-01
130 114 -7.92605211317162106e-01
131 114 -7.92605211317162106e-01
132 114 -7.92605211317161995e-01
133 114 -7.92605211317161995e-01
1 115 -7.60057653303947478e-01
2 115 -7.60057653303947478e-01
3 115 -7.60057653303947589e-01
4 115 -7.60057653303947478e-01
5 115 -7.60057653303947700e-01
6 115 -7.60057653303947478e-01
7 115 -7.60057653303947589e-01
8 115 -7.60057653303947811e-01
9 115 -7.60057653303947367e-01
10 115 -7.60057653303947589e-01
11 115 -7.60057653303947589e-01
12 115 -7.60057653303947589e-01
13 115 -7.60057653303947367e-01
14 115 -7.60057653303947589e-01
15 115 -7.60057653303947367e-01
16 115 -7.60057653303947478e-01
17 115 -7.60057653303947589e-01
18 115 -7.60057653303947589e-01
19 115 -7.60057653303947367e-01
20 115 -7.60057653303947478e-01
21 115 -7.60057653303947589e-01
22 115 -7.60057653303947367e-01
23 115 -7.60057653303947478e-01
24 115 -7.60057653303947478e-01
25 115 -7.60057653303947478e-01
26 115 -7.60057653303947589e-01
27 115 -7.60057653303947811e-01
28 115 -7.60057653303947589e-01
29 115 -7.60057653303947478e-01
30 115 -7.60057653303947478e-01
31 115 -7.60057653303947478e-01
32 115 -7.60057653303947700e-01
33 115 -7.60057653303947478e-01
34 115 -7.60057653303947478e-01
35 115 -7.60057653303947478e-01
36 115 -7.60057653303947589e-01
37 115 -7.60057653303947478e-01
38 115 -7.60057653303947700e-01
39 115 -7.60057653303947478e-01
40 115 -7.60057653303947589e-01
41 115 -7.60057653303947811e-01
42 115 -7.60057653303947367e-01
43 115 -7.60057653303947589e-01
44 115 -7.60057653303947589e-01
45 115 -7.60057653303947589e-01
46 115 -7.60057653303947367e-01
47 115 -7.60057653303947589e-01
48 115 -7.60057653303947367e-01
49 115 -7.60057653303947478e-01
50 115 -7.60057653303947589e-01
51 115 -7.60057653303947589e-01
52 115 -7.60057653303947367e-01
53 115 -7.60057653303947478e-01
54 115 -7.60057653303947589e-01
55 115 -7.60057653303947367e-01
56 115 -7.60057653303947478e-01
57 115 -7.60057653303947478e-01
58 115 -7.60057653303947478e-01
59 115 -7.60057653303947589e-01
60 115 -7.60057653303947811e-01
61 115 -7.60057653303947589e-01
62 115 -7.60057653303947478e-01
63 115 -7.60057653303947478e-01
64 115 -7.60057653303947478e-01
65 115 -7.60057653303947700e-01
66 115 -7.60057653303947478e-01
67 115 -7.60057653303947478e-01
68 115 -7.60057653303947478e-01
69 115 -7.60057653303947589e-01
70 115 -7.60057653303947478e-01
71 115 -7.60057653303947700e-01
72 115 -7.60057653303947478e-01
73 115 -7.60057653303947589e-01
74 115 -7.60057653303947811e-01
75 115 -7.60057653303947367e-01
76 115 -7.60057653303947589e-01
77 115 -7.60057653303947589e-01
78 115 -7.60057653303947589e-01
79 115 -7.60057653303947367e-01
80 115 -7.60057653303947589e-01
81 115 -7.60057653303947367e-01
82 115 -7.60057653303947478e-01
83 115 -7.60057653303947589e-01
84 115 -7.60057653303947589e-01
85 115 -7.60057653303947367e-01
86 115 -7.60057653303947478e-01
87 115 -7.60057653303947589e-01
88 115 -7.60057653303947367e-01
89 115 -7.60057653303947478e-01
90 115 -7.60057653303947478e-01
91 115 -7.60057653303947478e-01
92 115 -7.60057653303947589e-01
93 115 -7.60057653303947811e-01
94 115 -7.60057653303947589e-01
95 115 -7.60057653303947478e-01
96 115 -7.60057653303947478e-01
97 115 -7.60057653303947478e-01
98 115 -7.60057653303947700e-01
99 115 -7.60057653303947478e-01
100 115 -7.60057653303947478e-01
101 115 -7.60057653303947478e-01
102 115 -7.60057653303947589e-01
103 115 -7.60057653303947478e-01
104 115 -7.60057653303947700e-01
105 115 -7.60057653303947478e-01
106 115 -7.60057653303947589e-01
107 115 -7.60057653303947811e-01
108 115 -7.60057653303947367e-01
109 115 -7.60057653303947589e-01
110 115 -7.60057653303947589e-01
111 115 -7.60057653303947589e-01
112 115 -7.60057653303947367e-01
113 115 -7.60057653303947589e-01
114 115 -7.60057653303947367e-01
115 115 -7.60057653303947478e-01
116 115 -7.60057653303947589e-01
117 115 -7.60057653303947589e-01
118 115 -7.60057653303947367e-01
119 115 -7.60057653303947478e-01
120 115 -7.60057653303947589e-01
121 115 -7.60057653303947367e-01
122 115 -7.60057653303947478e-01
123 115 -7.60057653303947478e-01
124 115 -7.60057653303947478e-01
125 115 -7.60057653303947589e-01
126 115 -7.60057653303947811e-01
127 115 -7.60057653303947589e-01
128 115 -7.60057653303947478e-01
129 115 -7.60057653303947478e-01
130 115 -7.60057653303947478e-01
131 115 -7.60057653303947700e-01
132 115 -7.60057653303947478e-01
133 115 -7.60057653303947478e-01
1 116 -7.25412607362388218e-01
2 116 -7.25412607362388329e-01
3 116 -7.25412607362388440e-01
4 116 -7.25412607362388329e-01
5 116 -7.25412607362388551e-01
6 116 -7.25412607362388329e-01
7 116 -7.25412607362388329e-01
8 116 -7.25412607362388662e-01
9 116 -7.25412607362388107e-01
10 116 -7.25412607362388440e-01
11 116 -7.25412607362388440e-01
12 116 -7.25412607362388329e-01
13 116 -7.25412607362388218e-01
14 116 -7.25412607362388329e-01
15 116 -7.25412607362388329e-01
16 116 -7.25412607362388329e-01
17 116 -7.25412607362388329e-01
18 116 -7.25412607362388329e-01
19 116 -7.25412607362388107e-01
20 116 -7.25412607362388329e-01
21 116 -7.25412607362388329e-01
22 116 -7.25412607362388218e-01
23 116 -7.25412607362388218e-01
24 116 -7.25412607362388329e-01
25 116 -7.25412607362388329e-01
26 116 -7.25412607362388329e-01
27 116 -7.25412607362388662e-01
28 116 -7.25412607362388329e-01
29 116 -7.25412607362388218e-01
30 116 -7.25412607362388329e-01
31 116 -7.25412607362388440e-01
32 116 -7.25412607362388551e-01
33 116 -7.25412607362388329e-01
34 116 -7.25412607362388218e-01
35 116 -7.25412607362388329e-01
36 116 -7.25412607362388440e-01
37 116 -7.25412607362388329e-01
38 116 -7.25412607362388551e-01
39 116 -7.25412607362388329e-01
40 116 -7.25412607362388329e-01
41 116 -7.25412607362388662e-01
42 116 -7.25412607362388107e-01
43 116 -7.25412607362388440e-01
44 116 -7.25412607362388440e-01
45 116 -7.25412607362388329e-01
46 116 -7.25412607362388218e-01
47 116 -7.25412607362388329e-01
48 116 -7.25412607362388329e-01
49 116 -7.25412607362388329e-01
50 116 -7.25412607362388329e-01
51 116 -7.25412607362388329e-01
52 116 -7.25412607362388107e-01
53 116 -7.25412607362388329e-01
54 116 -7.25412607362388329e-01
55 116 -7.25412607362388218e-01
56 116 -7.25412607362388218e-01
57 116 -7.25412607362388329e-01
58 116 -7.25412607362388329e-01
59 116 -7.25412607362388329e-01
60 116 -7.25412607362388662e-01
61 116 -7.25412607362388329e-01
62 116 -7.25412607362388218e-01
63 116 -7.25412607362388329e-01
64 116 -7.25412607362388440e-01
65 116 -7.25412607362388551e-01
66 116 -7.25412607362388329e-01
67 116 -7.25412607362388218e-01
68 116 -7.25412607362388329e-01
69 116 -7.25412607362388440e-01
70 116 -7.25412607362388329e-01
71 116 -7.25412607362388551e-01
72 116 -7.25412607362388329e-01
73 116 -7.25412607362388329e-01
74 116 -7.25412607362388662e-01
75 116 -7.25412607362388107e-01
76 116 -7.25412607362388440e-01
77 116 -7.25412607362388440e-01
78 116 -7.25412607362388329e-01
79 116 -7.25412607362388218e-01
80 116 -7.25412607362388329e-01
81 116 -7.25412607362388329e-01
82 116 -7.25412607362388329e-01
83 116 -7.25412607362388329e-01
84 116 -7.25412607362388329e-01
85 116 -7.25412607362388107e-01
86 116 -7.25412607362388329e-01
87 116 -7.25412607362388329e-01
88 116 -7.25412607362388218e-01
89 116 -7.25412607362388218e-01
90 116 -7.25412607362388329e-01
91 116 -7.25412607362388329e-01
92 116 -7.25412607362388329e-01
93 116 -7.25412607362388662e-01
94 116 -7.25412607362388329e-01
95 116 -7.25412607362388218e-01
96 116 -7.25412607362388329e-01
97 116 -7.25412607362388440e-01
98 116 -7.25412607362388551e-01
99 116 -7.25412607362388329e-01
100 116 -7.25412607362388218e-01
101 116 -7.25412607362388329e-01
102 116 -7.25412607362388440e-01
103 116 -7.25412607362388329e-01
104 116 -7.25412607362388551e-01
105 116 -7.25412607362388329e-01
106 116 -7.25412607362388329e-01
107 116 -7.25412607362388662e-01
108 116 -7.25412607362388107e-01
109 116 -7.25412607362388440e-01
110 116 -7.25412607362388440e-01
111 116 -7.25412607362388329e-01
112 116 -7.25412607362388218e-01
113 116 -7.25412607362388329e-01
114 116 -7.25412607362388329e-01
115 116 -7.25412607362388329e-01
116 116 -7.25412607362388329e-01
117 116 -7.25412607362388329e-01
118 116 -7.25412607362388107e-01
119 116 -7.25412607362388329e-01
120 116 -7.25412607362388329e-01
121 116 -7.25412607362388218e-01
122 116 -7.25412607362388218e-01
123 116 -7.25412607362388329e-01
124 116 -7.25412607362388329e-01
125 116 -7.25412607362388329e-01
126 116 -7.25412607362388662e-01
127 116 -7.25412607362388329e-01
128 116 -7.25412607362388218e-01
129 116 -7.25412607362388329e-01
130 116 -7.25412607362388440e-01
131 116 -7.25412607362388551e-01
132 116 -7.25412607362388329e-01
133 116 -7.25412607362388218e-01
1 117 -6.88800955010706706e-01
2 117 -6.88800955010706817e-01
3 117 -6.88800955010706817e-01
4 117 -6.88800955010706706e-01
5 117 -6.88800955010706928e-01
6 117 -6.88800955010706817e-01
7 117 -6.88800955010706706e-01
8 117 -6.88800955010707150e-01
9 117 -6.88800955010706484e-01
10 117 -6.88800955010706928e-01
11 117 -6.88800955010706817e-01
12 117 -6.88800955010706817e-01
13 117 -6.88800955010706706e-01
14 117 -6.88800955010706817e-01
15 117 -6.88800955010706817e-01
16 117 -6.88800955010706706e-01
17 117 -6.88800955010706817e-01
18 117 -6.88800955010706817e-01
19 117 -6.88800955010706706e-01
20 117 -6.88800955010706817e-01
21 117 -6.88800955010706817e-01
22 117 -6.88800955010706706e-01
23 117 -6.88800955010706706e-01
24 117 -6.88800955010706706e-01
25 117 -6.88800955010706817e-01
26 117 -6.88800955010706706e-01
27 117 -6.88800955010707150e-01
28 117 -6.88800955010706706e-01
29 117 -6.88800955010706706e-01
30 117 -6.88800955010706706e-01
31 117 -6.88800955010706817e-01
32 117 -6.88800955010707039e-01
33 117 -6.88800955010706817e-01
34 117 -6.88800955010706706e-01
35 117 -6.88800955010706817e-01
36 117 -6.88800955010706817e-01
37 117 -6.88800955010706706e-01
38 117 -6.88800955010706928e-01
39 117 -6.88800955010706817e-01
40 117 -6.88800955010706706e-01
41 117 -6.88800955010707150e-01
42 117 -6.88800955010706484e-01
43 117 -6.88800955010706928e-01
44 117 -6.88800955010706817e-01
45 117 -6.88800955010706817e-01
46 117 -6.88800955010706706e-01
47 117 -6.88800955010706817e-01
48 117 -6.88800955010706817e-01
49 117 -6.88800955010706706e-01
50 117 -6.88800955010706817e-01
51 117 -6.88800955010706817e-01
52 117 -6.88800955010706706e-01
53 117 -6.88800955010706817e-01
54 117 -6.88800955010706817e-01
55 117 -6.88800955010706706e-01
56 117 -6.88800955010706706e-01
57 117 -6.88800955010706706e-01
58 117 -6.88800955010706817e-01
59 117 -6.88800955010706706e-01
60 117 -6.88800955010707150e-01
61 117 -6.88800955010706706e-01
62 117 -6.88800955010706706e-01
63 117 -6.88800955010706706e-01
64 117 -6.88800955010706817e-01
65 117 -6.88800955010707039e-01
66 117 -6.88800955010706817e-01
67 117 -6.88800955010706706e-01
68 117 -6.88800955010706817e-01
69 117 -6.88800955010706817e-01
70 117 -6.88800955010706706e-01
71 117 -6.88800955010706928e-01
72 117 -6.88800955010706817e-01
73 117 -6.88800955010706706e-01
74 117 -6.88800955010707150e-01
75 117 -6.88800955010706484e-01
76 117 -6.88800955010706928e-01
77 117 -6.88800955010706817e-01
78 117 -6.88800955010706817e-01
79 117 -6.88800955010706706e-01
80 117 -6.88800955010706817e-01
81 117 -6.88800955010706817e-01
82 117 -6.88800955010706706e-01
83 117 -6.88800955010706817e-01
84 117 -6.88800955010706817e-01
85 117 -6.88800955010706706e-01
86 117 -6.88800955010706817e-01
87 117 -6.88800955010706817e-01
88 117 -6.88800955010706706e-01
89 117 -6.88800955010706706e-01
90 117 -6.88800955010706706e-01
91 117 -6.88800955010706817e-01
92 117 -6.88800955010706706e-01
93 117 -6.88800955010707150e-01
94 117 -6.88800955010706706e-01
95 117 -6.88800955010706706e-01
96 117 -6.88800955010706706e-01
97 117 -6.88800955010706817e-01
98 117 -6.88800955010707039e-01
99 117 -6.88800955010706817e-01
100 117 -6.88800955010706706e-01
101 117 -6.88800955010706817e-01
102 117 -6.88800955010706817e-01
103 117 -6.88800955010706706e-01
104 117 -6.88800955010706928e-01
105 117 -6.88800955010706817e-01
106 117 -6.88800955010706706e-01
107 117 -6.88800955010707150e-01
108 117 -6.88800955010706484e-01
109 117 -6.88800955010706928e-01
110 117 -6.88800955010706817e-01
111 117 -6.88800955010706817e-01
112 117 -6.88800955010706706e-01
113 117 -6.88800955010706817e-01
114 117 -6.88800955010706817e-01
115 117 -6.88800955010706706e-01
116 117 -6.88800955010706817e-01
117 117 -6.88800955010706817e-01
118 117 -6.88800955010706706e-01
119 117 -6.88800955010706817e-01
120 117 -6.88800955010706817e-01
121 117 -6.88800955010706706e-01
122 117 -6.88800955010706706e-01
123 117 -6.88800955010706706e-01
124 117 -6.88800955010706817e-01
125 117 -6.88800955010706706e-01
126 117 -6.88800955010707150e-01
127 117 -6.88800955010706706e-01
128 117 -6.88800955010706706e-01
129 117 -6.88800955010706706e-01
130 117 -6.88800955010706817e-01
131 117 -6.88800955010707039e-01
132 117 -6.88800955010706817e-01
133 117 -6.88800955010706706e-01
1 118 -6.50369723385751941e-01
2 118 -6.50369723385752052e-01
3 118 -6.50369723385752163e-01
4 118 -6.50369723385752052e-01
5 118 -6.50369723385752274e-01
6 118 -6.50369723385752052e-01
7 118 -6.50369723385752163e-01
8 118 -6.50369723385752385e-01
9 118 -6.50369723385751719e-01
10 118 -6.50369723385752274e-01
11 118 -6.50369723385752163e-01
12 118 -6.50369723385752163e-01
13 118 -6.50369723385751941e-01
14 118 -6.50369723385752163e-01
15 118 -6.50369723385752052e-01
16 118 -6.50369723385752052e-01
17 118 -6.50369723385752052e-01
18 118 -6.50369723385752052e-01
19 118 -6.50369723385752052e-01
20 118 -6.50369723385752052e-01
21 118 -6.50369723385752163e-01
22 118 -6.50369723385751941e-01
23 118 -6.50369723385751941e-01
24 118 -6.50369723385751941e-01
25 118 -6.50369723385752052e-01
26 118 -6.50369723385752052e-01
27 118 -6.50369723385752385e-01
28 118 -6.50369723385752052e-01
29 118 -6.50369723385751941e-01
30 118 -6.50369723385751941e-01
31 118 -6.50369723385752163e-01
32 118 -6.50369723385752385e-01
33 118 -6.50369723385752052e-01
34 118 -6.50369723385751941e-01
35 118 -6.50369723385752052e-01
36 118 -6.50369723385752163e-01
37 118 -6.50369723385752052e-01
38 118 -6.50369723385752274e-01
39 118 -6.50369723385752052e-01
40 118 -6.50369723385752163e-01
41 118 -6.50369723385752385e-01
42 118 -6.50369723385751719e-01
43 118 -6.50369723385752274e-01
44 118 -6.50369723385752163e-01
45 118 -6.50369723385752163e-01
46 118 -6.50369723385751941e-01
47 118 -6.50369723385752163e-01
48 118 -6.50369723385752052e-01
49 118 -6.50369723385752052e-01
50 118 -6.50369723385752052e-01
51 118 -6.50369723385752052e-01
52 118 -6.50369723385752052e-01
53 118 -6.50369723385752052e-01
54 118 -6.50369723385752163e-01
55 118 -6.50369723385751941e-01
56 118 -6.50369723385751941e-01
57 118 -6.50369723385751941e-01
58 118 -6.50369723385752052e-01
59 118 -6.50369723385752052e-01
60 118 -6.50369723385752385e-01
61 118 -6.50369723385752052e-01
62 118 -6.50369723385751941e-01
63 118 -6.50369723385751941e-01
64 118 -6.50369723385752163e-01
65 118 -6.50369723385752385e-01
66 118 -6.50369723385752052e-01
67 118 -6.50369723385751941e-01
68 118 -6.50369723385752052e-01
69 118 -6.50369723385752163e-01
70 118 -6.50369723385752052e-01
71 118 -6.50369723385752274e-01
72 118 -6.50369723385752052e-01
73 118 -6.50369723385752163e-01
74 118 -6.50369723385752385e-01
75 118 -6.50369723385751719e-01
76 118 -6.50369723385752274e-01
77 118 -6.50369723385752163e-01
78 118 -6.50369723385752163e-01
79 118 -6.50369723385751941e-01
80 118 -6.50369723385752163e-01
81 118 -6.50369723385752052e-01
82 118 -6.50369723385752052e-01
83 118 -6.50369723385752052e-01
84 118 -6.50369723385752052e-01
85 118 -6.50369723385752052e-01
86 118 -6.50369723385752052e-01
87 118 -6.50369723385752163e-01
88 118 -6.50369723385751941e-01
89 118 -6.50369723385751941e-01
90 118 -6.50369723385751941e-01
91 118 -6.50369723385752052e-01
92 118 -6.50369723385752052e-01
93 118 -6.50369723385752385e-01
94 118 -6.50369723385752052e-01
95 118 -6.50369723385751941e-01
96 118 -6.50369723385751941e-01
97 118 -6.50369723385752163e-01
98 118 -6.50369723385752385e-01
99 118 -6.50369723385752052e-01
100 118 -6.50369723385751941e-01
101 118 -6.50369723385752052e-01
102 118 -6.50369723385752163e-01
103 118 -6.50369723385752052e-01
104 118 -6.50369723385752274e-01
105 118 -6.50369723385752052e-01
106 118 -6.50369723385752163e-01
107 118 -6.50369723385752385e-01
108 118 -6.50369723385751719e-01
109 118 -6.50369723385752274e-01
110 118 -6.50369723385752163e-01
111 118 -6.50369723385752163e-01
112 118 -6.50369723385751941e-01
113 118 -6.50369723385752163e-01
114 118 -6.50369723385752052e-01
115 118 -6.50369723385752052e-01
116 118 -6.50369723385752052e-01
117 118 -6.50369723385752052e-01
118 118 -6.50369723385752052e-01
119 118 -6.50369723385752052e-01
120 118 -6.50369723385752163e-01
121 118 -6.50369723385751941e-01
122 118 -6.50369723385751941e-01
123 118 -6.50369723385751941e-01
124 118 -6.50369723385752052e-01
125 118 -6.50369723385752052e-01
126 118 -6.50369723385752385e-01
127 118 -6.50369723385752052e-01
128 118 -6.50369723385751941e-01
129 118 -6.50369723385751941e-01
130 118 -6.50369723385752163e-01
131 118 -6.50369723385752385e-01
132 118 -6.50369723385752052e-01
133 118 -6.50369723385751941e-01
1 119 -6.10280122365216449e-01
2 119 -6.10280122365216449e-01
3 119 -6.10280122365216671e-01
4 119 -6.10280122365216560e-01
5 119 -6.10280122365216671e-01
6 119 -6.10280122365216449e-01
7 119 -6.10280122365216671e-01
8 119 -6.10280122365216782e-01
9 119 -6.10280122365216227e-01
10 119 -6.10280122365216671e-01
11 119 -6.10280122365216560e-01
12 119 -6.10280122365216560e-01
13 119 -6.10280122365216449e-01
14 119 -6.10280122365216671e-01
15 119 -6.10280122365216449e-01
16 119 -6.10280122365216560e-01
17 119 -6.10280122365216560e-01
18 119 -6.10280122365216560e-01
19 119 -6.10280122365216560e-01
20 119 -6.10280122365216560e-01
21 119 -6.10280122365216671e-01
22 119 -6.10280122365216449e-01
23 119 -6.10280122365216338e-01
24 119 -6.10280122365216449e-01
25 119 -6.10280122365216449e-01
26 119 -6.10280122365216449e-01
27 119 -6.10280122365216782e-01
28 119 -6.10280122365216560e-01
29 119 -6.10280122365216338e-01
30 119 -6.10280122365216449e-01
31 119 -6.10280122365216671e-01
32 119 -6.10280122365216782e-01
33 119 -6.10280122365216449e-01
34 119 -6.10280122365216449e-01
35 119 -6.10280122365216449e-01
36 119 -6.10280122365216671e-01
37 119 -6.10280122365216560e-01
38 119 -6.10280122365216671e-01
39 119 -6.10280122365216449e-01
40 119 -6.10280122365216671e-01
41 119 -6.10280122365216782e-01
42 119 -6.10280122365216227e-01
43 119 -6.10280122365216671e-01
44 119 -6.10280122365216560e-01
45 119 -6.10280122365216560e-01
46 119 -6.10280122365216449e-01
47 119 -6.10280122365216671e-01
48 119 -6.10280122365216449e-01
49 119 -6.10280122365216560e-01
50 119 -6.10280122365216560e-01
51 119 -6.10280122365216560e-01
52 119 -6.10280122365216560e-01
53 119 -6.10280122365216560e-01
54 119 -6.10280122365216671e-01
55 119 -6.10280122365216449e-01
56 119 -6.10280122365216338e-01
57 119 -6.10280122365216449e-01
58 119 -6.10280122365216449e-01
59 119 -6.10280122365216449e-01
60 119 -6.10280122365216782e-01
61 119 -6.10280122365216560e-01
62 119 -6.10280122365216338e-01
63 119 -6.10280122365216449e-01
64 119 -6.10280122365216671e-01
65 119 -6.10280122365216782e-01
66 119 -6.10280122365216449e-01
67 119 -6.10280122365216449e-01
68 119 -6.10280122365216449e-01
69 119 -6.10280122365216671e-01
70 119 -6.10280122365216560e-01
71 119 -6.10280122365216671e-01
72 119 -6.10280122365216449e-01
73 119 -6.10280122365216671e-01
74 119 -6.10280122365216782e-01
75 119 -6.10280122365216227e-01
76 119 -6.10280122365216671e-01
77 119 -6.10280122365216560e-01
78 119 -6.10280122365216560e-01
79 119 -6.10280122365216449e-01
80 119 -6.10280122365216671e-01
81 119 -6.10280122365216449e-01
82 119 -6.10280122365216560e-01
83 119 -6.10280122365216560e-01
84 119 -6.10280122365216560e-01
85 119 -6.10280122365216560e-01
86 119 -6.10280122365216560e-01
87 119 -6.10280122365216671e-01
88 119 -6.10280122365216449e-01
89 119 -6.10280122365216338e-01
90 119 -6.10280122365216449e-01
91 119 -6.10280122365216449e-01
92 119 -6.10280122365216449e-01
93 119 -6.10280122365216782e-01
94 119 -6.10280122365216560e-01
95 119 -6.10280122365216338e-01
96 119 -6.10280122365216449e-01
97 119 -6.10280122365216671e-01
98 119 -6.10280122365216782e-01
99 119 -6.10280122365216449e-01
100 119 -6.10280122365216449e-01
101 119 -6.10280122365216449e-01
102 119 -6.10280122365216671e-01
103 119 -6.10280122365216560e-01
104 119 -6.10280122365216671e-01
105 119 -6.10280122365216449e-01
106 119 -6.10280122365216671e-01
107 119 -6.10280122365216782e-01
108 119 -6.10280122365216227e-01
109 119 -6.10280122365216671e-01
110 119 -6.10280122365216560e-01
111 119 -6.10280122365216560e-01
112 119 -6.10280122365216449e-01
113 119 -6.10280122365216671e-01
114 119 -6.10280122365216449e-01
115 119 -6.10280122365216560e-01
116 119 -6.10280122365216560e-01
117 119 -6.10280122365216560e-01
118 119 -6.10280122365216560e-01
119 119 -6.10280122365216560e-01
120 119 -6.10280122365216671e-01
121 119 -6.10280122365216449e-01
122 119 -6.10280122365216338e-01
123 119 -6.10280122365216449e-01
124 119 -6.10280122365216449e-01
125 119 -6.10280122365216449e-01
126 119 -6.10280122365216782e-01
127 119 -6.10280122365216560e-01
128 119 -6.10280122365216338e-01
129 119 -6.10280122365216449e-01
130 119 -6.10280122365216671e-01
131 119 -6.10280122365216782e-01
132 119 -6.10280122365216449e-01
133 119 -6.10280122365216449e-01
1 120 -5.68705306634210039e-01
2 120 -5.68705306634210150e-01
3 120 -5.68705306634210372e-01
4 120 -5.68705306634210150e-01
5 120 -5.68705306634210372e-01
6 120 -5.68705306634210150e-01
7 120 -5.68705306634210372e-01
8 120 -5.68705306634210372e-01
9 120 -5.68705306634209928e-01
10 120 -5.68705306634210261e-01
11 120 -5.68705306634210261e-01
12 120 -5.68705306634210261e-01
13 120 -5.68705306634210150e-01
14 120 -5.68705306634210261e-01
15 120 -5.68705306634210150e-01
16 120 -5.68705306634210261e-01
17 120 -5.68705306634210261e-01
18 120 -5.68705306634210261e-01
19 120 -5.68705306634210150e-01
20 120 -5.68705306634210261e-01
21 120 -5.68705306634210261e-01
22 120 -5.68705306634210150e-01
23 120 -5.68705306634210039e-01
24 120 -5.68705306634210150e-01
25 120 -5.68705306634210150e-01
26 120 -5.68705306634210150e-01
27 120 -5.68705306634210372e-01
28 120 -5.68705306634210261e-01
29 120 -5.68705306634210039e-01
30 120 -5.68705306634210150e-01
31 120 -5.68705306634210261e-01
32 120 -5.68705306634210483e-01
33 120 -5.68705306634210150e-01
34 120 -5.68705306634210039e-01
35 120 -5.68705306634210150e-01
36 120 -5.68705306634210372e-01
37 120 -5.68705306634210150e-01
38 120 -5.68705306634210372e-01
39 120 -5.68705306634210150e-01
40 120 -5.68705306634210372e-01
41 120 -5.68705306634210372e-01
42 120 -5.68705306634209928e-01
43 120 -5.68705306634210261e-01
44 120 -5.68705306634210261e-01
45 120 -5.68705306634210261e-01
46 120 -5.68705306634210150e-01
47 120 -5.68705306634210261e-01
48 120 -5.68705306634210150e-01
49 120 -5.68705306634210261e-01
50 120 -5.68705306634210261e-01
51 120 -5.68705306634210261e-01
52 120 -5.68705306634210150e-01
53 120 -5.68705306634210261e-01
54 120 -5.68705306634210261e-01
55 120 -5.68705306634210150e-01
56 120 -5.68705306634210039e-01
57 120 -5.68705306634210150e-01
58 120 -5.68705306634210150e-01
59 120 -5.68705306634210150e-01
60 120 -5.68705306634210372e-01
61 120 -5.68705306634210261e-01
62 120 -5.68705306634210039e-01
63 120 -5.68705306634210150e-01
64 120 -5.68705306634210261e-01
65 120 -5.68705306634210483e-01
66 120 -5.68705306634210150e-01
67 120 -5.68705306634210039e-01
68 120 -5.68705306634210150e-01
69 120 -5.68705306634210372e-01
70 120 -5.68705306634210150e-01
71 120 -5.68705306634210372e-01
72 120 -5.68705306634210150e-01
73 120 -5.68705306634210372e-01
74 120 -5.68705306634210372e-01
75 120 -5.68705306634209928e-01
76 120 -5.68705306634210261e-01
77 120 -5.68705306634210261e-01
78 120 -5.68705306634210261e-01
79 120 -5.68705306634210150e-01
80 120 -5.68705306634210261e-01
81 120 -5.68705306634210150e-01
82 120 -5.68705306634210261e-01
83 120 -5.68705306634210261e-01
84 120 -5.68705306634210261e-01
85 120 -5.68705306634210150e-01
86 120 -5.68705306634210261e-01
87 120 -5.68705306634210261e-01
88 120 -5.68705306634210150e-01
89 120 -5.68705306634210039e-01
90 120 -5.68705306634210150e-01
91 120 -5.68705306634210150e-01
92 120 -5.68705306634210150e-01
93 120 -5.68705306634210372e-01
94 120 -5.68705306634210261e-01
95 120 -5.68705306634210039e-01
96 120 -5.68705306634210150e-01
97 120 -5.68705306634210261e-01
98 120 -5.68705306634210483e-01
99 120 -5.68705306634210150e-01
100 120 -5.68705306634210039e-01
101 120 -5.68705306634210150e-01
102 120 -5.68705306634210372e-01
103 120 -5.68705306634210150e-01
104 120 -5.68705306634210372e-01
105 120 -5.68705306634210150e-01
106 120 -5.68705306634210372e-01
107 120 -5.68705306634210372e-01
108 120 -5.68705306634209928e-01
109 120 -5.68705306634210261e-01
110 120 -5.68705306634210261e-01
111 120 -5.68705306634210261e-01
112 120 -5.68705306634210150e-01
113 120 -5.68705306634210261e-01
114 120 -5.68705306634210150e-01
115 120 -5.68705306634210261e-01
116 120 -5.68705306634210261e-01
117 120 -5.68705306634210261e-01
118 120 -5.68705306634210150e-01
119 120 -5.68705306634210261e-01
120 120 -5.68705306634210261e-01
121 120 -5.68705306634210150e-01
122 120 -5.68705306634210039e-01
123 120 -5.68705306634210150e-01
124 120 -5.68705306634210150e-01
125 120 -5.68705306634210150e-01
126 120 -5.68705306634210372e-01
127 120 -5.68705306634210261e-01
128 120 -5.68705306634210039e-01
129 120 -5.68705306634210150e-01
130 120 -5.68705306634210261e-01
131 120 -5.68705306634210483e-01
132 120 -5.68705306634210150e-01
133 120 -5.68705306634210039e-01
1 121 -5.25827927404512674e-01
2 121 -5.25827927404512785e-01
3 121 -5.25827927404513007e-01
4 121 -5.25827927404512785e-01
5 121 -5.25827927404513007e-01
6 121 -5.25827927404512785e-01
7 121 -5.25827927404513007e-01
8 121 -5.25827927404513007e-01
9 121 -5.25827927404512674e-01
10 121 -5.25827927404512896e-01
11 121 -5.25827927404512896e-01
12 121 -5.25827927404512896e-01
13 121 -5.25827927404512785e-01
14 121 -5.25827927404512896e-01
15 121 -5.25827927404512785e-01
16 121 -5.25827927404513007e-01
17 121 -5.25827927404512896e-01
18 121 -5.25827927404512896e-01
19 121 -5.25827927404512785e-01
20 121 -5.25827927404512785e-01
21 121 -5.25827927404512896e-01
22 121 -5.25827927404512785e-01
23 121 -5.25827927404512674e-01
24 121 -5.25827927404512896e-01
25 121 -5.25827927404512785e-01
26 121 -5.25827927404512785e-01
27 121 -5.25827927404512896e-01
28 121 -5.25827927404512896e-01
29 121 -5.25827927404512674e-01
30 121 -5.25827927404512785e-01
31 121 -5.25827927404512896e-01
32 121 -5.25827927404513007e-01
33 121 -5.25827927404512674e-01
34 121 -5.25827927404512674e-01
35 121 -5.25827927404512785e-01
36 121 -5.25827927404513007e-01
37 121 -5.25827927404512785e-01
38 121 -5.25827927404513007e-01
39 121 -5.25827927404512785e-01
40 121 -5.25827927404513007e-01
41 121 -5.25827927404513007e-01
42 121 -5.25827927404512674e-01
43 121 -5.25827927404512896e-01
44 121 -5.25827927404512896e-01
45 121 -5.25827927404512896e-01
46 121 -5.25827927404512785e-01
47 121 -5.25827927404512896e-01
48 121 -5.25827927404512785e-01
49 121 -5.25827927404513007e-01
50 121 -5.25827927404512896e-01
51 121 -5.25827927404512896e-01
52 121 -5.25827927404512785e-01
53 121 -5.25827927404512785e-01
54 121 -5.25827927404512896e-01
55 121 -5.25827927404512785e-01
56 121 -5.25827927404512674e-01
57 121 -5.25827927404512896e-01
58 121 -5.25827927404512785e-01
59 121 -5.25827927404512785e-01
60 121 -5.25827927404512896e-01
61 121 -5.25827927404512896e-01
62 121 -5.25827927404512674e-01
63 121 -5.25827927404512785e-01
64 121 -5.25827927404512896e-01
65 121 -5.25827927404513007e-01
66 121 -5.25827927404512674e-01
67 121 -5.25827927404512674e-01
68 121 -5.25827927404512785e-01
69 121 -5.25827927404513007e-01
70 121 -5.25827927404512785e-01
71 121 -5.25827927404513007e-01
72 121 -5.25827927404512785e-01
73 121 -5.25827927404513007e-01
74 121 -5.25827927404513007e-01
75 121 -5.25827927404512674e-01
76 121 -5.25827927404512896e-01
77 121 -5.25827927404512896e-01
78 121 -5.25827927404512896e-01
79 121 -5.25827927404512785e-01
80 121 -5.25827927404512896e-01
81 121 -5.25827927404512785e-01
82 121 -5.25827927404513007e-01
83 121 -5.25827927404512896e-01
84 121 -5.25827927404512896e-01
85 121 -5.25827927404512785e-01
86 121 -5.25827927404512785e-01
87 121 -5.25827927404512896e-01
88 121 -5.25827927404512785e-01
89 121 -5.25827927404512674e-01
90 121 -5.25827927404512896e-01
91 121 -5.25827927404512785e-01
92 121 -5.25827927404512785e-01
93 121 -5.25827927404512896e-01
94 121 -5.25827927404512896e-01
95 121 -5.25827927404512674e-01
96 121 -5.25827927404512785e-01
97 121 -5.25827927404512896e-01
98 121 -5.25827927404513007e-01
99 121 -5.25827927404512674e-01
100 121 -5.25827927404512674e-01
101 121 -5.25827927404512785e-01
102 121 -5.25827927404513007e-01
103 121 -5.25827927404512785e-01
104 121 -5.25827927404513007e-01
105 121 -5.25827927404512785e-01
106 121 -5.25827927404513007e-01
107 121 -5.25827927404513007e-01
108 121 -5.25827927404512674e-01
109 121 -5.25827927404512896e-01
110 121 -5.25827927404512896e-01
111 121 -5.25827927404512896e-01
112 121 -5.25827927404512785e-01
113 121 -5.25827927404512896e-01
114 121 -5.25827927404512785e-01
115 121 -5.25827927404513007e-01
116 121 -5.25827927404512896e-01
117 121 -5.25827927404512896e-01
118 121 -5.25827927404512785e-01
119 121 -5.25827927404512785e-01
120 121 -5.25827927404512896e-01
121 121 -5.25827927404512785e-01
122 121 -5.25827927404512674e-01
123 121 -5.25827927404512896e-01
124 121 -5.25827927404512785e-01
125 121 -5.25827927404512785e-01
126 121 -5.25827927404512896e-01
127 121 -5.25827927404512896e-01
128 121 -5.25827927404512674e-01
129 121 -5.25827927404512785e-01
130 121 -5.25827927404512896e-01
131 121 -5.25827927404513007e-01
132 121 -5.25827927404512674e-01
133 121 -5.25827927404512674e-01
1 122 -4.81837545213567753e-01
2 122 -4.81837545213567864e-01
3 122 -4.81837545213567919e-01
4 122 -4.81837545213567864e-01
5 122 -4.81837545213568030e-01
6 122 -4.81837545213567864e-01
7 122 -4.81837545213568086e-01
8 122 -4.81837545213568086e-01
9 122 -4.81837545213567753e-01
10 122 -4.81837545213567919e-01
11 122 -4.81837545213567919e-01
12 122 -4.81837545213567975e-01
13 122 -4.81837545213567753e-01
14 122 -4.81837545213567919e-01
15 122 -4.81837545213567753e-01
16 122 -4.81837545213567919e-01
17 122 -4.81837545213567919e-01
18 122 -4.81837545213567919e-01
19 122 -4.81837545213567808e-01
20 122 -4.81837545213567808e-01
21 122 -4.81837545213567919e-01
22 122 -4.81837545213567753e-01
23 122 -4.81837545213567753e-01
24 122 -4.81837545213567919e-01
25 122 -4.81837545213567753e-01
26 122 -4.81837545213567808e-01
27 122 -4.81837545213567975e-01
28 122 -4.81837545213567919e-01
29 122 -4.81837545213567753e-01
30 122 -4.81837545213567808e-01
31 122 -4.81837545213567864e-01
32 122 -4.81837545213568030e-01
33 122 -4.81837545213567753e-01
34 122 -4.81837545213567753e-01
35 122 -4.81837545213567864e-01
36 122 -4.81837545213567919e-01
37 122 -4.81837545213567864e-01
38 122 -4.81837545213568030e-01
39 122 -4.81837545213567864e-01
40 122 -4.81837545213568086e-01
41 122 -4.81837545213568086e-01
42 122 -4.81837545213567753e-01
43 122 -4.81837545213567919e-01
44 122 -4.81837545213567919e-01
45 122 -4.81837545213567975e-01
46 122 -4.81837545213567753e-01
47 122 -4.81837545213567919e-01
48 122 -4.81837545213567753e-01
49 122 -4.81837545213567919e-01
50 122 -4.81837545213567919e-01
51 122 -4.81837545213567919e-01
52 122 -4.81837545213567808e-01
53 122 -4.81837545213567808e-01
54 122 -4.81837545213567919e-01
55 122 -4.81837545213567753e-01
56 122 -4.81837545213567753e-01
57 122 -4.81837545213567919e-01
58 122 -4.81837545213567753e-01
59 122 -4.81837545213567808e-01
60 122 -4.81837545213567975e-01
61 122 -4.81837545213567919e-01
62 122 -4.81837545213567753e-01
63 122 -4.81837545213567808e-01
64 122 -4.81837545213567864e-01
65 122 -4.81837545213568030e-01
66 122 -4.81837545213567753e-01
67 122 -4.81837545213567753e-01
68 122 -4.81837545213567864e-01
69 122 -4.81837545213567919e-01
70 122 -4.81837545213567864e-01
71 122 -4.81837545213568030e-01
72 122 -4.81837545213567864e-01
73 122 -4.81837545213568086e-01
74 122 -4.81837545213568086e-01
75 122 -4.81837545213567753e-01
76 122 -4.81837545213567919e-01
77 122 -4.81837545213567919e-01
78 122 -4.81837545213567975e-01
79 122 -4.81837545213567753e-01
80 122 -4.81837545213567919e-01
81 122 -4.81837545213567753e-01
82 122 -4.81837545213567919e-01
83 122 -4.81837545213567919e-01
84 122 -4.81837545213567919e-01
85 122 -4.81837545213567808e-01
86 122 -4.81837545213567808e-01
87 122 -4.81837545213567919e-01
88 122 -4.81837545213567753e-01
89 122 -4.81837545213567753e-01
90 122 -4.81837545213567919e-01
91 122 -4.81837545213567753e-01
92 122 -4.81837545213567808e-01
93 122 -4.81837545213567975e-01
94 122 -4.81837545213567919e-01
95 122 -4.81837545213567753e-01
96 122 -4.81837545213567808e-01
97 122 -4.81837545213567864e-01
98 122 -4.81837545213568030e-01
99 122 -4.81837545213567753e-01
100 122 -4.81837545213567753e-01
101 122 -4.81837545213567864e-01
102 122 -4.81837545213567919e-01
103 122 -4.81837545213567864e-01
104 122 -4.81837545213568030e-01
105 122 -4.81837545213567864e-01
106 122 -4.81837545213568086e-01
107 122 -4.81837545213568086e-01
108 122 -4.81837545213567753e-01
109 122 -4.81837545213567919e-01
110 122 -4.81837545213567919e-01
111 122 -4.81837545213567975e-01
112 122 -4.81837545213567753e-01
113 122 -4.81837545213567919e-01
114 122 -4.81837545213567753e-01
115 122 -4.81837545213567919e-01
116 122 -4.81837545213567919e-01
117 122 -4.81837545213567919e-01
118 122 -4.81837545213567808e-01
119 122 -4.81837545213567808e-01
120 122 -4.81837545213567919e-01
121 122 -4.81837545213567753e-01
122 122 -4.81837545213567753e-01
123 122 -4.81837545213567919e-01
124 122 -4.81837545213567753e-01
125 122 -4.81837545213567808e-01
126 122 -4.81837545213567975e-01
127 122 -4.81837545213567919e-01
128 122 -4.81837545213567753e-01
129 122 -4.81837545213567808e-01
130 122 -4.81837545213567864e-01
131 122 -4.81837545213568030e-01
132 122 -4.81837545213567753e-01
133 122 -4.81837545213567753e-01
1 123 -4.36927978439019982e-01
2 123 -4.36927978439020093e-01
3 123 -4.36927978439020148e-01
4 123 -4.36927978439020093e-01
5 123 -4.36927978439020204e-01
6 123 -4.36927978439020037e-01
7 123 -4.36927978439020315e-01
8 123 -4.36927978439020315e-01
9 123 -4.36927978439019926e-01
10 123 -4.36927978439020093e-01
11 123 -4.36927978439020093e-01
12 123 -4.36927978439020148e-01
13 123 -4.36927978439020037e-01
14 123 -4.36927978439020148e-01
15 123 -4.36927978439019982e-01
16 123 -4.36927978439020037e-01
17 123 -4.36927978439020093e-01
18 123 -4.36927978439020093e-01
19 123 -4.36927978439020037e-01
20 123 -4.36927978439019982e-01
21 123 -4.36927978439020148e-01
22 123 -4.36927978439020037e-01
23 123 -4.36927978439019926e-01
24 123 -4.36927978439020093e-01
25 123 -4.36927978439019982e-01
26 123 -4.36927978439020037e-01
27 123 -4.36927978439020148e-01
28 123 -4.36927978439020148e-01
29 123 -4.36927978439019982e-01
30 123 -4.36927978439020093e-01
31 123 -4.36927978439020093e-01
32 123 -4.36927978439020259e-01
33 123 -4.36927978439019982e-01
34 123 -4.36927978439019982e-01
35 123 -4.36927978439020093e-01
36 123 -4.36927978439020148e-01
37 123 -4.36927978439020093e-01
38 123 -4.36927978439020204e-01
39 123 -4.36927978439020037e-01
40 123 -4.36927978439020315e-01
41 123 -4.36927978439020315e-01
42 123 -4.36927978439019926e-01
43 123 -4.36927978439020093e-01
44 123 -4.36927978439020093e-01
45 123 -4.36927978439020148e-01
46 123 -4.36927978439020037e-01
47 123 -4.36927978439020148e-01
48 123 -4.36927978439019982e-01
49 123 -4.36927978439020037e-01
50 123 -4.36927978439020093e-01
51 123 -4.36927978439020093e-01
52 123 -4.36927978439020037e-01
53 123 -4.36927978439019982e-01
54 123 -4.36927978439020148e-01
55 123 -4.36927978439020037e-01
56 123 -4.36927978439019926e-01
57 123 -4.36927978439020093e-01
58 123 -4.36927978439019982e-01
59 123 -4.36927978439020037e-01
60 123 -4.36927978439020148e-01
61 123 -4.36927978439020148e-01
62 123 -4.36927978439019982e-01
63 123 -4.36927978439020093e-01
64 123 -4.36927978439020093e-01
65 123 -4.36927978439020259e-01
66 123 -4.36927978439019982e-01
67 123 -4.36927978439019982e-01
68 123 -4.36927978439020093e-01
69 123 -4.36927978439020148e-01
70 123 -4.36927978439020093e-01
71 123 -4.36927978439020204e-01
72 123 -4.36927978439020037e-01
73 123 -4.36927978439020315e-01
74 123 -4.36927978439020315e-01
75 123 -4.36927978439019926e-01
76 123 -4.36927978439020093e-01
77 123 -4.36927978439020093e-01
78 123 -4.36927978439020148e-01
79 123 -4.36927978439020037e-01
80 123 -4.36927978439020148e-01
81 123 -4.36927978439019982e-01
82 123 -4.36927978439020037e-01
83 123 -4.36927978439020093e-01
84 123 -4.36927978439020093e-01
85 123 -4.36927978439020037e-01
86 123 -4.36927978439019982e-01
87 123 -4.36927978439020148e-01
88 123 -4.36927978439020037e-01
89 123 -4.36927978439019926e-01
90 123 -4.36927978439020093e-01
91 123 -4.36927978439019982e-01
92 123 -4.36927978439020037e-01
93 123 -4.36927978439020148e-01
94 123 -4.36927978439020148e-01
95 123 -4.36927978439019982e-01
96 123 -4.36927978439020093e-01
97 123 -4.36927978439020093e-01
98 123 -4.36927978439020259e-01
99 123 -4.36927978439019982e-01
100 123 -4.36927978439019982e-01
101 123 -4.36927978439020093e-01
102 123 -4.36927978439020148e-01
103 123 -4.36927978439020093e-01
104 123 -4.36927978439020204e-01
105 123 -4.36927978439020037e-01
106 123 -4.36927978439020315e-01
107 123 -4.36927978439020315e-01
108 123 -4.36927978439019926e-01
109 123 -4.36927978439020093e-01
110 123 -4.36927978439020093e-01
111 123 -4.36927978439020148e-01
112 123 -4.36927978439020037e-01
113 123 -4.36927978439020148e-01
114 123 -4.36927978439019982e-01
115 123 -4.36927978439020037e-01
116 123 -4.36927978439020093e-01
117 123 -4.36927978439020093e-01
118 123 -4.36927978439020037e-01
119 123 -4.36927978439019982e-01
120 123 -4.36927978439020148e-01
121 123 -4.36927978439020037e-01
122 123 -4.36927978439019926e-01
123 123 -4.36927978439020093e-01
124 123 -4.36927978439019982e-01
125 123 -4.36927978439020037e-01
126 123 -4.36927978439020148e-01
127 123 -4.36927978439020148e-01
128 123 -4.36927978439019982e-01
129 123 -4.36927978439020093e-01
130 123 -4.36927978439020093e-01
131 123 -4.36927978439020259e-01
132 123 -4.36927978439019982e-01
133 123 -4.36927978439019982e-01
1 124 -3.91294661790150766e-01
2 124 -3.91294661790150822e-01
3 124 -3.91294661790150877e-01
4 124 -3.91294661790150822e-01
5 124 -3.91294661790150933e-01
6 124 -3.91294661790150766e-01
7 124 -3.91294661790150988e-01
8 124 -3.91294661790150988e-01
9 124 -3.91294661790150655e-01
10 124 -3.91294661790150877e-01
11 124 -3.91294661790150822e-01
12 124 -3.91294661790150877e-01
13 124 -3.91294661790150766e-01
14 124 -3.91294661790150877e-01
15 124 -3.91294661790150766e-01
16 124 -3.91294661790150766e-01
17 124 -3.91294661790150877e-01
18 124 -3.91294661790150877e-01
19 124 -3.91294661790150766e-01
20 124 -3.91294661790150766e-01
21 124 -3.91294661790150877e-01
22 124 -3.91294661790150766e-01
23 124 -3.91294661790150711e-01
24 124 -3.91294661790150822e-01
25 124 -3.91294661790150655e-01
26 124 -3.91294661790150711e-01
27 124 -3.91294661790150933e-01
28 124 -3.91294661790150877e-01
29 124 -3.91294661790150711e-01
30 124 -3.91294661790150822e-01
31 124 -3.91294661790150877e-01
32 124 -3.91294661790150988e-01
33 124 -3.91294661790150766e-01
34 124 -3.91294661790150766e-01
35 124 -3.91294661790150822e-01
36 124 -3.91294661790150877e-01
37 124 -3.91294661790150822e-01
38 124 -3.91294661790150933e-01
39 124 -3.91294661790150766e-01
40 124 -3.91294661790150988e-01
41 124 -3.91294661790150988e-01
42 124 -3.91294661790150655e-01
43 124 -3.91294661790150877e-01
44 124 -3.91294661790150822e-01
45 124 -3.91294661790150877e-01
46 124 -3.91294661790150766e-01
47 124 -3.91294661790150877e-01
48 124 -3.91294661790150766e-01
49 124 -3.91294661790150766e-01
50 124 -3.91294661790150877e-01
51 124 -3.91294661790150877e-01
52 124 -3.91294661790150766e-01
53 124 -3.91294661790150766e-01
54 124 -3.91294661790150877e-01
55 124 -3.91294661790150766e-01
56 124 -3.91294661790150711e-01
57 124 -3.91294661790150822e-01
58 124 -3.91294661790150655e-01
59 124 -3.91294661790150711e-01
60 124 -3.91294661790150933e-01
61 124 -3.91294661790150877e-01
62 124 -3.91294661790150711e-01
63 124 -3.91294661790150822e-01
64 124 -3.91294661790150877e-01
65 124 -3.91294661790150988e-01
66 124 -3.91294661790150766e-01
67 124 -3.91294661790150766e-01
68 124 -3.91294661790150822e-01
69 124 -3.91294661790150877e-01
70 124 -3.91294661790150822e-01
71 124 -3.91294661790150933e-01
72 124 -3.91294661790150766e-01
73 124 -3.91294661790150988e-01
74 124 -3.91294661790150988e-01
75 124 -3.91294661790150655e-01
76 124 -3.91294661790150877e-01
77 124 -3.91294661790150822e-01
78 124 -3.91294661790150877e-01
79 124 -3.91294661790150766e-01
80 124 -3.91294661790150877e-01
81 124 -3.91294661790150766e-01
82 124 -3.91294661790150766e-01
83 124 -3.91294661790150877e-01
84 124 -3.91294661790150877e-01
85 124 -3.91294661790150766e-01
86 124 -3.91294661790150766e-01
87 124 -3.91294661790150877e-01
88 124 -3.91294661790150766e-01
89 124 -3.91294661790150711e-01
90 124 -3.91294661790150822e-01
91 124 -3.91294661790150655e-01
92 124 -3.91294661790150711e-01
93 124 -3.91294661790150933e-01
94 124 -3.91294661790150877e-01
95 124 -3.91294661790150711e-01
96 124 -3.91294661790150822e-01
97 124 -3.91294661790150877e-01
98 124 -3.91294661790150988e-01
99 124 -3.91294661790150766e-01
100 124 -3.91294661790150766e-01
101 124 -3.91294661790150822e-01
102 124 -3.91294661790150877e-01
103 124 -3.91294661790150822e-01
104 124 -3.91294661790150933e-01
105 124 -3.91294661790150766e-01
106 124 -3.91294661790150988e-01
107 124 -3.91294661790150988e-01
108 124 -3.91294661790150655e-01
109 124 -3.91294661790150877e-01
110 124 -3.91294661790150822e-01
111 124 -3.91294661790150877e-01
112 124 -3.91294661790150766e-01
113 124 -3.91294661790150877e-01
114 124 -3.91294661790150766e-01
115 124 -3.91294661790150766e-01
116 124 -3.91294661790150877e-01
117 124 -3.91294661790150877e-01
118 124 -3.91294661790150766e-01
119 124 -3.91294661790150766e-01
120 124 -3.91294661790150877e-01
121 124 -3.91294661790150766e-01
122 124 -3.91294661790150711e-01
123 124 -3.91294661790150822e-01
124 124 -3.91294661790150655e-01
125 124 -3.91294661790150711e-01
126 124 -3.91294661790150933e-01
127 124 -3.91294661790150877e-01
128 124 -3.91294661790150711e-01
129 124 -3.91294661790150822e-01
130 124 -3.91294661790150877e-01
131 124 -3.91294661790150988e-01
132 124 -3.91294661790150766e-01
133 124 -3.91294661790150766e-01
1 125 -3.45132085261840582e-01
2 125 -3.45132085261840582e-01
3 125 -3.45132085261840693e-01
4 125 -3.45132085261840638e-01
5 125 -3.45132085261840749e-01
6 125 -3.45132085261840582e-01
7 125 -3.45132085261840804e-01
8 125 -3.45132085261840804e-01
9 125 -3.45132085261840527e-01
10 125 -3.45132085261840638e-01
11 125 -3.45132085261840582e-01
12 125 -3.45132085261840693e-01
13 125 -3.45132085261840582e-01
14 125 -3.45132085261840693e-01
15 125 -3.45132085261840582e-01
16 125 -3.45132085261840582e-01
17 125 -3.45132085261840749e-01
18 125 -3.45132085261840749e-01
19 125 -3.45132085261840582e-01
20 125 -3.45132085261840582e-01
21 125 -3.45132085261840693e-01
22 125 -3.45132085261840582e-01
23 125 -3.45132085261840527e-01
24 125 -3.45132085261840582e-01
25 125 -3.45132085261840471e-01
26 125 -3.45132085261840582e-01
27 125 -3.45132085261840693e-01
28 125 -3.45132085261840693e-01
29 125 -3.45132085261840582e-01
30 125 -3.45132085261840638e-01
31 125 -3.45132085261840749e-01
32 125 -3.45132085261840749e-01
33 125 -3.45132085261840638e-01
34 125 -3.45132085261840582e-01
35 125 -3.45132085261840582e-01
36 125 -3.45132085261840693e-01
37 125 -3.45132085261840638e-01
38 125 -3.45132085261840749e-01
39 125 -3.45132085261840582e-01
40 125 -3.45132085261840804e-01
41 125 -3.45132085261840804e-01
42 125 -3.45132085261840527e-01
43 125 -3.45132085261840638e-01
44 125 -3.45132085261840582e-01
45 125 -3.45132085261840693e-01
46 125 -3.45132085261840582e-01
47 125 -3.45132085261840693e-01
48 125 -3.45132085261840582e-01
49 125 -3.45132085261840582e-01
50 125 -3.45132085261840749e-01
51 125 -3.45132085261840749e-01
52 125 -3.45132085261840582e-01
53 125 -3.45132085261840582e-01
54 125 -3.45132085261840693e-01
55 125 -3.45132085261840582e-01
56 125 -3.45132085261840527e-01
57 125 -3.45132085261840582e-01
58 125 -3.45132085261840471e-01
59 125 -3.45132085261840582e-01
60 125 -3.45132085261840693e-01
61 125 -3.45132085261840693e-01
62 125 -3.45132085261840582e-01
63 125 -3.45132085261840638e-01
64 125 -3.45132085261840749e-01
65 125 -3.45132085261840749e-01
66 125 -3.45132085261840638e-01
67 125 -3.45132085261840582e-01
68 125 -3.45132085261840582e-01
69 125 -3.45132085261840693e-01
70 125 -3.45132085261840638e-01
71 125 -3.45132085261840749e-01
72 125 -3.45132085261840582e-01
73 125 -3.45132085261840804e-01
74 125 -3.45132085261840804e-01
75 125 -3.45132085261840527e-01
76 125 -3.45132085261840638e-01
77 125 -3.45132085261840582e-01
78 125 -3.45132085261840693e-01
79 125 -3.45132085261840582e-01
80 125 -3.45132085261840693e-01
81 125 -3.45132085261840582e-01
82 125 -3.45132085261840582e-01
83 125 -3.45132085261840749e-01
84 125 -3.45132085261840749e-01
85 125 -3.45132085261840582e-01
86 125 -3.45132085261840582e-01
87 125 -3.45132085261840693e-01
88 125 -3.45132085261840582e-01
89 125 -3.45132085261840527e-01
90 125 -3.45132085261840582e-01
91 125 -3.45132085261840471e-01
92 125 -3.45132085261840582e-01
93 125 -3.45132085261840693e-01
94 125 -3.45132085261840693e-01
95 125 -3.45132085261840582e-01
96 125 -3.45132085261840638e-01
97 125 -3.45132085261840749e-01
98 125 -3.45132085261840749e-01
99 125 -3.45132085261840638e-01
100 125 -3.45132085261840582e-01
101 125 -3.45132085261840582e-01
102 125 -3.45132085261840693e-01
103 125 -3.45132085261840638e-01
104 125 -3.45132085261840749e-01
105 125 -3.45132085261840582e-01
106 125 -3.45132085261840804e-01
107 125 -3.45132085261840804e-01
108 125 -3.45132085261840527e-01
109 125 -3.45132085261840638e-01
110 125 -3.45132085261840582e-01
111 125 -3.45132085261840693e-01
112 125 -3.45132085261840582e-01
113 125 -3.45132085261840693e-01
114 125 -3.45132085261840582e-01
115 125 -3.45132085261840582e-01
116 125 -3.45132085261840749e-01
117 125 -3.45132085261840749e-01
118 125 -3.45132085261840582e-01
119 125 -3.45132085261840582e-01
120 125 -3.45132085261840693e-01
121 125 -3.45132085261840582e-01
122 125 -3.45132085261840527e-01
123 125 -3.45132085261840582e-01
124 125 -3.45132085261840471e-01
125 125 -3.45132085261840582e-01
126 125 -3.45132085261840693e-01
127 125 -3.45132085261840693e-01
128 125 -3.45132085261840582e-01
129 125 -3.45132085261840638e-01
130 125 -3.45132085261840749e-01
131 125 -3.45132085261840749e-01
132 125 -3.45132085261840638e-01
133 125 -3.45132085261840582e-01
1 126 -2.98631377267970288e-01
2 126 -2.98631377267970233e-01
3 126 -2.98631377267970344e-01
4 126 -2.98631377267970344e-01
5 126 -2.98631377267970399e-01
6 126 -2.98631377267970344e-01
7 126 -2.98631377267970455e-01
8 126 -2.98631377267970455e-01
9 126 -2.98631377267970233e-01
10 126 -2.98631377267970344e-01
11 126 -2.98631377267970288e-01
12 126 -2.98631377267970344e-01
13 126 -2.98631377267970288e-01
14 126 -2.98631377267970344e-01
15 126 -2.98631377267970288e-01
16 126 -2.98631377267970233e-01
17 126 -2.98631377267970399e-01
18 126 -2.98631377267970399e-01
19 126 -2.98631377267970233e-01
20 126 -2.98631377267970288e-01
21 126 -2.98631377267970344e-01
22 126 -2.98631377267970288e-01
23 126 -2.98631377267970177e-01
24 126 -2.98631377267970288e-01
25 126 -2.98631377267970233e-01
26 126 -2.98631377267970288e-01
27 126 -2.98631377267970399e-01
28 126 -2.98631377267970344e-01
29 126 -2.98631377267970288e-01
30 126 -2.98631377267970344e-01
31 126 -2.98631377267970399e-01
32 126 -2.98631377267970455e-01
33 126 -2.98631377267970288e-01
34 126 -2.98631377267970288e-01
35 126 -2.98631377267970233e-01
36 126 -2.98631377267970344e-01
37 126 -2.98631377267970344e-01
38 126 -2.98631377267970399e-01
39 126 -2.98631377267970344e-01
40 126 -2.98631377267970455e-01
41 126 -2.98631377267970455e-01
42 126 -2.98631377267970233e-01
43 126 -2.98631377267970344e-01
44 126 -2.98631377267970288e-01
45 126 -2.98631377267970344e-01
46 126 -2.98631377267970288e-01
47 126 -2.98631377267970344e-01
48 126 -2.98631377267970288e-01
49 126 -2.98631377267970233e-01
50 126 -2.98631377267970399e-01
51 126 -2.98631377267970399e-01
52 126 -2.98631377267970233e-01
53 126 -2.98631377267970288e-01
54 126 -2.98631377267970344e-01
55 126 -2.98631377267970288e-01
56 126 -2.98631377267970177e-01
57 126 -2.98631377267970288e-01
58 126 -2.98631377267970233e-01
59 126 -2.98631377267970288e-01
60 126 -2.98631377267970399e-01
61 126 -2.98631377267970344e-01
62 126 -2.98631377267970288e-01
63 126 -2.98631377267970344e-01
64 126 -2.98631377267970399e-01
65 126 -2.98631377267970455e-01
66 126 -2.98631377267970288e-01
67 126 -2.98631377267970288e-01
68 126 -2.98631377267970233e-01
69 126 -2.98631377267970344e-01
70 126 -2.98631377267970344e-01
71 126 -2.98631377267970399e-01
72 126 -2.98631377267970344e-01
73 126 -2.98631377267970455e-01
74 126 -2.98631377267970455e-01
75 126 -2.98631377267970233e-01
76 126 -2.98631377267970344e-01
77 126 -2.98631377267970288e-01
78 126 -2.98631377267970344e-01
79 126 -2.98631377267970288e-01
80 126 -2.98631377267970344e-01
81 126 -2.98631377267970288e-01
82 126 -2.98631377267970233e-01
83 126 -2.98631377267970399e-01
84 126 -2.98631377267970399e-01
85 126 -2.98631377267970233e-01
86 126 -2.98631377267970288e-01
87 126 -2.98631377267970344e-01
88 126 -2.98631377267970288e-01
89 126 -2.98631377267970177e-01
90 126 -2.98631377267970288e-01
91 126 -2.98631377267970233e-01
92 126 -2.98631377267970288e-01
93 126 -2.98631377267970399e-01
94 126 -2.98631377267970344e-01
95 126 -2.98631377267970288e-01
96 126 -2.98631377267970344e-01
97 126 -2.98631377267970399e-01
98 126 -2.98631377267970455e-01
99 126 -2.98631377267970288e-01
100 126 -2.98631377267970288e-01
101 126 -2.98631377267970233e-01
102 126 -2.98631377267970344e-01
103 126 -2.98631377267970344e-01
104 126 -2.98631377267970399e-01
105 126 -2.98631377267970344e-01
106 126 -2.98631377267970455e-01
107 126 -2.98631377267970455e-01
108 126 -2.98631377267970233e-01
109 126 -2.98631377267970344e-01
110 126 -2.98631377267970288e-01
111 126 -2.98631377267970344e-01
112 126 -2.98631377267970288e-01
113 126 -2.98631377267970344e-01
114 126 -2.98631377267970288e-01
115 126 -2.98631377267970233e-01
116 126 -2.98631377267970399e-01
117 126 -2.98631377267970399e-01
118 126 -2.98631377267970233e-01
119 126 -2.98631377267970288e-01
120 126 -2.98631377267970344e-01
121 126 -2.98631377267970288e-01
122 126 -2.98631377267970177e-01
123 126 -2.98631377267970288e-01
124 126 -2.98631377267970233e-01
125 126 -2.98631377267970288e-01
126 126 -2.98631377267970399e-01
127 126 -2.98631377267970344e-01
128 126 -2.98631377267970288e-01
129 126 -2.98631377267970344e-01
130 126 -2.98631377267970399e-01
131 126 -2.98631377267970455e-01
132 126 -2.98631377267970288e-01
133 126 -2.98631377267970288e-01
1 127 -2.51978086495205200e-01
2 127 -2.51978086495205200e-01
3 127 -2.51978086495205256e-01
4 127 -2.51978086495205256e-01
5 127 -2.51978086495205311e-01
6 127 -2.51978086495205256e-01
7 127 -2.51978086495205367e-01
8 127 -2.51978086495205367e-01
9 127 -2.51978086495205200e-01
10 127 -2.51978086495205256e-01
11 127 -2.51978086495205200e-01
12 127 -2.51978086495205256e-01
13 127 -2.51978086495205200e-01
14 127 -2.51978086495205256e-01
15 127 -2.51978086495205256e-01
16 127 -2.51978086495205200e-01
17 127 -2.51978086495205311e-01
18 127 -2.51978086495205311e-01
19 127 -2.51978086495205200e-01
20 127 -2.51978086495205200e-01
21 127 -2.51978086495205256e-01
22 127 -2.51978086495205145e-01
23 127 -2.51978086495205145e-01
24 127 -2.51978086495205200e-01
25 127 -2.51978086495205200e-01
26 127 -2.51978086495205200e-01
27 127 -2.51978086495205311e-01
28 127 -2.51978086495205256e-01
29 127 -2.51978086495205200e-01
30 127 -2.51978086495205256e-01
31 127 -2.51978086495205311e-01
32 127 -2.51978086495205311e-01
33 127 -2.51978086495205256e-01
34 127 -2.51978086495205200e-01
35 127 -2.51978086495205200e-01
36 127 -2.51978086495205256e-01
37 127 -2.51978086495205256e-01
38 127 -2.51978086495205311e-01
39 127 -2.51978086495205256e-01
40 127 -2.51978086495205367e-01
41 127 -2.51978086495205367e-01
42 127 -2.51978086495205200e-01
43 127 -2.51978086495205256e-01
44 127 -2.51978086495205200e-01
45 127 -2.51978086495205256e-01
46 127 -2.51978086495205200e-01
47 127 -2.51978086495205256e-01
48 127 -2.51978086495205256e-01
49 127 -2.51978086495205200e-01
50 127 -2.51978086495205311e-01
51 127 -2.51978086495205311e-01
52 127 -2.51978086495205200e-01
53 127 -2.51978086495205200e-01
54 127 -2.51978086495205256e-01
55 127 -2.51978086495205145e-01
56 127 -2.51978086495205145e-01
57 127 -2.51978086495205200e-01
58 127 -2.51978086495205200e-01
59 127 -2.51978086495205200e-01
60 127 -2.51978086495205311e-01
61 127 -2.51978086495205256e-01
62 127 -2.51978086495205200e-01
63 127 -2.51978086495205256e-01
64 127 -2.51978086495205311e-01
65 127 -2.51978086495205311e-01
66 127 -2.51978086495205256e-01
67 127 -2.51978086495205200e-01
68 127 -2.51978086495205200e-01
69 127 -2.51978086495205256e-01
70 127 -2.51978086495205256e-01
71 127 -2.51978086495205311e-01
72 127 -2.51978086495205256e-01
73 127 -2.51978086495205367e-01
74 127 -2.51978086495205367e-01
75 127 -2.51978086495205200e-01
76 127 -2.51978086495205256e-01
77 127 -2.51978086495205200e-01
78 127 -2.51978086495205256e-01
79 127 -2.51978086495205200e-01
80 127 -2.51978086495205256e-01
81 127 -2.51978086495205256e-01
82 127 -2.51978086495205200e-01
83 127 -2.51978086495205311e-01
84 127 -2.51978086495205311e-01
85 127 -2.51978086495205200e-01
86 127 -2.51978086495205200e-01
87 127 -2.51978086495205256e-01
88 127 -2.51978086495205145e-01
89 127 -2.51978086495205145e-01
90 127 -2.51978086495205200e-01
91 127 -2.51978086495205200e-01
92 127 -2.51978086495205200e-01
93 127 -2.51978086495205311e-01
94 127 -2.51978086495205256e-01
95 127 -2.51978086495205200e-01
96 127 -2.51978086495205256e-01
97 127 -2.51978086495205311e-01
98 127 -2.51978086495205311e-01
99 127 -2.51978086495205256e-01
100 127 -2.51978086495205200e-01
101 127 -2.51978086495205200e-01
102 127 -2.51978086495205256e-01
103 127 -2.51978086495205256e-01
104 127 -2.51978086495205311e-01
105 127 -2.51978086495205256e-01
106 127 -2.51978086495205367e-01
107 127 -2.51978086495205367e-01
108 127 -2.51978086495205200e-01
109 127 -2.51978086495205256e-01
110 127 -2.51978086495205200e-01
111 127 -2.51978086495205256e-01
112 127 -2.51978086495205200e-01
113 127 -2.51978086495205256e-01
114 127 -2.51978086495205256e-01
115 127 -2.51978086495205200e-01
116 127 -2.51978086495205311e-01
117 127 -2.51978086495205311e-01
118 127 -2.51978086495205200e-01
119 127 -2.51978086495205200e-01
120 127 -2.51978086495205256e-01
121 127 -2.51978086495205145e-01
122 127 -2.51978086495205145e-01
123 127 -2.51978086495205200e-01
124 127 -2.51978086495205200e-01
125 127 -2.51978086495205200e-01
126 127 -2.51978086495205311e-01
127 127 -2.51978086495205256e-01
128 127 -2.51978086495205200e-01
129 127 -2.51978086495205256e-01
130 127 -2.51978086495205311e-01
131 127 -2.51978086495205311e-01
132 127 -2.51978086495205256e-01
133 127 -2.51978086495205200e-01
1 128 -2.05350206136080071e-01
2 128 -2.05350206136080043e-01
3 128 -2.05350206136080127e-01
4 128 -2.05350206136080127e-01
5 128 -2.05350206136080154e-01
6 128 -2.05350206136080127e-01
7 128 -2.05350206136080154e-01
8 128 -2.05350206136080182e-01
9 128 -2.05350206136080071e-01
10 128 -2.05350206136080071e-01
11 128 -2.05350206136080099e-01
12 128 -2.05350206136080154e-01
13 128 -2.05350206136080071e-01
14 128 -2.05350206136080099e-01
15 128 -2.05350206136080127e-01
16 128 -2.05350206136080071e-01
17 128 -2.05350206136080127e-01
18 128 -2.05350206136080127e-01
19 128 -2.05350206136080071e-01
20 128 -2.05350206136080099e-01
21 128 -2.05350206136080099e-01
22 128 -2.05350206136080016e-01
23 128 -2.05350206136080016e-01
24 128 -2.05350206136080071e-01
25 128 -2.05350206136080071e-01
26 128 -2.05350206136080071e-01
27 128 -2.05350206136080127e-01
28 128 -2.05350206136080099e-01
29 128 -2.05350206136080071e-01
30 128 -2.05350206136080127e-01
31 128 -2.05350206136080127e-01
32 128 -2.05350206136080127e-01
33 128 -2.05350206136080071e-01
34 128 -2.05350206136080071e-01
35 128 -2.05350206136080043e-01
36 128 -2.05350206136080127e-01
37 128 -2.05350206136080127e-01
38 128 -2.05350206136080154e-01
39 128 -2.05350206136080127e-01
40 128 -2.05350206136080154e-01
41 128 -2.05350206136080182e-01
42 128 -2.05350206136080071e-01
43 128 -2.05350206136080071e-01
44 128 -2.05350206136080099e-01
45 128 -2.05350206136080154e-01
46 128 -2.05350206136080071e-01
47 128 -2.05350206136080099e-01
48 128 -2.05350206136080127e-01
49 128 -2.05350206136080071e-01
50 128 -2.05350206136080127e-01
51 128 -2.05350206136080127e-01
52 128 -2.05350206136080071e-01
53 128 -2.05350206136080099e-01
54 128 -2.05350206136080099e-01
55 128 -2.05350206136080016e-01
56 128 -2.05350206136080016e-01
57 128 -2.05350206136080071e-01
58 128 -2.05350206136080071e-01
59 128 -2.05350206136080071e-01
60 128 -2.05350206136080127e-01
61 128 -2.05350206136080099e-01
62 128 -2.05350206136080071e-01
63 128 -2.05350206136080127e-01
64 128 -2.05350206136080127e-01
65 128 -2.05350206136080127e-01
66 128 -2.05350206136080071e-01
67 128 -2.05350206136080071e-01
68 128 -2.05350206136080043e-01
69 128 -2.05350206136080127e-01
70 128 -2.05350206136080127e-01
71 128 -2.05350206136080154e-01
72 128 -2.05350206136080127e-01
73 128 -2.05350206136080154e-01
74 128 -2.05350206136080182e-01
75 128 -2.05350206136080071e-01
76 128 -2.05350206136080071e-01
77 128 -2.05350206136080099e-01
78 128 -2.05350206136080154e-01
79 128 -2.05350206136080071e-01
80 128 -2.05350206136080099e-01
81 128 -2.05350206136080127e-01
82 128 -2.05350206136080071e-01
83 128 -2.05350206136080127e-01
84 128 -2.05350206136080127e-01
85 128 -2.05350206136080071e-01
86 128 -2.05350206136080099e-01
87 128 -2.05350206136080099e-01
88 128 -2.05350206136080016e-01
89 128 -2.05350206136080016e-01
90 128 -2.05350206136080071e-01
91 128 -2.05350206136080071e-01
92 128 -2.05350206136080071e-01
93 128 -2.05350206136080127e-01
94 128 -2.05350206136080099e-01
95 128 -2.05350206136080071e-01
96 128 -2.05350206136080127e-01
97 128 -2.05350206136080127e-01
98 128 -2.05350206136080127e-01
99 128 -2.05350206136080071e-01
100 128 -2.05350206136080071e-01
101 128 -2.05350206136080043e-01
102 128 -2.05350206136080127e-01
103 128 -2.05350206136080127e-01
104 128 -2.05350206136080154e-01
105 128 -2.05350206136080127e-01
106 128 -2.05350206136080154e-01
107 128 -2.05350206136080182e-01
108 128 -2.05350206136080071e-01
109 128 -2.05350206136080071e-01
110 128 -2.05350206136080099e-01
111 128 -2.05350206136080154e-01
112 128 -2.05350206136080071e-01
113 128 -2.05350206136080099e-01
114 128 -2.05350206136080127e-01
115 128 -2.05350206136080071e-01
116 128 -2.05350206136080127e-01
117 128 -2.05350206136080127e-01
118 128 -2.05350206136080071e-01
119 128 -2.05350206136080099e-01
120 128 -2.05350206136080099e-01
121 128 -2.05350206136080016e-01
122 128 -2.05350206136080016e-01
123 128 -2.05350206136080071e-01
124 128 -2.05350206136080071e-01
125 128 -2.05350206136080071e-01
126 128 -2.05350206136080127e-01
127 128 -2.05350206136080099e-01
128 128 -2.05350206136080071e-01
129 128 -2.05350206136080127e-01
130 128 -2.05350206136080127e-01
131 128 -2.05350206136080127e-01
132 128 -2.05350206136080071e-01
133 128 -2.05350206136080071e-01
1 129 -1.58916472321746660e-01
2 129 -1.58916472321746632e-01
3 129 -1.58916472321746688e-01
4 129 -1.58916472321746688e-01
5 129 -1.58916472321746716e-01
6 129 -1.58916472321746688e-01
7 129 -1.58916472321746688e-01
8 129 -1.58916472321746716e-01
9 129 -1.58916472321746660e-01
10 129 -1.58916472321746660e-01
11 129 -1.58916472321746688e-01
12 129 -1.58916472321746688e-01
13 129 -1.58916472321746660e-01
14 129 -1.58916472321746660e-01
15 129 -1.58916472321746688e-01
16 129 -1.58916472321746632e-01
17 129 -1.58916472321746660e-01
18 129 -1.58916472321746660e-01
19 129 -1.58916472321746632e-01
20 129 -1.58916472321746632e-01
21 129 -1.58916472321746660e-01
22 129 -1.58916472321746605e-01
23 129 -1.58916472321746605e-01
24 129 -1.58916472321746632e-01
25 129 -1.58916472321746632e-01
26 129 -1.58916472321746632e-01
27 129 -1.58916472321746660e-01
28 129 -1.58916472321746660e-01
29 129 -1.58916472321746632e-01
30 129 -1.58916472321746660e-01
31 129 -1.58916472321746688e-01
32 129 -1.58916472321746688e-01
33 129 -1.58916472321746660e-01
34 129 -1.58916472321746660e-01
35 129 -1.58916472321746632e-01
36 129 -1.58916472321746688e-01
37 129 -1.58916472321746688e-01
38 129 -1.58916472321746716e-01
39 129 -1.58916472321746688e-01
40 129 -1.58916472321746688e-01
41 129 -1.58916472321746716e-01
42 129 -1.58916472321746660e-01
43 129 -1.58916472321746660e-01
44 129 -1.58916472321746688e-01
45 129 -1.58916472321746688e-01
46 129 -1.58916472321746660e-01
47 129 -1.58916472321746660e-01
48 129 -1.58916472321746688e-01
49 129 -1.58916472321746632e-01
50 129 -1.58916472321746660e-01
51 129 -1.58916472321746660e-01
52 129 -1.58916472321746632e-01
53 129 -1.58916472321746632e-01
54 129 -1.58916472321746660e-01
55 129 -1.58916472321746605e-01
56 129 -1.58916472321746605e-01
57 129 -1.58916472321746632e-01
58 129 -1.58916472321746632e-01
59 129 -1.58916472321746632e-01
60 129 -1.58916472321746660e-01
61 129 -1.58916472321746660e-01
62 129 -1.58916472321746632e-01
63 129 -1.58916472321746660e-01
64 129 -1.58916472321746688e-01
65 129 -1.58916472321746688e-01
66 129 -1.58916472321746660e-01
67 129 -1.58916472321746660e-01
68 129 -1.58916472321746632e-01
69 129 -1.58916472321746688e-01
70 129 -1.58916472321746688e-01
71 129 -1.58916472321746716e-01
72 129 -1.58916472321746688e-01
73 129 -1.58916472321746688e-01
74 129 -1.58916472321746716e-01
75 129 -1.58916472321746660e-01
76 129 -1.58916472321746660e-01
77 129 -1.58916472321746688e-01
78 129 -1.58916472321746688e-01
79 129 -1.58916472321746660e-01
80 129 -1.58916472321746660e-01
81 129 -1.58916472321746688e-01
82 129 -1.58916472321746632e-01
83 129 -1.58916472321746660e-01
84 129 -1.58916472321746660e-01
85 129 -1.58916472321746632e-01
86 129 -1.58916472321746632e-01
87 129 -1.58916472321746660e-01
88 129 -1.58916472321746605e-01
89 129 -1.58916472321746605e-01
90 129 -1.58916472321746632e-01
91 129 -1.58916472321746632e-01
92 129 -1.58916472321746632e-01
93 129 -1.58916472321746660e-01
94 129 -1.58916472321746660e-01
95 129 -1.58916472321746632e-01
96 129 -1.58916472321746660e-01
97 129 -1.58916472321746688e-01
98 129 -1.58916472321746688e-01
99 129 -1.58916472321746660e-01
100 129 -1.58916472321746660e-01
101 129 -1.58916472321746632e-01
102 129 -1.58916472321746688e-01
103 129 -1.58916472321746688e-01
104 129 -1.58916472321746716e-01
105 129 -1.58916472321746688e-01
106 129 -1.58916472321746688e-01
107 129 -1.58916472321746716e-01
108 129 -1.58916472321746660e-01
109 129 -1.58916472321746660e-01
110 129 -1.58916472321746688e-01
111 129 -1.58916472321746688e-01
112 129 -1.58916472321746660e-01
113 129 -1.58916472321746660e-01
114 129 -1.58916472321746688e-01
115 129 -1.58916472321746632e-01
116 129 -1.58916472321746660e-01
117 129 -1.58916472321746660e-01
118 129 -1.58916472321746632e-01
119 129 -1.58916472321746632e-01
120 129 -1.58916472321746660e-01
121 129 -1.58916472321746605e-01
122 129 -1.58916472321746605e-01
123 129 -1.58916472321746632e-01
124 129 -1.58916472321746632e-01
125 129 -1.58916472321746632e-01
126 129 -1.58916472321746660e-01
127 129 -1.58916472321746660e-01
128 129 -1.58916472321746632e-01
129 129 -1.58916472321746660e-01
130 129 -1.58916472321746688e-01
131 129 -1.58916472321746688e-01
132 129 -1.58916472321746660e-01
133 129 -1.58916472321746660e-01
1 130 -1.12834956513251650e-01
2 130 -1.12834956513251650e-01
3 130 -1.12834956513251664e-01
4 130 -1.12834956513251677e-01
5 130 -1.12834956513251677e-01
6 130 -1.12834956513251664e-01
7 130 -1.12834956513251664e-01
8 130 -1.12834956513251691e-01
9 130 -1.12834956513251650e-01
10 130 -1.12834956513251650e-01
11 130 -1.12834956513251664e-01
12 130 -1.12834956513251664e-01
13 130 -1.12834956513251636e-01
14 130 -1.12834956513251664e-01
15 130 -1.12834956513251664e-01
16 130 -1.12834956513251636e-01
17 130 -1.12834956513251650e-01
18 130 -1.12834956513251650e-01
19 130 -1.12834956513251622e-01
20 130 -1.12834956513251622e-01
21 130 -1.12834956513251650e-01
22 130 -1.12834956513251622e-01
23 130 -1.12834956513251608e-01
24 130 -1.12834956513251636e-01
25 130 -1.12834956513251622e-01
26 130 -1.12834956513251622e-01
27 130 -1.12834956513251636e-01
28 130 -1.12834956513251650e-01
29 130 -1.12834956513251622e-01
30 130 -1.12834956513251650e-01
31 130 -1.12834956513251664e-01
32 130 -1.12834956513251677e-01
33 130 -1.12834956513251664e-01
34 130 -1.12834956513251650e-01
35 130 -1.12834956513251650e-01
36 130 -1.12834956513251664e-01
37 130 -1.12834956513251677e-01
38 130 -1.12834956513251677e-01
39 130 -1.12834956513251664e-01
40 130 -1.12834956513251664e-01
41 130 -1.12834956513251691e-01
42 130 -1.12834956513251650e-01
43 130 -1.12834956513251650e-01
44 130 -1.12834956513251664e-01
45 130 -1.12834956513251664e-01
46 130 -1.12834956513251636e-01
47 130 -1.12834956513251664e-01
48 130 -1.12834956513251664e-01
49 130 -1.12834956513251636e-01
50 130 -1.12834956513251650e-01
51 130 -1.12834956513251650e-01
52 130 -1.12834956513251622e-01
53 130 -1.12834956513251622e-01
54 130 -1.12834956513251650e-01
55 130 -1.12834956513251622e-01
56 130 -1.12834956513251608e-01
57 130 -1.12834956513251636e-01
58 130 -1.12834956513251622e-01
59 130 -1.12834956513251622e-01
60 130 -1.12834956513251636e-01
61 130 -1.12834956513251650e-01
62 130 -1.12834956513251622e-01
63 130 -1.12834956513251650e-01
64 130 -1.12834956513251664e-01
65 130 -1.12834956513251677e-01
66 130 -1.12834956513251664e-01
67 130 -1.12834956513251650e-01
68 130 -1.12834956513251650e-01
69 130 -1.12834956513251664e-01
70 130 -1.12834956513251677e-01
71 130 -1.12834956513251677e-01
72 130 -1.12834956513251664e-01
73 130 -1.12834956513251664e-01
74 130 -1.12834956513251691e-01
75 130 -1.12834956513251650e-01
76 130 -1.12834956513251650e-01
77 130 -1.12834956513251664e-01
78 130 -1.12834956513251664e-01
79 130 -1.12834956513251636e-01
80 130 -1.12834956513251664e-01
81 130 -1.12834956513251664e-01
82 130 -1.12834956513251636e-01
83 130 -1.12834956513251650e-01
84 130 -1.12834956513251650e-01
85 130 -1.12834956513251622e-01
86 130 -1.12834956513251622e-01
87 130 -1.12834956513251650e-01
88 130 -1.12834956513251622e-01
89 130 -1.12834956513251608e-01
90 130 -1.12834956513251636e-01
91 130 -1.12834956513251622e-01
92 130 -1.12834956513251622e-01
93 130 -1.12834956513251636e-01
94 130 -1.12834956513251650e-01
95 130 -1.12834956513251622e-01
96 130 -1.12834956513251650e-01
97 130 -1.12834956513251664e-01
98 130 -1.12834956513251677e-01
99 130 -1.12834956513251664e-01
100 130 -1.12834956513251650e-01
101 130 -1.12834956513251650e-01
102 130 -1.12834956513251664e-01
103 130 -1.12834956513251677e-01
104 130 -1.12834956513251677e-01
105 130 -1.12834956513251664e-01
106 130 -1.12834956513251664e-01
107 130 -1.12834956513251691e-01
108 130 -1.12834956513251650e-01
109 130 -1.12834956513251650e-01
110 130 -1.12834956513251664e-01
111 130 -1.12834956513251664e-01
112 130 -1.12834956513251636e-01
113 130 -1.12834956513251664e-01
114 130 -1.12834956513251664e-01
115 130 -1.12834956513251636e-01
116 130 -1.12834956513251650e-01
117 130 -1.12834956513251650e-01
118 130 -1.12834956513251622e-01
119 130 -1.12834956513251622e-01
120 130 -1.12834956513251650e-01
121 130 -1.12834956513251622e-01
122 130 -1.12834956513251608e-01
123 130 -1.12834956513251636e-01
124 130 -1.12834956513251622e-01
125 130 -1.12834956513251622e-01
126 130 -1.12834956513251636e-01
127 130 -1.12834956513251650e-01
128 130 -1.12834956513251622e-01
129 130 -1.12834956513251650e-01
130 130 -1.12834956513251664e-01
131 130 -1.12834956513251677e-01
132 130 -1.12834956513251664e-01
133 130 -1.12834956513251650e-01
1 131 -6.72519599884323499e-02
2 131 -6.72519599884323499e-02
3 131 -6.72519599884323638e-02
4 131 -6.72519599884323638e-02
5 131 -6.72519599884323638e-02
6 131 -6.72519599884323499e-02
7 131 -6.72519599884323499e-02
8 131 -6.72519599884323638e-02
9 131 -6.72519599884323499e-02
10 131 -6.72519599884323499e-02
11 131 -6.72519599884323499e-02
12 131 -6.72519599884323499e-02
13 131 -6.72519599884323360e-02
14 131 -6.72519599884323499e-02
15 131 -6.72519599884323360e-02
16 131 -6.72519599884323360e-02
17 131 -6.72519599884323360e-02
18 131 -6.72519599884323360e-02
19 131 -6.72519599884323221e-02
20 131 -6.72519599884323221e-02
21 131 -6.72519599884323360e-02
22 131 -6.72519599884323221e-02
23 131 -6.72519599884323221e-02
24 131 -6.72519599884323360e-02
25 131 -6.72519599884323221e-02
26 131 -6.72519599884323221e-02
27 131 -6.72519599884323499e-02
28 131 -6.72519599884323499e-02
29 131 -6.72519599884323360e-02
30 131 -6.72519599884323360e-02
31 131 -6.72519599884323499e-02
32 131 -6.72519599884323638e-02
33 131 -6.72519599884323638e-02
34 131 -6.72519599884323499e-02
35 131 -6.72519599884323499e-02
36 131 -6.72519599884323638e-02
37 131 -6.72519599884323638e-02
38 131 -6.72519599884323638e-02
39 131 -6.72519599884323499e-02
40 131 -6.72519599884323499e-02
41 131 -6.72519599884323638e-02
42 131 -6.72519599884323499e-02
43 131 -6.72519599884323499e-02
44 131 -6.72519599884323499e-02
45 131 -6.72519599884323499e-02
46 131 -6.72519599884323360e-02
47 131 -6.72519599884323499e-02
48 131 -6.72519599884323360e-02
49 131 -6.72519599884323360e-02
50 131 -6.72519599884323360e-02
51 131 -6.72519599884323360e-02
52 131 -6.72519599884323221e-02
53 131 -6.72519599884323221e-02
54 131 -6.72519599884323360e-02
55 131 -6.72519599884323221e-02
56 131 -6.72519599884323221e-02
57 131 -6.72519599884323360e-02
58 131 -6.72519599884323221e-02
59 131 -6.72519599884323221e-02
60 131 -6.72519599884323499e-02
61 131 -6.72519599884323499e-02
62 131 -6.72519599884323360e-02
63 131 -6.72519599884323360e-02
64 131 -6.72519599884323499e-02
65 131 -6.72519599884323638e-02
66 131 -6.72519599884323638e-02
67 131 -6.72519599884323499e-02
68 131 -6.72519599884323499e-02
69 131 -6.72519599884323638e-02
70 131 -6.72519599884323638e-02
71 131 -6.72519599884323638e-02
72 131 -6.72519599884323499e-02
73 131 -6.72519599884323499e-02
74 131 -6.72519599884323638e-02
75 131 -6.72519599884323499e-02
76 131 -6.72519599884323499e-02
77 131 -6.72519599884323499e-02
78 131 -6.72519599884323499e-02
79 131 -6.72519599884323360e-02
80 131 -6.72519599884323499e-02
81 131 -6.72519599884323360e-02
82 131 -6.72519599884323360e-02
83 131 -6.72519599884323360e-02
84 131 -6.72519599884323360e-02
85 131 -6.72519599884323221e-02
86 131 -6.72519599884323221e-02
87 131 -6.72519599884323360e-02
88 131 -6.72519599884323221e-02
89 131 -6.72519599884323221e-02
90 131 -6.72519599884323360e-02
91 131 -6.72519599884323221e-02
92 131 -6.72519599884323221e-02
93 131 -6.72519599884323499e-02
94 131 -6.72519599884323499e-02
95 131 -6.72519599884323360e-02
96 131 -6.72519599884323360e-02
97 131 -6.72519599884323499e-02
98 131 -6.72519599884323638e-02
99 131 -6.72519599884323638e-02
100 131 -6.72519599884323499e-02
101 131 -6.72519599884323499e-02
102 131 -6.72519599884323638e-02
103 131 -6.72519599884323638e-02
104 131 -6.72519599884323638e-02
105 131 -6.72519599884323499e-02
106 131 -6.72519599884323499e-02
107 131 -6.72519599884323638e-02
108 131 -6.72519599884323499e-02
109 131 -6.72519599884323499e-02
110 131 -6.72519599884323499e-02
111 131 -6.72519599884323499e-02
112 131 -6.72519599884323360e-02
113 131 -6.72519599884323499e-02
114 131 -6.72519599884323360e-02
115 131 -6.72519599884323360e-02
116 131 -6.72519599884323360e-02
117 131 -6.72519599884323360e-02
118 131 -6.72519599884323221e-02
119 131 -6.72519599884323221e-02
120 131 -6.72519599884323360e-02
121 131 -6.72519599884323221e-02
122 131 -6.72519599884323221e-02
123 131 -6.72519599884323360e-02
124 131 -6.72519599884323221e-02
125 131 -6.72519599884323221e-02
126 131 -6.72519599884323499e-02
127 131 -6.72519599884323499e-02
128 131 -6.72519599884323360e-02
129 131 -6.72519599884323360e-02
130 131 -6.72519599884323499e-02
131 131 -6.72519599884323638e-02
132 131 -6.72519599884323638e-02
133 131 -6.72519599884323499e-02
1 132 -2.23012079300187148e-02
2 132 -2.23012079300187148e-02
3 132 -2.23012079300187183e-02
4 132 -2.23012079300187148e-02
5 132 -2.23012079300187217e-02
6 132 -2.23012079300187183e-02
7 132 -2.23012079300187183e-02
8 132 -2.23012079300187217e-02
9 132 -2.23012079300187183e-02
10 132 -2.23012079300187183e-02
11 132 -2.23012079300187183e-02
12 132 -2.23012079300187148e-02
13 132 -2.23012079300187148e-02
14 132 -2.23012079300187148e-02
15 132 -2.23012079300187148e-02
16 132 -2.23012079300187113e-02
17 132 -2.23012079300187113e-02
18 132 -2.23012079300187113e-02
19 132 -2.23012079300187079e-02
20 132 -2.23012079300187079e-02
21 132 -2.23012079300187113e-02
22 132 -2.23012079300187079e-02
23 132 -2.23012079300187079e-02
24 132 -2.23012079300187113e-02
25 132 -2.23012079300187113e-02
26 132 -2.23012079300187113e-02
27 132 -2.23012079300187148e-02
28 132 -2.23012079300187148e-02
29 132 -2.23012079300187113e-02
30 132 -2.23012079300187148e-02
31 132 -2.23012079300187148e-02
32 132 -2.23012079300187183e-02
33 132 -2.23012079300187183e-02
34 132 -2.23012079300187148e-02
35 132 -2.23012079300187148e-02
36 132 -2.23012079300187183e-02
37 132 -2.23012079300187148e-02
38 132 -2.23012079300187217e-02
39 132 -2.23012079300187183e-02
40 132 -2.23012079300187183e-02
41 132 -2.23012079300187217e-02
42 132 -2.23012079300187183e-02
43 132 -2.23012079300187183e-02
44 132 -2.23012079300187183e-02
45 132 -2.23012079300187148e-02
46 132 -2.23012079300187148e-02
47 132 -2.23012079300187148e-02
48 132 -2.23012079300187148e-02
49 132 -2.23012079300187113e-02
50 132 -2.23012079300187113e-02
51 132 -2.23012079300187113e-02
52 132 -2.23012079300187079e-02
53 132 -2.23012079300187079e-02
54 132 -2.23012079300187113e-02
55 132 -2.23012079300187079e-02
56 132 -2.23012079300187079e-02
57 132 -2.23012079300187113e-02
58 132 -2.23012079300187113e-02
59 132 -2.23012079300187113e-02
60 132 -2.23012079300187148e-02
61 132 -2.23012079300187148e-02
62 132 -2.23012079300187113e-02
63 132 -2.23012079300187148e-02
64 132 -2.23012079300187148e-02
65 132 -2.23012079300187183e-02
66 132 -2.23012079300187183e-02
67 132 -2.23012079300187148e-02
68 132 -2.23012079300187148e-02
69 132 -2.23012079300187183e-02
70 132 -2.23012079300187148e-02
71 132 -2.23012079300187217e-02
72 132 -2.23012079300187183e-02
73 132 -2.23012079300187183e-02
74 132 -2.23012079300187217e-02
75 132 -2.23012079300187183e-02
76 132 -2.23012079300187183e-02
77 132 -2.23012079300187183e-02
78 132 -2.23012079300187148e-02
79 132 -2.23012079300187148e-02
80 132 -2.23012079300187148e-02
81 132 -2.23012079300187148e-02
82 132 -2.23012079300187113e-02
83 132 -2.23012079300187113e-02
84 132 -2.23012079300187113e-02
85 132 -2.23012079300187079e-02
86 132 -2.23012079300187079e-02
87 132 -2.23012079300187113e-02
88 132 -2.23012079300187079e-02
89 132 -2.23012079300187079e-02
90 132 -2.23012079300187113e-02
91 132 -2.23012079300187113e-02
92 132 -2.23012079300187113e-02
93 132 -2.23012079300187148e-02
94 132 -2.23012079300187148e-02
95 132 -2.23012079300187113e-02
96 132 -2.23012079300187148e-02
97 132 -2.23012079300187148e-02
98 132 -2.23012079300187183e-02
99 132 -2.23012079300187183e-02
100 132 -2.23012079300187148e-02
101 132 -2.23012079300187148e-02
102 132 -2.23012079300187183e-02
103 132 -2.23012079300187148e-02
104 132 -2.23012079300187217e-02
105 132 -2.23012079300187183e-02
106 132 -2.23012079300187183e-02
107 132 -2.23012079300187217e-02
108 132 -2.23012079300187183e-02
109 132 -2.23012079300187183e-02
110 132 -2.23012079300187183e-02
111 132 -2.23012079300187148e-02
112 132 -2.23012079300187148e-02
113 132 -2.23012079300187148e-02
114 132 -2.23012079300187148e-02
115 132 -2.23012079300187113e-02
116 132 -2.23012079300187113e-02
117 132 -2.23012079300187113e-02
118 132 -2.23012079300187079e-02
119 132 -2.23012079300187079e-02
120 132 -2.23012079300187113e-02
121 132 -2.23012079300187079e-02
122 132 -2.23012079300187079e-02
123 132 -2.23012079300187113e-02
124 132 -2.23012079300187113e-02
125 132 -2.23012079300187113e-02
126 132 -2.23012079300187148e-02
127 132 -2.23012079300187148e-02
128 132 -2.23012079300187113e-02
129 132 -2.23012079300187148e-02
130 132 -2.23012079300187148e-02
131 132 -2.23012079300187183e-02
132 132 -2.23012079300187183e-02
133 132 -2.23012079300187148e-02
1 133 0.00000000000000000e+00
2 133 0.00000000000000000e+00
3 133 0.00000000000000000e+00
4 133 0.00000000000000000e+00
5 133 0.00000000000000000e+00
6 133 0.00000000000000000e+00
7 133 0.00000000000000000e+00
8 133 0.00000000000000000e+00
9 133 0.00000000000000000e+00
10 133 0.00000000000000000e+00
11 133 0.00000000000000000e+00
12 133 0.00000000000000000e+00
13 133 0.00000000000000000e+00
14 133 0.00000000000000000e+00
15 133 0.00000000000000000e+00
16 133 0.00000000000000000e+00
17 133 0.00000000000000000e+00
18 133 0.00000000000000000e+00
19 133 0.00000000000000000e+00
20 133 0.00000000000000000e+00
21 133 0.00000000000000000e+00
22 133 0.00000000000000000e+00
23 133 0.00000000000000000e+00
24 133 0.00000000000000000e+00
25 133 0.00000000000000000e+00
26 133 0.00000000000000000e+00
27 133 0.00000000000000000e+00
28 133 0.00000000000000000e+00
29 133 0.00000000000000000e+00
30 133 0.00000000000000000e+00
31 133 0.00000000000000000e+00
32 133 0.00000000000000000e+00
33 133 0.00000000000000000e+00
34 133 0.00000000000000000e+00
35 133 0.00000000000000000e+00
36 133 0.00000000000000000e+00
37 133 0.00000000000000000e+00
38 133 0.00000000000000000e+00
39 133 0.00000000000000000e+00
40 133 0.00000000000000000e+00
41 133 0.00000000000000000e+00
42 133 0.00000000000000000e+00
43 133 0.00000000000000000e+00
44 133 0.00000000000000000e+00
45 133 0.00000000000000000e+00
46 133 0.00000000000000000e+00
47 133 0.00000000000000000e+00
48 133 0.00000000000000000e+00
49 133 0.00000000000000000e+00
50 133 0.00000000000000000e+00
51 133 0.00000000000000000e+00
52 133 0.00000000000000000e+00
53 133 0.00000000000000000e+00
54 133 0.00000000000000000e+00
55 133 0.00000000000000000e+00
56 133 0.00000000000000000e+00
57 133 0.00000000000000000e+00
58 133 0.00000000000000000e+00
59 133 0.00000000000000000e+00
60 133 0.00000000000000000e+00
61 133 0.00000000000000000e+00
62 133 0.00000000000000000e+00
63 133 0.00000000000000000e+00
64 133 0.00000000000000000e+00
65 133 0.00000000000000000e+00
66 133 0.00000000000000000e+00
67 133 0.00000000000000000e+00
68 133 0.00000000000000000e+00
69 133 0.00000000000000000e+00
70 133 0.00000000000000000e+00
71 133 0.00000000000000000e+00
72 133 0.00000000000000000e+00
73 133 0.00000000000000000e+00
74 133 0.00000000000000000e+00
75 133 0.00000000000000000e+00
76 133 0.00000000000000000e+00
77 133 0.00000000000000000e+00
78 133 0.00000000000000000e+00
79 133 0.00000000000000000e+00
80 133 0.00000000000000000e+00
81 133 0.00000000000000000e+00
82 133 0.00000000000000000e+00
83 133 0.00000000000000000e+00
84 133 0.00000000000000000e+00
85 133 0.00000000000000000e+00
86 133 0.00000000000000000e+00
87 133 0.00000000000000000e+00
88 133 0.00000000000000000e+00
89 133 0.00000000000000000e+00
90 133 0.00000000000000000e+00
91 133 0.00000000000000000e+00
92 133 0.00000000000000000e+00
93 133 0.00000000000000000e+00
94 133 0.00000000000000000e+00
95 133 0.00000000000000000e+00
96 133 0.00000000000000000e+00
97 133 0.00000000000000000e+00
98 133 0.00000000000000000e+00
99 133 0.00000000000000000e+00
100 133 0.00000000000000000e+00
101 133 0.00000000000000000e+00
102 133 0.00000000000000000e+00
103 133 0.00000000000000000e+00
104 133 0.00000000000000000e+00
105 133 0.00000000000000000e+00
106 133 0.00000000000000000e+00
107 133 0.00000000000000000e+00
108 133 0.00000000000000000e+00
109 133 0.00000000000000000e+00
110 133 0.00000000000000000e+00
111 133 0.00000000000000000e+00
112 133 0.00000000000000000e+00
113 133 0.00000000000000000e+00
114 133 0.00000000000000000e+00
115 133 0.00000000000000000e+00
116 133 0.00000000000000000e+00
117 133 0.00000000000000000e+00
118 133 0.00000000000000000e+00
119 133 0.00000000000000000e+00
120 133 0.00000000000000000e+00
121 133 0.00000000000000000e+00
122 133 0.00000000000000000e+00
123 133 0.00000000000000000e+00
124 133 0.00000000000000000e+00
125 133 0.00000000000000000e+00
126 133 0.00000000000000000e+00
127 133 0.00000000000000000e+00
128 133 0.00000000000000000e+00
129 133 0.00000000000000000e+00
130 133 0.00000000000000000e+00
131 133 0.00000000000000000e+00
132 133 0.00000000000000000e+00
133 133 0.00000000000000000e+00
