%%MatrixMarket matrix coordinate  real general
133 133 17689
1 1 0.00000000000000000e+00
2 1 -6.69036237900561548e-02
3 1 -2.01755879965297091e-01
4 1 -3.38504869539755004e-01
5 1 -4.76749416965240091e-01
6 1 -6.16050618408240380e-01
7 1 -7.55934259485615878e-01
8 1 -8.95894131803911198e-01
9 1 -1.03539625578552208e+00
10 1 -1.17388398537045258e+00
11 1 -1.31078393531706050e+00
12 1 -1.44551263564070376e+00
13 1 -1.57748378221353880e+00
14 1 -1.70611591990263078e+00
15 1 -1.83084036709564946e+00
16 1 -1.95110917015725627e+00
17 1 -2.06640286503212023e+00
18 1 -2.17623782208716454e+00
19 1 -2.28017295991184188e+00
20 1 -2.37781563395148554e+00
21 1 -2.46882653553897446e+00
22 1 -2.55292347440996936e+00
23 1 -2.62988396086683451e+00
24 1 -2.69954654975995156e+00
25 1 -2.76181095461353721e+00
26 1 -2.81663698387331474e+00
27 1 -2.86404239005502159e+00
28 1 -2.90409975467887227e+00
29 1 -2.93693255604254633e+00
30 1 -2.96271058251672770e+00
31 1 -2.98164486116923966e+00
32 1 -2.99398227070960310e+00
33 1 -3.00000000000000044e+00
34 1 -3.00000000000000000e+00
35 1 -3.00000000000000044e+00
36 1 -2.99398227070960354e+00
37 1 -2.98164486116924010e+00
38 1 -2.96271058251672814e+00
39 1 -2.93693255604254633e+00
40 1 -2.90409975467887316e+00
41 1 -2.86404239005502248e+00
42 1 -2.81663698387331563e+00
43 1 -2.76181095461353765e+00
44 1 -2.69954654975995201e+00
45 1 -2.62988396086683451e+00
46 1 -2.55292347440996936e+00
47 1 -2.46882653553897446e+00
48 1 -2.37781563395148554e+00
49 1 -2.28017295991184188e+00
50 1 -2.17623782208716410e+00
51 1 -2.06640286503211978e+00
52 1 -1.95110917015725582e+00
53 1 -1.83084036709564923e+00
54 1 -1.70611591990263034e+00
55 1 -1.57748378221353835e+00
56 1 -1.44551263564070354e+00
57 1 -1.31078393531706028e+00
58 1 -1.17388398537045258e+00
59 1 -1.03539625578552208e+00
60 1 -8.95894131803911198e-01
61 1 -7.55934259485615989e-01
62 1 -6.16050618408240602e-01
63 1 -4.76749416965240314e-01
64 1 -3.38504869539755282e-01
65 1 -2.01755879965297397e-01
66 1 -6.69036237900565156e-02
67 1 -3.67394039744205888e-16
68 1 6.69036237900558495e-02
69 1 2.01755879965296814e-01
70 1 3.38504869539754782e-01
71 1 4.76749416965239869e-01
72 1 6.16050618408240269e-01
73 1 7.55934259485615767e-01
74 1 8.95894131803911198e-01
75 1 1.03539625578552208e+00
76 1 1.17388398537045258e+00
77 1 1.31078393531706050e+00
78 1 1.44551263564070376e+00
79 1 1.57748378221353880e+00
80 1 1.70611591990263078e+00
81 1 1.83084036709564946e+00
82 1 1.95110917015725627e+00
83 1 2.06640286503212023e+00
84 1 2.17623782208716454e+00
85 1 2.28017295991184188e+00
86 1 2.37781563395148554e+00
87 1 2.46882653553897446e+00
88 1 2.55292347440996936e+00
89 1 2.62988396086683451e+00
90 1 2.69954654975995156e+00
91 1 2.76181095461353721e+00
92 1 2.81663698387331474e+00
93 1 2.86404239005502159e+00
94 1 2.90409975467887227e+00
95 1 2.93693255604254633e+00
96 1 2.96271058251672770e+00
97 1 2.98164486116923966e+00
98 1 2.99398227070960310e+00
99 1 3.00000000000000044e+00
100 1 3.00000000000000000e+00
101 1 3.00000000000000044e+00
102 1 2.99398227070960354e+00
103 1 2.98164486116924010e+00
104 1 2.96271058251672814e+00
105 1 2.93693255604254633e+00
106 1 2.90409975467887316e+00
107 1 2.86404239005502248e+00
108 1 2.81663698387331563e+00
109 1 2.76181095461353765e+00
110 1 2.69954654975995201e+00
111 1 2.62988396086683451e+00
112 1 2.55292347440996936e+00
113 1 2.46882653553897491e+00
114 1 2.37781563395148643e+00
115 1 2.28017295991184277e+00
116 1 2.17623782208716499e+00
117 1 2.06640286503212023e+00
118 1 1.95110917015725605e+00
119 1 1.83084036709564968e+00
120 1 1.70611591990263101e+00
121 1 1.57748378221353902e+00
122 1 1.44551263564070442e+00
123 1 1.31078393531706094e+00
124 1 1.17388398537045302e+00
125 1 1.03539625578552252e+00
126 1 8.95894131803911642e-01
127 1 7.55934259485616433e-01
128 1 6.16050618408240935e-01
129 1 4.76749416965240647e-01
130 1 3.38504869539755615e-01
131 1 2.01755879965297730e-01
132 1 6.69036237900568626e-02
133 1 7.34788079488411776e-16
1 2 0.00000000000000000e+00
2 2 -6.69036237900561548e-02
3 2 -2.01755879965297091e-01
4 2 -3.38504869539755004e-01
5 2 -4.76749416965240091e-01
6 2 -6.16050618408240491e-01
7 2 -7.55934259485615989e-01
8 2 -8.95894131803911198e-01
9 2 -1.03539625578552230e+00
10 2 -1.17388398537045235e+00
11 2 -1.31078393531706072e+00
12 2 -1.44551263564070376e+00
13 2 -1.57748378221353880e+00
14 2 -1.70611591990263078e+00
15 2 -1.83084036709564923e+00
16 2 -1.95110917015725605e+00
17 2 -2.06640286503212023e+00
18 2 -2.17623782208716454e+00
19 2 -2.28017295991184188e+00
20 2 -2.37781563395148554e+00
21 2 -2.46882653553897358e+00
22 2 -2.55292347440996892e+00
23 2 -2.62988396086683496e+00
24 2 -2.69954654975995201e+00
25 2 -2.76181095461353676e+00
26 2 -2.81663698387331474e+00
27 2 -2.86404239005502159e+00
28 2 -2.90409975467887227e+00
29 2 -2.93693255604254633e+00
30 2 -2.96271058251672814e+00
31 2 -2.98164486116923966e+00
32 2 -2.99398227070960310e+00
33 2 -3.00000000000000000e+00
34 2 -3.00000000000000044e+00
35 2 -3.00000000000000044e+00
36 2 -2.99398227070960354e+00
37 2 -2.98164486116924010e+00
38 2 -2.96271058251672814e+00
39 2 -2.93693255604254588e+00
40 2 -2.90409975467887316e+00
41 2 -2.86404239005502292e+00
42 2 -2.81663698387331607e+00
43 2 -2.76181095461353765e+00
44 2 -2.69954654975995201e+00
45 2 -2.62988396086683496e+00
46 2 -2.55292347440996936e+00
47 2 -2.46882653553897358e+00
48 2 -2.37781563395148554e+00
49 2 -2.28017295991184188e+00
50 2 -2.17623782208716410e+00
51 2 -2.06640286503211934e+00
52 2 -1.95110917015725538e+00
53 2 -1.83084036709564901e+00
54 2 -1.70611591990263012e+00
55 2 -1.57748378221353813e+00
56 2 -1.44551263564070376e+00
57 2 -1.31078393531706050e+00
58 2 -1.17388398537045235e+00
59 2 -1.03539625578552208e+00
60 2 -8.95894131803911198e-01
61 2 -7.55934259485615989e-01
62 2 -6.16050618408240713e-01
63 2 -4.76749416965240314e-01
64 2 -3.38504869539755338e-01
65 2 -2.01755879965297424e-01
66 2 -6.69036237900565156e-02
67 2 -3.67394039744205888e-16
68 2 6.69036237900558495e-02
69 2 2.01755879965296786e-01
70 2 3.38504869539754727e-01
71 2 4.76749416965239925e-01
72 2 6.16050618408240380e-01
73 2 7.55934259485615878e-01
74 2 8.95894131803911198e-01
75 2 1.03539625578552230e+00
76 2 1.17388398537045235e+00
77 2 1.31078393531706072e+00
78 2 1.44551263564070376e+00
79 2 1.57748378221353880e+00
80 2 1.70611591990263078e+00
81 2 1.83084036709564923e+00
82 2 1.95110917015725605e+00
83 2 2.06640286503212023e+00
84 2 2.17623782208716454e+00
85 2 2.28017295991184188e+00
86 2 2.37781563395148554e+00
87 2 2.46882653553897358e+00
88 2 2.55292347440996892e+00
89 2 2.62988396086683496e+00
90 2 2.69954654975995201e+00
91 2 2.76181095461353676e+00
92 2 2.81663698387331474e+00
93 2 2.86404239005502159e+00
94 2 2.90409975467887227e+00
95 2 2.93693255604254633e+00
96 2 2.96271058251672814e+00
97 2 2.98164486116923966e+00
98 2 2.99398227070960310e+00
99 2 3.00000000000000000e+00
100 2 3.00000000000000044e+00
101 2 3.00000000000000044e+00
102 2 2.99398227070960354e+00
103 2 2.98164486116924010e+00
104 2 2.96271058251672814e+00
105 2 2.93693255604254588e+00
106 2 2.90409975467887316e+00
107 2 2.86404239005502292e+00
108 2 2.81663698387331607e+00
109 2 2.76181095461353765e+00
110 2 2.69954654975995201e+00
111 2 2.62988396086683496e+00
112 2 2.55292347440996936e+00
113 2 2.46882653553897491e+00
114 2 2.37781563395148599e+00
115 2 2.28017295991184277e+00
116 2 2.17623782208716499e+00
117 2 2.06640286503212023e+00
118 2 1.95110917015725605e+00
119 2 1.83084036709564946e+00
120 2 1.70611591990263078e+00
121 2 1.57748378221353880e+00
122 2 1.44551263564070442e+00
123 2 1.31078393531706072e+00
124 2 1.17388398537045280e+00
125 2 1.03539625578552252e+00
126 2 8.95894131803911420e-01
127 2 7.55934259485616322e-01
128 2 6.16050618408240935e-01
129 2 4.76749416965240702e-01
130 2 3.38504869539755615e-01
131 2 2.01755879965297730e-01
132 2 6.69036237900568487e-02
133 2 7.34788079488411776e-16
1 3 0.00000000000000000e+00
2 3 -6.68588895793322535e-02
3 3 -2.01620978602144091e-01
4 3 -3.38278532798824749e-01
5 3 -4.76430644861834396e-01
6 3 -6.15638704424822381e-01
7 3 -7.55428814181735908e-01
8 3 -8.95295104208572279e-01
9 3 -1.03470395196600995e+00
10 3 -1.17309908358797510e+00
11 3 -1.30990749721917843e+00
12 3 -1.44454611300435554e+00
13 3 -1.57642901884005515e+00
14 3 -1.70497514837551822e+00
15 3 -1.82961620023974803e+00
16 3 -1.94980458717925398e+00
17 3 -2.06502119247137994e+00
18 3 -2.17478270985551525e+00
19 3 -2.27864835284428269e+00
20 3 -2.37622573941953075e+00
21 3 -2.46717578778832669e+00
22 3 -2.55121649636906911e+00
23 3 -2.62812552422887347e+00
24 3 -2.69774153416625406e+00
25 3 -2.75996430676063476e+00
26 3 -2.81475367733128445e+00
27 3 -2.86212738652395826e+00
28 3 -2.90215796732820941e+00
29 3 -2.93496881547961053e+00
30 3 -2.96072960582212952e+00
31 3 -2.97965122432317076e+00
32 3 -2.99198038462011606e+00
33 3 -2.99799409023653451e+00
34 3 -2.99799409023653451e+00
35 3 -2.99799409023653451e+00
36 3 -2.99198038462011695e+00
37 3 -2.97965122432317120e+00
38 3 -2.96072960582213041e+00
39 3 -2.93496881547961008e+00
40 3 -2.90215796732820985e+00
41 3 -2.86212738652395959e+00
42 3 -2.81475367733128534e+00
43 3 -2.75996430676063564e+00
44 3 -2.69774153416625495e+00
45 3 -2.62812552422887347e+00
46 3 -2.55121649636906955e+00
47 3 -2.46717578778832669e+00
48 3 -2.37622573941953075e+00
49 3 -2.27864835284428313e+00
50 3 -2.17478270985551481e+00
51 3 -2.06502119247137905e+00
52 3 -1.94980458717925287e+00
53 3 -1.82961620023974758e+00
54 3 -1.70497514837551800e+00
55 3 -1.57642901884005426e+00
56 3 -1.44454611300435554e+00
57 3 -1.30990749721917821e+00
58 3 -1.17309908358797510e+00
59 3 -1.03470395196600995e+00
60 3 -8.95295104208572168e-01
61 3 -7.55428814181735908e-01
62 3 -6.15638704424822603e-01
63 3 -4.76430644861834562e-01
64 3 -3.38278532798825249e-01
65 3 -2.01620978602144368e-01
66 3 -6.68588895793326143e-02
67 3 -3.67148386647085221e-16
68 3 6.68588895793319482e-02
69 3 2.01620978602143786e-01
70 3 3.38278532798824527e-01
71 3 4.76430644861834118e-01
72 3 6.15638704424822159e-01
73 3 7.55428814181735908e-01
74 3 8.95295104208572279e-01
75 3 1.03470395196600995e+00
76 3 1.17309908358797510e+00
77 3 1.30990749721917843e+00
78 3 1.44454611300435554e+00
79 3 1.57642901884005515e+00
80 3 1.70497514837551822e+00
81 3 1.82961620023974803e+00
82 3 1.94980458717925398e+00
83 3 2.06502119247137994e+00
84 3 2.17478270985551481e+00
85 3 2.27864835284428269e+00
86 3 2.37622573941953075e+00
87 3 2.46717578778832669e+00
88 3 2.55121649636906911e+00
89 3 2.62812552422887347e+00
90 3 2.69774153416625406e+00
91 3 2.75996430676063476e+00
92 3 2.81475367733128445e+00
93 3 2.86212738652395826e+00
94 3 2.90215796732820941e+00
95 3 2.93496881547961053e+00
96 3 2.96072960582212952e+00
97 3 2.97965122432317076e+00
98 3 2.99198038462011606e+00
99 3 2.99799409023653451e+00
100 3 2.99799409023653451e+00
101 3 2.99799409023653451e+00
102 3 2.99198038462011695e+00
103 3 2.97965122432317120e+00
104 3 2.96072960582213041e+00
105 3 2.93496881547961008e+00
106 3 2.90215796732820985e+00
107 3 2.86212738652395959e+00
108 3 2.81475367733128534e+00
109 3 2.75996430676063564e+00
110 3 2.69774153416625495e+00
111 3 2.62812552422887347e+00
112 3 2.55121649636906955e+00
113 3 2.46717578778832713e+00
114 3 2.37622573941953164e+00
115 3 2.27864835284428313e+00
116 3 2.17478270985551525e+00
117 3 2.06502119247137994e+00
118 3 1.94980458717925376e+00
119 3 1.82961620023974803e+00
120 3 1.70497514837551845e+00
121 3 1.57642901884005515e+00
122 3 1.44454611300435620e+00
123 3 1.30990749721917843e+00
124 3 1.17309908358797599e+00
125 3 1.03470395196601062e+00
126 3 8.95295104208572501e-01
127 3 7.55428814181736463e-01
128 3 6.15638704424822825e-01
129 3 4.76430644861834840e-01
130 3 3.38278532798825471e-01
131 3 2.01620978602144674e-01
132 3 6.68588895793329474e-02
133 3 7.34296773294170442e-16
1 4 0.00000000000000000e+00
2 4 -6.67671765341731061e-02
3 4 -2.01344406944554327e-01
4 4 -3.37814502442500497e-01
5 4 -4.75777105661253363e-01
6 4 -6.14794207894056255e-01
7 4 -7.54392561898973080e-01
8 4 -8.94066991674252964e-01
9 4 -1.03328460667221189e+00
10 4 -1.17148989609015430e+00
11 4 -1.30811064408263000e+00
12 4 -1.44256457062861454e+00
13 4 -1.57426656734400505e+00
14 4 -1.70263636495027715e+00
15 4 -1.82710644163842706e+00
16 4 -1.94712996130256633e+00
17 4 -2.06218851931345970e+00
18 4 -2.17179947238125814e+00
19 4 -2.27552263866324989e+00
20 4 -2.37296617438758206e+00
21 4 -2.46379146289354267e+00
22 4 -2.54771688943251373e+00
23 4 -2.62452041806566827e+00
24 4 -2.69404093290429136e+00
25 4 -2.75617835200284311e+00
26 4 -2.81089256577610902e+00
27 4 -2.85820129053428262e+00
28 4 -2.89817695977048251e+00
29 4 -2.93094279995335283e+00
30 4 -2.95666825317701010e+00
31 4 -2.97556391612804116e+00
32 4 -2.98787616401674594e+00
33 4 -2.99388162038974670e+00
34 4 -2.99388162038974670e+00
35 4 -2.99388162038974670e+00
36 4 -2.98787616401674683e+00
37 4 -2.97556391612804205e+00
38 4 -2.95666825317701099e+00
39 4 -2.93094279995335238e+00
40 4 -2.89817695977048295e+00
41 4 -2.85820129053428529e+00
42 4 -2.81089256577610991e+00
43 4 -2.75617835200284356e+00
44 4 -2.69404093290429270e+00
45 4 -2.62452041806566827e+00
46 4 -2.54771688943251373e+00
47 4 -2.46379146289354267e+00
48 4 -2.37296617438758206e+00
49 4 -2.27552263866325033e+00
50 4 -2.17179947238125726e+00
51 4 -2.06218851931345926e+00
52 4 -1.94712996130256566e+00
53 4 -1.82710644163842661e+00
54 4 -1.70263636495027670e+00
55 4 -1.57426656734400439e+00
56 4 -1.44256457062861454e+00
57 4 -1.30811064408262978e+00
58 4 -1.17148989609015430e+00
59 4 -1.03328460667221189e+00
60 4 -8.94066991674252853e-01
61 4 -7.54392561898973080e-01
62 4 -6.14794207894056366e-01
63 4 -4.75777105661253530e-01
64 4 -3.37814502442500886e-01
65 4 -2.01344406944554577e-01
66 4 -6.67671765341734669e-02
67 4 -3.66644754343639337e-16
68 4 6.67671765341728007e-02
69 4 2.01344406944553966e-01
70 4 3.37814502442500220e-01
71 4 4.75777105661253086e-01
72 4 6.14794207894056033e-01
73 4 7.54392561898973080e-01
74 4 8.94066991674252964e-01
75 4 1.03328460667221189e+00
76 4 1.17148989609015430e+00
77 4 1.30811064408263000e+00
78 4 1.44256457062861454e+00
79 4 1.57426656734400505e+00
80 4 1.70263636495027715e+00
81 4 1.82710644163842706e+00
82 4 1.94712996130256633e+00
83 4 2.06218851931345970e+00
84 4 2.17179947238125770e+00
85 4 2.27552263866324989e+00
86 4 2.37296617438758206e+00
87 4 2.46379146289354267e+00
88 4 2.54771688943251373e+00
89 4 2.62452041806566827e+00
90 4 2.69404093290429136e+00
91 4 2.75617835200284311e+00
92 4 2.81089256577610902e+00
93 4 2.85820129053428262e+00
94 4 2.89817695977048251e+00
95 4 2.93094279995335283e+00
96 4 2.95666825317701010e+00
97 4 2.97556391612804116e+00
98 4 2.98787616401674594e+00
99 4 2.99388162038974670e+00
100 4 2.99388162038974670e+00
101 4 2.99388162038974670e+00
102 4 2.98787616401674683e+00
103 4 2.97556391612804205e+00
104 4 2.95666825317701099e+00
105 4 2.93094279995335238e+00
106 4 2.89817695977048295e+00
107 4 2.85820129053428529e+00
108 4 2.81089256577610991e+00
109 4 2.75617835200284356e+00
110 4 2.69404093290429270e+00
111 4 2.62452041806566827e+00
112 4 2.54771688943251373e+00
113 4 2.46379146289354356e+00
114 4 2.37296617438758295e+00
115 4 2.27552263866325033e+00
116 4 2.17179947238125770e+00
117 4 2.06218851931345970e+00
118 4 1.94712996130256588e+00
119 4 1.82710644163842728e+00
120 4 1.70263636495027737e+00
121 4 1.57426656734400505e+00
122 4 1.44256457062861521e+00
123 4 1.30811064408263000e+00
124 4 1.17148989609015519e+00
125 4 1.03328460667221234e+00
126 4 8.94066991674253075e-01
127 4 7.54392561898973524e-01
128 4 6.14794207894056588e-01
129 4 4.75777105661253807e-01
130 4 3.37814502442501052e-01
131 4 2.01344406944554855e-01
132 4 6.67671765341738138e-02
133 4 7.33289508687278675e-16
1 5 0.00000000000000000e+00
2 5 -6.66264241057615836e-02
3 5 -2.00919951161104837e-01
4 5 -3.37102352939711802e-01
5 5 -4.74774116071448593e-01
6 5 -6.13498155219279084e-01
7 5 -7.52802220797630817e-01
8 5 -8.92182201770394534e-01
9 5 -1.03110633098078841e+00
10 5 -1.16902026870296272e+00
11 5 -1.30535300538434917e+00
12 5 -1.43952348851317580e+00
13 5 -1.57094784317708869e+00
14 5 -1.69904702336795221e+00
15 5 -1.82325470367410958e+00
16 5 -1.94302520077931873e+00
17 5 -2.05784120290736361e+00
18 5 -2.16722108423264315e+00
19 5 -2.27072559086337300e+00
20 5 -2.36796370507674503e+00
21 5 -2.45859752405258591e+00
22 5 -2.54234602671662291e+00
23 5 -2.61898764520579874e+00
24 5 -2.68836160328111573e+00
25 5 -2.75036802998059660e+00
26 5 -2.80496690027437223e+00
27 5 -2.85217589312473718e+00
28 5 -2.89206728932717327e+00
29 5 -2.92476405557560337e+00
30 5 -2.95043527676188599e+00
31 5 -2.96929110561201792e+00
32 5 -2.98157739795071253e+00
33 5 -2.98757019417224257e+00
34 5 -2.98757019417224301e+00
35 5 -2.98757019417224257e+00
36 5 -2.98157739795071386e+00
37 5 -2.96929110561201881e+00
38 5 -2.95043527676188688e+00
39 5 -2.92476405557560337e+00
40 5 -2.89206728932717416e+00
41 5 -2.85217589312473985e+00
42 5 -2.80496690027437356e+00
43 5 -2.75036802998059793e+00
44 5 -2.68836160328111706e+00
45 5 -2.61898764520579874e+00
46 5 -2.54234602671662246e+00
47 5 -2.45859752405258591e+00
48 5 -2.36796370507674458e+00
49 5 -2.27072559086337344e+00
50 5 -2.16722108423264226e+00
51 5 -2.05784120290736317e+00
52 5 -1.94302520077931806e+00
53 5 -1.82325470367410913e+00
54 5 -1.69904702336795199e+00
55 5 -1.57094784317708780e+00
56 5 -1.43952348851317580e+00
57 5 -1.30535300538434873e+00
58 5 -1.16902026870296272e+00
59 5 -1.03110633098078841e+00
60 5 -8.92182201770394423e-01
61 5 -7.52802220797630817e-01
62 5 -6.13498155219279084e-01
63 5 -4.74774116071448760e-01
64 5 -3.37102352939712191e-01
65 5 -2.00919951161105059e-01
66 5 -6.66264241057619444e-02
67 5 -3.65871827552107254e-16
68 5 6.66264241057612783e-02
69 5 2.00919951161104449e-01
70 5 3.37102352939711580e-01
71 5 4.74774116071448371e-01
72 5 6.13498155219278973e-01
73 5 7.52802220797630817e-01
74 5 8.92182201770394534e-01
75 5 1.03110633098078841e+00
76 5 1.16902026870296272e+00
77 5 1.30535300538434917e+00
78 5 1.43952348851317580e+00
79 5 1.57094784317708869e+00
80 5 1.69904702336795221e+00
81 5 1.82325470367410958e+00
82 5 1.94302520077931873e+00
83 5 2.05784120290736361e+00
84 5 2.16722108423264270e+00
85 5 2.27072559086337300e+00
86 5 2.36796370507674503e+00
87 5 2.45859752405258591e+00
88 5 2.54234602671662291e+00
89 5 2.61898764520579874e+00
90 5 2.68836160328111573e+00
91 5 2.75036802998059660e+00
92 5 2.80496690027437223e+00
93 5 2.85217589312473718e+00
94 5 2.89206728932717327e+00
95 5 2.92476405557560337e+00
96 5 2.95043527676188599e+00
97 5 2.96929110561201792e+00
98 5 2.98157739795071253e+00
99 5 2.98757019417224257e+00
100 5 2.98757019417224301e+00
101 5 2.98757019417224257e+00
102 5 2.98157739795071386e+00
103 5 2.96929110561201881e+00
104 5 2.95043527676188688e+00
105 5 2.92476405557560337e+00
106 5 2.89206728932717416e+00
107 5 2.85217589312473985e+00
108 5 2.80496690027437356e+00
109 5 2.75036802998059793e+00
110 5 2.68836160328111706e+00
111 5 2.61898764520579874e+00
112 5 2.54234602671662246e+00
113 5 2.45859752405258636e+00
114 5 2.36796370507674547e+00
115 5 2.27072559086337344e+00
116 5 2.16722108423264270e+00
117 5 2.05784120290736361e+00
118 5 1.94302520077931806e+00
119 5 1.82325470367411002e+00
120 5 1.69904702336795221e+00
121 5 1.57094784317708847e+00
122 5 1.43952348851317624e+00
123 5 1.30535300538434917e+00
124 5 1.16902026870296338e+00
125 5 1.03110633098078908e+00
126 5 8.92182201770394867e-01
127 5 7.52802220797631261e-01
128 5 6.13498155219279639e-01
129 5 4.74774116071449148e-01
130 5 3.37102352939712357e-01
131 5 2.00919951161105337e-01
132 5 6.66264241057622636e-02
133 5 7.31743655104214508e-16
1 6 0.00000000000000000e+00
2 6 -6.64347970629528412e-02
3 6 -2.00342076892764037e-01
4 6 -3.36132798774307906e-01
5 6 -4.73408598394550739e-01
6 6 -6.11733647535860792e-01
7 6 -7.50637054869434994e-01
8 6 -8.89616159253982852e-01
9 6 -1.02814072297046533e+00
10 6 -1.16565800065268510e+00
11 6 -1.30159862505251178e+00
12 6 -1.43538321484758580e+00
13 6 -1.56642957443258912e+00
14 6 -1.69416032321781085e+00
15 6 -1.81801076462377686e+00
16 6 -1.93743678479683723e+00
17 6 -2.05192255982279459e+00
18 6 -2.16098784910021235e+00
19 6 -2.26419466209378140e+00
20 6 -2.36115310570310921e+00
21 6 -2.45152624896444360e+00
22 6 -2.53503387905996735e+00
23 6 -2.61145506538721506e+00
24 6 -2.68062949412244977e+00
25 6 -2.74245758154673958e+00
26 6 -2.79689941774787831e+00
27 6 -2.84397263084095764e+00
28 6 -2.88374929373164290e+00
29 6 -2.91635201944420830e+00
30 6 -2.94194940655839110e+00
31 6 -2.96075100337114794e+00
32 6 -2.97300195859098171e+00
33 6 -2.97897751868084848e+00
34 6 -2.97897751868084892e+00
35 6 -2.97897751868084848e+00
36 6 -2.97300195859098215e+00
37 6 -2.96075100337114883e+00
38 6 -2.94194940655839199e+00
39 6 -2.91635201944420874e+00
40 6 -2.88374929373164335e+00
41 6 -2.84397263084096030e+00
42 6 -2.79689941774787965e+00
43 6 -2.74245758154674091e+00
44 6 -2.68062949412245066e+00
45 6 -2.61145506538721506e+00
46 6 -2.53503387905996691e+00
47 6 -2.45152624896444360e+00
48 6 -2.36115310570310877e+00
49 6 -2.26419466209378228e+00
50 6 -2.16098784910021147e+00
51 6 -2.05192255982279370e+00
52 6 -1.93743678479683656e+00
53 6 -1.81801076462377686e+00
54 6 -1.69416032321781063e+00
55 6 -1.56642957443258890e+00
56 6 -1.43538321484758580e+00
57 6 -1.30159862505251156e+00
58 6 -1.16565800065268510e+00
59 6 -1.02814072297046533e+00
60 6 -8.89616159253982741e-01
61 6 -7.50637054869435105e-01
62 6 -6.11733647535860903e-01
63 6 -4.73408598394550906e-01
64 6 -3.36132798774308239e-01
65 6 -2.00342076892764259e-01
66 6 -6.64347970629531881e-02
67 6 -3.64819528298442524e-16
68 6 6.64347970629525358e-02
69 6 2.00342076892763621e-01
70 6 3.36132798774307684e-01
71 6 4.73408598394550628e-01
72 6 6.11733647535860681e-01
73 6 7.50637054869434994e-01
74 6 8.89616159253982852e-01
75 6 1.02814072297046533e+00
76 6 1.16565800065268510e+00
77 6 1.30159862505251178e+00
78 6 1.43538321484758580e+00
79 6 1.56642957443258912e+00
80 6 1.69416032321781085e+00
81 6 1.81801076462377686e+00
82 6 1.93743678479683723e+00
83 6 2.05192255982279459e+00
84 6 2.16098784910021191e+00
85 6 2.26419466209378140e+00
86 6 2.36115310570310921e+00
87 6 2.45152624896444360e+00
88 6 2.53503387905996735e+00
89 6 2.61145506538721506e+00
90 6 2.68062949412244977e+00
91 6 2.74245758154673958e+00
92 6 2.79689941774787831e+00
93 6 2.84397263084095764e+00
94 6 2.88374929373164290e+00
95 6 2.91635201944420830e+00
96 6 2.94194940655839110e+00
97 6 2.96075100337114794e+00
98 6 2.97300195859098171e+00
99 6 2.97897751868084848e+00
100 6 2.97897751868084892e+00
101 6 2.97897751868084848e+00
102 6 2.97300195859098215e+00
103 6 2.96075100337114883e+00
104 6 2.94194940655839199e+00
105 6 2.91635201944420874e+00
106 6 2.88374929373164335e+00
107 6 2.84397263084096030e+00
108 6 2.79689941774787965e+00
109 6 2.74245758154674091e+00
110 6 2.68062949412245066e+00
111 6 2.61145506538721506e+00
112 6 2.53503387905996691e+00
113 6 2.45152624896444404e+00
114 6 2.36115310570310966e+00
115 6 2.26419466209378228e+00
116 6 2.16098784910021191e+00
117 6 2.05192255982279459e+00
118 6 1.93743678479683656e+00
119 6 1.81801076462377753e+00
120 6 1.69416032321781085e+00
121 6 1.56642957443258934e+00
122 6 1.43538321484758624e+00
123 6 1.30159862505251200e+00
124 6 1.16565800065268599e+00
125 6 1.02814072297046577e+00
126 6 8.89616159253983074e-01
127 6 7.50637054869435660e-01
128 6 6.11733647535861347e-01
129 6 4.73408598394551239e-01
130 6 3.36132798774308461e-01
131 6 2.00342076892764565e-01
132 6 6.64347970629535212e-02
133 6 7.29639056596885048e-16
1 7 0.00000000000000000e+00
2 7 -6.61907266862407362e-02
3 7 -1.99606053478224743e-01
4 7 -3.34897902869615183e-01
5 7 -4.71669374071498837e-01
6 7 -6.09486240026509085e-01
7 7 -7.47879339382136465e-01
8 7 -8.86347857690383045e-01
9 7 -1.02436350523725461e+00
10 7 -1.16137556735094472e+00
11 7 -1.29681676854373840e+00
12 7 -1.43010985604373331e+00
13 7 -1.56067477313527436e+00
14 7 -1.68793626042874823e+00
15 7 -1.81133169594583832e+00
16 7 -1.93031896481654686e+00
17 7 -2.04438413817780251e+00
18 7 -2.15304873975213429e+00
19 7 -2.25587638810849223e+00
20 7 -2.35247862254877971e+00
21 7 -2.44251974993747512e+00
22 7 -2.52572058691197210e+00
23 7 -2.60186101453203156e+00
24 7 -2.67078130794019897e+00
25 7 -2.73238224927153439e+00
26 7 -2.78662407523620148e+00
27 7 -2.83352434918653318e+00
28 7 -2.87315487924434665e+00
29 7 -2.90563782797409154e+00
30 7 -2.93114117455241097e+00
31 7 -2.94987369743072714e+00
32 7 -2.96207964468202967e+00
33 7 -2.96803325155962394e+00
34 7 -2.96803325155962483e+00
35 7 -2.96803325155962394e+00
36 7 -2.96207964468203011e+00
37 7 -2.94987369743072847e+00
38 7 -2.93114117455241185e+00
39 7 -2.90563782797409198e+00
40 7 -2.87315487924434709e+00
41 7 -2.83352434918653584e+00
42 7 -2.78662407523620281e+00
43 7 -2.73238224927153572e+00
44 7 -2.67078130794019986e+00
45 7 -2.60186101453203156e+00
46 7 -2.52572058691197121e+00
47 7 -2.44251974993747512e+00
48 7 -2.35247862254877926e+00
49 7 -2.25587638810849267e+00
50 7 -2.15304873975213296e+00
51 7 -2.04438413817780162e+00
52 7 -1.93031896481654641e+00
53 7 -1.81133169594583832e+00
54 7 -1.68793626042874778e+00
55 7 -1.56067477313527436e+00
56 7 -1.43010985604373331e+00
57 7 -1.29681676854373840e+00
58 7 -1.16137556735094472e+00
59 7 -1.02436350523725461e+00
60 7 -8.86347857690382934e-01
61 7 -7.47879339382136576e-01
62 7 -6.09486240026509196e-01
63 7 -4.71669374071499004e-01
64 7 -3.34897902869615405e-01
65 7 -1.99606053478224993e-01
66 7 -6.61907266862410970e-02
67 7 -3.63479242128540418e-16
68 7 6.61907266862404448e-02
69 7 1.99606053478224327e-01
70 7 3.34897902869614961e-01
71 7 4.71669374071498726e-01
72 7 6.09486240026508974e-01
73 7 7.47879339382136465e-01
74 7 8.86347857690383045e-01
75 7 1.02436350523725461e+00
76 7 1.16137556735094472e+00
77 7 1.29681676854373840e+00
78 7 1.43010985604373331e+00
79 7 1.56067477313527436e+00
80 7 1.68793626042874823e+00
81 7 1.81133169594583832e+00
82 7 1.93031896481654686e+00
83 7 2.04438413817780251e+00
84 7 2.15304873975213340e+00
85 7 2.25587638810849223e+00
86 7 2.35247862254877971e+00
87 7 2.44251974993747512e+00
88 7 2.52572058691197210e+00
89 7 2.60186101453203156e+00
90 7 2.67078130794019897e+00
91 7 2.73238224927153439e+00
92 7 2.78662407523620148e+00
93 7 2.83352434918653318e+00
94 7 2.87315487924434665e+00
95 7 2.90563782797409154e+00
96 7 2.93114117455241097e+00
97 7 2.94987369743072714e+00
98 7 2.96207964468202967e+00
99 7 2.96803325155962394e+00
100 7 2.96803325155962483e+00
101 7 2.96803325155962394e+00
102 7 2.96207964468203011e+00
103 7 2.94987369743072847e+00
104 7 2.93114117455241185e+00
105 7 2.90563782797409198e+00
106 7 2.87315487924434709e+00
107 7 2.83352434918653584e+00
108 7 2.78662407523620281e+00
109 7 2.73238224927153572e+00
110 7 2.67078130794019986e+00
111 7 2.60186101453203156e+00
112 7 2.52572058691197121e+00
113 7 2.44251974993747512e+00
114 7 2.35247862254878015e+00
115 7 2.25587638810849267e+00
116 7 2.15304873975213340e+00
117 7 2.04438413817780251e+00
118 7 1.93031896481654641e+00
119 7 1.81133169594583898e+00
120 7 1.68793626042874823e+00
121 7 1.56067477313527436e+00
122 7 1.43010985604373375e+00
123 7 1.29681676854373884e+00
124 7 1.16137556735094538e+00
125 7 1.02436350523725483e+00
126 7 8.86347857690383378e-01
127 7 7.47879339382137021e-01
128 7 6.09486240026509529e-01
129 7 4.71669374071499337e-01
130 7 3.34897902869615682e-01
131 7 1.99606053478225270e-01
132 7 6.61907266862414301e-02
133 7 7.26958484257080835e-16
1 8 0.00000000000000000e+00
2 8 -6.58929508137057057e-02
3 8 -1.98708074717249689e-01
4 8 -3.33391279204492685e-01
5 8 -4.69547449045989385e-01
6 8 -6.06744310665583764e-01
7 8 -7.44514813352816995e-01
8 8 -8.82360395701267786e-01
9 8 -1.01975514464301353e+00
10 8 -1.15615082303671324e+00
11 8 -1.29098270742817389e+00
12 8 -1.42367614196437309e+00
13 8 -1.55365367946279220e+00
14 8 -1.68034264848495996e+00
15 8 -1.80318295815108098e+00
16 8 -1.92163493243322159e+00
17 8 -2.03518695450842912e+00
18 8 -2.14336270064685008e+00
19 8 -2.24572775259064406e+00
20 8 -2.34189539723128126e+00
21 8 -2.43153145163446149e+00
22 8 -2.51435798841516833e+00
23 8 -2.59015587889438059e+00
24 8 -2.65876611677766661e+00
25 8 -2.72008993055696813e+00
26 8 -2.77408773582775314e+00
27 8 -2.82077701692913374e+00
28 8 -2.86022925893576874e+00
29 8 -2.89256607483264050e+00
30 8 -2.91795468809920999e+00
31 8 -2.93660293794376237e+00
32 8 -2.94875397362701142e+00
33 8 -2.95468079668500749e+00
34 8 -2.95468079668500794e+00
35 8 -2.95468079668500749e+00
36 8 -2.94875397362701275e+00
37 8 -2.93660293794376326e+00
38 8 -2.91795468809920999e+00
39 8 -2.89256607483264139e+00
40 8 -2.86022925893576874e+00
41 8 -2.82077701692913596e+00
42 8 -2.77408773582775448e+00
43 8 -2.72008993055696946e+00
44 8 -2.65876611677766705e+00
45 8 -2.59015587889438059e+00
46 8 -2.51435798841516833e+00
47 8 -2.43153145163446149e+00
48 8 -2.34189539723128082e+00
49 8 -2.24572775259064450e+00
50 8 -2.14336270064684875e+00
51 8 -2.03518695450842824e+00
52 8 -1.92163493243322092e+00
53 8 -1.80318295815108098e+00
54 8 -1.68034264848495929e+00
55 8 -1.55365367946279220e+00
56 8 -1.42367614196437309e+00
57 8 -1.29098270742817367e+00
58 8 -1.15615082303671324e+00
59 8 -1.01975514464301331e+00
60 8 -8.82360395701267675e-01
61 8 -7.44514813352816995e-01
62 8 -6.06744310665583875e-01
63 8 -4.69547449045989607e-01
64 8 -3.33391279204492796e-01
65 8 -1.98708074717249883e-01
66 8 -6.58929508137060665e-02
67 8 -3.61844038016244521e-16
68 8 6.58929508137054143e-02
69 8 1.98708074717249245e-01
70 8 3.33391279204492408e-01
71 8 4.69547449045989329e-01
72 8 6.06744310665583653e-01
73 8 7.44514813352816995e-01
74 8 8.82360395701267786e-01
75 8 1.01975514464301353e+00
76 8 1.15615082303671324e+00
77 8 1.29098270742817389e+00
78 8 1.42367614196437309e+00
79 8 1.55365367946279220e+00
80 8 1.68034264848495996e+00
81 8 1.80318295815108098e+00
82 8 1.92163493243322159e+00
83 8 2.03518695450842912e+00
84 8 2.14336270064684919e+00
85 8 2.24572775259064406e+00
86 8 2.34189539723128126e+00
87 8 2.43153145163446149e+00
88 8 2.51435798841516833e+00
89 8 2.59015587889438015e+00
90 8 2.65876611677766661e+00
91 8 2.72008993055696813e+00
92 8 2.77408773582775314e+00
93 8 2.82077701692913374e+00
94 8 2.86022925893576874e+00
95 8 2.89256607483264050e+00
96 8 2.91795468809920999e+00
97 8 2.93660293794376237e+00
98 8 2.94875397362701142e+00
99 8 2.95468079668500749e+00
100 8 2.95468079668500794e+00
101 8 2.95468079668500749e+00
102 8 2.94875397362701275e+00
103 8 2.93660293794376326e+00
104 8 2.91795468809920999e+00
105 8 2.89256607483264139e+00
106 8 2.86022925893576874e+00
107 8 2.82077701692913596e+00
108 8 2.77408773582775448e+00
109 8 2.72008993055696946e+00
110 8 2.65876611677766705e+00
111 8 2.59015587889438059e+00
112 8 2.51435798841516833e+00
113 8 2.43153145163446149e+00
114 8 2.34189539723128126e+00
115 8 2.24572775259064450e+00
116 8 2.14336270064684919e+00
117 8 2.03518695450842912e+00
118 8 1.92163493243322092e+00
119 8 1.80318295815108143e+00
120 8 1.68034264848495996e+00
121 8 1.55365367946279220e+00
122 8 1.42367614196437309e+00
123 8 1.29098270742817456e+00
124 8 1.15615082303671390e+00
125 8 1.01975514464301376e+00
126 8 8.82360395701268119e-01
127 8 7.44514813352817439e-01
128 8 6.06744310665584097e-01
129 8 4.69547449045989829e-01
130 8 3.33391279204493185e-01
131 8 1.98708074717250160e-01
132 8 6.58929508137064135e-02
133 8 7.23688076032489042e-16
1 9 0.00000000000000000e+00
2 9 -6.55405515402839728e-02
3 9 -1.97645372557327170e-01
4 9 -3.31608283556157402e-01
5 9 -4.67036282406197323e-01
6 9 -6.03499407355124529e-01
7 9 -7.40533105506418821e-01
8 9 -8.77641481788604128e-01
9 9 -1.01430143574695464e+00
10 9 -1.14996766224374825e+00
11 9 -1.28407845799815612e+00
12 9 -1.41606224044955775e+00
13 9 -1.54534465063602688e+00
14 9 -1.67135607979873146e+00
15 9 -1.79353943245596614e+00
16 9 -1.91135791879809336e+00
17 9 -2.02430265815821953e+00
18 9 -2.13189987421306881e+00
19 9 -2.23371747199851445e+00
20 9 -2.32937080656987217e+00
21 9 -2.41852748222230574e+00
22 9 -2.50091105794236634e+00
23 9 -2.57630357696375301e+00
24 9 -2.64454688336680066e+00
25 9 -2.70554273387912980e+00
26 9 -2.75925175579587201e+00
27 9 -2.80569133994889164e+00
28 9 -2.84493258910657465e+00
29 9 -2.87709646586069878e+00
30 9 -2.90234929936998265e+00
31 9 -2.92089781730672682e+00
32 9 -2.93298386855547610e+00
33 9 -2.93887899462443869e+00
34 9 -2.93887899462443869e+00
35 9 -2.93887899462443869e+00
36 9 -2.93298386855547832e+00
37 9 -2.92089781730672682e+00
38 9 -2.90234929936998265e+00
39 9 -2.87709646586069967e+00
40 9 -2.84493258910657465e+00
41 9 -2.80569133994889297e+00
42 9 -2.75925175579587290e+00
43 9 -2.70554273387913158e+00
44 9 -2.64454688336680066e+00
45 9 -2.57630357696375301e+00
46 9 -2.50091105794236634e+00
47 9 -2.41852748222230574e+00
48 9 -2.32937080656987172e+00
49 9 -2.23371747199851489e+00
50 9 -2.13189987421306704e+00
51 9 -2.02430265815821819e+00
52 9 -1.91135791879809247e+00
53 9 -1.79353943245596614e+00
54 9 -1.67135607979873058e+00
55 9 -1.54534465063602688e+00
56 9 -1.41606224044955775e+00
57 9 -1.28407845799815590e+00
58 9 -1.14996766224374825e+00
59 9 -1.01430143574695442e+00
60 9 -8.77641481788604128e-01
61 9 -7.40533105506418821e-01
62 9 -6.03499407355124529e-01
63 9 -4.67036282406197545e-01
64 9 -3.31608283556157513e-01
65 9 -1.97645372557327392e-01
66 9 -6.55405515402843197e-02
67 9 -3.59908875384820865e-16
68 9 6.55405515402836814e-02
69 9 1.97645372557326782e-01
70 9 3.31608283556157124e-01
71 9 4.67036282406197267e-01
72 9 6.03499407355124418e-01
73 9 7.40533105506418821e-01
74 9 8.77641481788604128e-01
75 9 1.01430143574695464e+00
76 9 1.14996766224374825e+00
77 9 1.28407845799815612e+00
78 9 1.41606224044955775e+00
79 9 1.54534465063602688e+00
80 9 1.67135607979873146e+00
81 9 1.79353943245596614e+00
82 9 1.91135791879809336e+00
83 9 2.02430265815821953e+00
84 9 2.13189987421306748e+00
85 9 2.23371747199851445e+00
86 9 2.32937080656987217e+00
87 9 2.41852748222230574e+00
88 9 2.50091105794236634e+00
89 9 2.57630357696375212e+00
90 9 2.64454688336680066e+00
91 9 2.70554273387912980e+00
92 9 2.75925175579587201e+00
93 9 2.80569133994889164e+00
94 9 2.84493258910657465e+00
95 9 2.87709646586069878e+00
96 9 2.90234929936998265e+00
97 9 2.92089781730672682e+00
98 9 2.93298386855547610e+00
99 9 2.93887899462443869e+00
100 9 2.93887899462443869e+00
101 9 2.93887899462443869e+00
102 9 2.93298386855547832e+00
103 9 2.92089781730672682e+00
104 9 2.90234929936998265e+00
105 9 2.87709646586069967e+00
106 9 2.84493258910657465e+00
107 9 2.80569133994889297e+00
108 9 2.75925175579587290e+00
109 9 2.70554273387913158e+00
110 9 2.64454688336680066e+00
111 9 2.57630357696375301e+00
112 9 2.50091105794236634e+00
113 9 2.41852748222230574e+00
114 9 2.32937080656987217e+00
115 9 2.23371747199851489e+00
116 9 2.13189987421306748e+00
117 9 2.02430265815821953e+00
118 9 1.91135791879809247e+00
119 9 1.79353943245596659e+00
120 9 1.67135607979873146e+00
121 9 1.54534465063602688e+00
122 9 1.41606224044955775e+00
123 9 1.28407845799815656e+00
124 9 1.14996766224374891e+00
125 9 1.01430143574695486e+00
126 9 8.77641481788604683e-01
127 9 7.40533105506419376e-01
128 9 6.03499407355124751e-01
129 9 4.67036282406197767e-01
130 9 3.31608283556157901e-01
131 9 1.97645372557327670e-01
132 9 6.55405515402846667e-02
133 9 7.19817750769641730e-16
1 10 0.00000000000000000e+00
2 10 -6.51329893141174565e-02
3 10 -1.96416319915292764e-01
4 10 -3.29546186013716935e-01
5 10 -4.64132029352406328e-01
6 10 -5.99746561885085128e-01
7 10 -7.35928119525415814e-01
8 10 -8.72183890912610282e-01
9 10 -1.00799402847860331e+00
10 10 -1.14281661805158108e+00
11 10 -1.27609344928805180e+00
12 10 -1.40725649399877795e+00
13 10 -1.53573496485819772e+00
14 10 -1.66096279520482515e+00
15 10 -1.78238635384081423e+00
16 10 -1.89947218897008607e+00
17 10 -2.01171458438702633e+00
18 10 -2.11864270993418158e+00
19 10 -2.21982715761879446e+00
20 10 -2.31488567440082971e+00
21 10 -2.40348793156955232e+00
22 10 -2.48535920715281389e+00
23 10 -2.56028289974282997e+00
24 10 -2.62810183690843679e+00
25 10 -2.68871838630050553e+00
26 10 -2.74209342005231527e+00
27 10 -2.78824422085129164e+00
28 10 -2.82724144931509258e+00
29 10 -2.85920531583274551e+00
30 10 -2.88430111524939159e+00
31 10 -2.90273428970664549e+00
32 10 -2.91474518415801143e+00
33 10 -2.92060365153784574e+00
34 10 -2.92060365153784662e+00
35 10 -2.92060365153784574e+00
36 10 -2.91474518415801365e+00
37 10 -2.90273428970664549e+00
38 10 -2.88430111524939159e+00
39 10 -2.85920531583274595e+00
40 10 -2.82724144931509258e+00
41 10 -2.78824422085129298e+00
42 10 -2.74209342005231571e+00
43 10 -2.68871838630050730e+00
44 10 -2.62810183690843724e+00
45 10 -2.56028289974282997e+00
46 10 -2.48535920715281344e+00
47 10 -2.40348793156955232e+00
48 10 -2.31488567440082971e+00
49 10 -2.21982715761879446e+00
50 10 -2.11864270993417980e+00
51 10 -2.01171458438702500e+00
52 10 -1.89947218897008585e+00
53 10 -1.78238635384081423e+00
54 10 -1.66096279520482426e+00
55 10 -1.53573496485819749e+00
56 10 -1.40725649399877795e+00
57 10 -1.27609344928805135e+00
58 10 -1.14281661805158108e+00
59 10 -1.00799402847860309e+00
60 10 -8.72183890912610282e-01
61 10 -7.35928119525415814e-01
62 10 -5.99746561885085128e-01
63 10 -4.64132029352406605e-01
64 10 -3.29546186013717046e-01
65 10 -1.96416319915292986e-01
66 10 -6.51329893141177896e-02
67 10 -3.57670791343389306e-16
68 10 6.51329893141171512e-02
69 10 1.96416319915292376e-01
70 10 3.29546186013716658e-01
71 10 4.64132029352406272e-01
72 10 5.99746561885084906e-01
73 10 7.35928119525415814e-01
74 10 8.72183890912610282e-01
75 10 1.00799402847860331e+00
76 10 1.14281661805158108e+00
77 10 1.27609344928805180e+00
78 10 1.40725649399877795e+00
79 10 1.53573496485819772e+00
80 10 1.66096279520482515e+00
81 10 1.78238635384081423e+00
82 10 1.89947218897008607e+00
83 10 2.01171458438702633e+00
84 10 2.11864270993417980e+00
85 10 2.21982715761879446e+00
86 10 2.31488567440082971e+00
87 10 2.40348793156955232e+00
88 10 2.48535920715281389e+00
89 10 2.56028289974282952e+00
90 10 2.62810183690843679e+00
91 10 2.68871838630050553e+00
92 10 2.74209342005231527e+00
93 10 2.78824422085129164e+00
94 10 2.82724144931509258e+00
95 10 2.85920531583274551e+00
96 10 2.88430111524939159e+00
97 10 2.90273428970664549e+00
98 10 2.91474518415801143e+00
99 10 2.92060365153784574e+00
100 10 2.92060365153784662e+00
101 10 2.92060365153784574e+00
102 10 2.91474518415801365e+00
103 10 2.90273428970664549e+00
104 10 2.88430111524939159e+00
105 10 2.85920531583274595e+00
106 10 2.82724144931509258e+00
107 10 2.78824422085129298e+00
108 10 2.74209342005231571e+00
109 10 2.68871838630050730e+00
110 10 2.62810183690843724e+00
111 10 2.56028289974282997e+00
112 10 2.48535920715281344e+00
113 10 2.40348793156955276e+00
114 10 2.31488567440082971e+00
115 10 2.21982715761879490e+00
116 10 2.11864270993417980e+00
117 10 2.01171458438702633e+00
118 10 1.89947218897008585e+00
119 10 1.78238635384081423e+00
120 10 1.66096279520482515e+00
121 10 1.53573496485819772e+00
122 10 1.40725649399877795e+00
123 10 1.27609344928805180e+00
124 10 1.14281661805158152e+00
125 10 1.00799402847860353e+00
126 10 8.72183890912610726e-01
127 10 7.35928119525416369e-01
128 10 5.99746561885085350e-01
129 10 4.64132029352406772e-01
130 10 3.29546186013717435e-01
131 10 1.96416319915293236e-01
132 10 6.51329893141181365e-02
133 10 7.15341582686778611e-16
1 11 0.00000000000000000e+00
2 11 -6.46701321676912272e-02
3 11 -1.95020518827320438e-01
4 11 -3.27204318875724265e-01
5 11 -4.60833749495558054e-01
6 11 -5.95484559094543675e-01
7 11 -7.30698364328159378e-01
8 11 -8.65985855920544667e-01
9 11 -1.00083088051703473e+00
10 11 -1.13469537497199813e+00
11 11 -1.26702509577425637e+00
12 11 -1.39725605133583297e+00
13 11 -1.52482151053978554e+00
14 11 -1.64915942938660676e+00
15 11 -1.76972011096979975e+00
16 11 -1.88597389438295115e+00
17 11 -1.99741865721158529e+00
18 11 -2.10358691517727925e+00
19 11 -2.20405231180633354e+00
20 11 -2.29843531047865834e+00
21 11 -2.38640792991154393e+00
22 11 -2.46769740040049346e+00
23 11 -2.54208865978090071e+00
24 11 -2.60942565254228587e+00
25 11 -2.66961144014415819e+00
26 11 -2.72260717277570707e+00
27 11 -2.76843001030771152e+00
28 11 -2.80715011121947899e+00
29 11 -2.83888683164417754e+00
30 11 -2.86380429178563345e+00
31 11 -2.88210647384381691e+00
32 11 -2.89403201479935346e+00
33 11 -2.89984884991998415e+00
34 11 -2.89984884991998504e+00
35 11 -2.89984884991998415e+00
36 11 -2.89403201479935568e+00
37 11 -2.88210647384381691e+00
38 11 -2.86380429178563345e+00
39 11 -2.83888683164417843e+00
40 11 -2.80715011121947899e+00
41 11 -2.76843001030771374e+00
42 11 -2.72260717277570752e+00
43 11 -2.66961144014416041e+00
44 11 -2.60942565254228631e+00
45 11 -2.54208865978090071e+00
46 11 -2.46769740040049301e+00
47 11 -2.38640792991154393e+00
48 11 -2.29843531047865834e+00
49 11 -2.20405231180633310e+00
50 11 -2.10358691517727747e+00
51 11 -1.99741865721158374e+00
52 11 -1.88597389438295093e+00
53 11 -1.76972011096979975e+00
54 11 -1.64915942938660587e+00
55 11 -1.52482151053978554e+00
56 11 -1.39725605133583297e+00
57 11 -1.26702509577425593e+00
58 11 -1.13469537497199813e+00
59 11 -1.00083088051703450e+00
60 11 -8.65985855920544667e-01
61 11 -7.30698364328159378e-01
62 11 -5.95484559094543786e-01
63 11 -4.60833749495558276e-01
64 11 -3.27204318875724376e-01
65 11 -1.95020518827320688e-01
66 11 -6.46701321676915603e-02
67 11 -3.55129061206564072e-16
68 11 6.46701321676909219e-02
69 11 1.95020518827320077e-01
70 11 3.27204318875724043e-01
71 11 4.60833749495557998e-01
72 11 5.95484559094543453e-01
73 11 7.30698364328159378e-01
74 11 8.65985855920544667e-01
75 11 1.00083088051703473e+00
76 11 1.13469537497199813e+00
77 11 1.26702509577425637e+00
78 11 1.39725605133583297e+00
79 11 1.52482151053978554e+00
80 11 1.64915942938660676e+00
81 11 1.76972011096979975e+00
82 11 1.88597389438295115e+00
83 11 1.99741865721158529e+00
84 11 2.10358691517727747e+00
85 11 2.20405231180633354e+00
86 11 2.29843531047865834e+00
87 11 2.38640792991154393e+00
88 11 2.46769740040049346e+00
89 11 2.54208865978090026e+00
90 11 2.60942565254228587e+00
91 11 2.66961144014415819e+00
92 11 2.72260717277570707e+00
93 11 2.76843001030771152e+00
94 11 2.80715011121947899e+00
95 11 2.83888683164417754e+00
96 11 2.86380429178563345e+00
97 11 2.88210647384381691e+00
98 11 2.89403201479935346e+00
99 11 2.89984884991998415e+00
100 11 2.89984884991998504e+00
101 11 2.89984884991998415e+00
102 11 2.89403201479935568e+00
103 11 2.88210647384381691e+00
104 11 2.86380429178563345e+00
105 11 2.83888683164417843e+00
106 11 2.80715011121947899e+00
107 11 2.76843001030771374e+00
108 11 2.72260717277570752e+00
109 11 2.66961144014416041e+00
110 11 2.60942565254228631e+00
111 11 2.54208865978090071e+00
112 11 2.46769740040049301e+00
113 11 2.38640792991154438e+00
114 11 2.29843531047865834e+00
115 11 2.20405231180633399e+00
116 11 2.10358691517727747e+00
117 11 1.99741865721158529e+00
118 11 1.88597389438295093e+00
119 11 1.76972011096979975e+00
120 11 1.64915942938660676e+00
121 11 1.52482151053978554e+00
122 11 1.39725605133583297e+00
123 11 1.26702509577425659e+00
124 11 1.13469537497199857e+00
125 11 1.00083088051703495e+00
126 11 8.65985855920545000e-01
127 11 7.30698364328160044e-01
128 11 5.95484559094543897e-01
129 11 4.60833749495558498e-01
130 11 3.27204318875724820e-01
131 11 1.95020518827320882e-01
132 11 6.46701321676919072e-02
133 11 7.10258122413128143e-16
1 12 0.00000000000000000e+00
2 12 -6.41522788744082889e-02
3 12 -1.93458870280343587e-01
4 12 -3.24584193812939181e-01
5 12 -4.57143571868993293e-01
6 12 -5.90716150098152148e-01
7 12 -7.24847215711629467e-01
8 12 -8.59051377632143343e-01
9 12 -9.92816615660561452e-01
10 12 -1.12560917525187842e+00
11 12 -1.25687925106162357e+00
12 12 -1.38606736772733918e+00
13 12 -1.51261133229468525e+00
14 12 -1.63595360139414225e+00
15 12 -1.75554887987847663e+00
16 12 -1.87087174816003388e+00
17 12 -1.98142410462555274e+00
18 12 -2.08674220842908920e+00
19 12 -2.18640311719394020e+00
20 12 -2.28003033348181505e+00
21 12 -2.36729850235669126e+00
22 12 -2.44793703834789245e+00
23 12 -2.52173260142507116e+00
24 12 -2.58853038570964600e+00
25 12 -2.64823422890729709e+00
26 12 -2.70080559230140516e+00
27 12 -2.74626149835317124e+00
28 12 -2.78467154374005643e+00
29 12 -2.81615412883768812e+00
30 12 -2.84087205963906131e+00
31 12 -2.85902768493393822e+00
32 12 -2.87085773079071727e+00
33 12 -2.87662798695561150e+00
34 12 -2.87662798695561195e+00
35 12 -2.87662798695561150e+00
36 12 -2.87085773079071904e+00
37 12 -2.85902768493393822e+00
38 12 -2.84087205963906131e+00
39 12 -2.81615412883768901e+00
40 12 -2.78467154374005643e+00
41 12 -2.74626149835317346e+00
42 12 -2.70080559230140604e+00
43 12 -2.64823422890729931e+00
44 12 -2.58853038570964644e+00
45 12 -2.52173260142507072e+00
46 12 -2.44793703834789200e+00
47 12 -2.36729850235669126e+00
48 12 -2.28003033348181505e+00
49 12 -2.18640311719393976e+00
50 12 -2.08674220842908742e+00
51 12 -1.98142410462555119e+00
52 12 -1.87087174816003365e+00
53 12 -1.75554887987847663e+00
54 12 -1.63595360139414159e+00
55 12 -1.51261133229468547e+00
56 12 -1.38606736772733918e+00
57 12 -1.25687925106162335e+00
58 12 -1.12560917525187842e+00
59 12 -9.92816615660561341e-01
60 12 -8.59051377632143343e-01
61 12 -7.24847215711629467e-01
62 12 -5.90716150098152259e-01
63 12 -4.57143571868993459e-01
64 12 -3.24584193812939237e-01
65 12 -1.93458870280343836e-01
66 12 -6.41522788744086081e-02
67 12 -3.52285325656288250e-16
68 12 6.41522788744079836e-02
69 12 1.93458870280343254e-01
70 12 3.24584193812938959e-01
71 12 4.57143571868993237e-01
72 12 5.90716150098151926e-01
73 12 7.24847215711629467e-01
74 12 8.59051377632143343e-01
75 12 9.92816615660561452e-01
76 12 1.12560917525187842e+00
77 12 1.25687925106162357e+00
78 12 1.38606736772733918e+00
79 12 1.51261133229468525e+00
80 12 1.63595360139414225e+00
81 12 1.75554887987847663e+00
82 12 1.87087174816003388e+00
83 12 1.98142410462555274e+00
84 12 2.08674220842908742e+00
85 12 2.18640311719394020e+00
86 12 2.28003033348181505e+00
87 12 2.36729850235669126e+00
88 12 2.44793703834789245e+00
89 12 2.52173260142507027e+00
90 12 2.58853038570964600e+00
91 12 2.64823422890729709e+00
92 12 2.70080559230140516e+00
93 12 2.74626149835317124e+00
94 12 2.78467154374005643e+00
95 12 2.81615412883768812e+00
96 12 2.84087205963906131e+00
97 12 2.85902768493393822e+00
98 12 2.87085773079071727e+00
99 12 2.87662798695561150e+00
100 12 2.87662798695561195e+00
101 12 2.87662798695561150e+00
102 12 2.87085773079071904e+00
103 12 2.85902768493393822e+00
104 12 2.84087205963906131e+00
105 12 2.81615412883768901e+00
106 12 2.78467154374005643e+00
107 12 2.74626149835317346e+00
108 12 2.70080559230140604e+00
109 12 2.64823422890729931e+00
110 12 2.58853038570964644e+00
111 12 2.52173260142507072e+00
112 12 2.44793703834789200e+00
113 12 2.36729850235669215e+00
114 12 2.28003033348181505e+00
115 12 2.18640311719394065e+00
116 12 2.08674220842908742e+00
117 12 1.98142410462555274e+00
118 12 1.87087174816003365e+00
119 12 1.75554887987847663e+00
120 12 1.63595360139414203e+00
121 12 1.51261133229468547e+00
122 12 1.38606736772733918e+00
123 12 1.25687925106162379e+00
124 12 1.12560917525187887e+00
125 12 9.92816615660561452e-01
126 12 8.59051377632143676e-01
127 12 7.24847215711630022e-01
128 12 5.90716150098152371e-01
129 12 4.57143571868993737e-01
130 12 3.24584193812939736e-01
131 12 1.93458870280344031e-01
132 12 6.41522788744089550e-02
133 12 7.04570651312576499e-16
1 13 0.00000000000000000e+00
2 13 -6.35801749374516334e-02
3 13 -1.91733622428381129e-01
4 13 -3.21689582765406212e-01
5 13 -4.53066808863696435e-01
6 13 -5.85448199512068834e-01
7 13 -7.18383097007249116e-01
8 13 -8.51390438943534500e-01
9 13 -9.83962771269353609e-01
10 13 -1.11557109941209687e+00
11 13 -1.24567052113919630e+00
12 13 -1.37370655043639944e+00
13 13 -1.49912200793280004e+00
14 13 -1.62136432237775274e+00
15 13 -1.73989306151441614e+00
16 13 -1.85418749139717232e+00
17 13 -1.96375395243569351e+00
18 13 -2.06813283938090509e+00
19 13 -2.16690498161609479e+00
20 13 -2.25969723927141031e+00
21 13 -2.34618715889528096e+00
22 13 -2.42610656807258751e+00
23 13 -2.49924402931913558e+00
24 13 -2.56544611730048189e+00
25 13 -2.62461752728852415e+00
26 13 -2.67672006425126208e+00
27 13 -2.72177059884520256e+00
28 13 -2.75983810709123967e+00
29 13 -2.79103993348168400e+00
30 13 -2.81553743212112906e+00
31 13 -2.83353114727202726e+00
32 13 -2.84525569390215738e+00
33 13 -2.85097449146998994e+00
34 13 -2.85097449146999038e+00
35 13 -2.85097449146998994e+00
36 13 -2.84525569390215916e+00
37 13 -2.83353114727202771e+00
38 13 -2.81553743212112906e+00
39 13 -2.79103993348168489e+00
40 13 -2.75983810709123967e+00
41 13 -2.72177059884520478e+00
42 13 -2.67672006425126341e+00
43 13 -2.62461752728852638e+00
44 13 -2.56544611730048189e+00
45 13 -2.49924402931913514e+00
46 13 -2.42610656807258751e+00
47 13 -2.34618715889528096e+00
48 13 -2.25969723927141031e+00
49 13 -2.16690498161609479e+00
50 13 -2.06813283938090331e+00
51 13 -1.96375395243569217e+00
52 13 -1.85418749139717209e+00
53 13 -1.73989306151441592e+00
54 13 -1.62136432237775208e+00
55 13 -1.49912200793279982e+00
56 13 -1.37370655043639989e+00
57 13 -1.24567052113919607e+00
58 13 -1.11557109941209687e+00
59 13 -9.83962771269353498e-01
60 13 -8.51390438943534500e-01
61 13 -7.18383097007249116e-01
62 13 -5.85448199512068834e-01
63 13 -4.53066808863696657e-01
64 13 -3.21689582765406212e-01
65 13 -1.91733622428381378e-01
66 13 -6.35801749374519665e-02
67 13 -3.49143678542947498e-16
68 13 6.35801749374513420e-02
69 13 1.91733622428380795e-01
70 13 3.21689582765405935e-01
71 13 4.53066808863696380e-01
72 13 5.85448199512068501e-01
73 13 7.18383097007249116e-01
74 13 8.51390438943534500e-01
75 13 9.83962771269353609e-01
76 13 1.11557109941209687e+00
77 13 1.24567052113919630e+00
78 13 1.37370655043639944e+00
79 13 1.49912200793280004e+00
80 13 1.62136432237775274e+00
81 13 1.73989306151441614e+00
82 13 1.85418749139717232e+00
83 13 1.96375395243569351e+00
84 13 2.06813283938090331e+00
85 13 2.16690498161609479e+00
86 13 2.25969723927141031e+00
87 13 2.34618715889528096e+00
88 13 2.42610656807258751e+00
89 13 2.49924402931913470e+00
90 13 2.56544611730048189e+00
91 13 2.62461752728852415e+00
92 13 2.67672006425126208e+00
93 13 2.72177059884520256e+00
94 13 2.75983810709123967e+00
95 13 2.79103993348168400e+00
96 13 2.81553743212112906e+00
97 13 2.83353114727202726e+00
98 13 2.84525569390215738e+00
99 13 2.85097449146998994e+00
100 13 2.85097449146999038e+00
101 13 2.85097449146998994e+00
102 13 2.84525569390215916e+00
103 13 2.83353114727202771e+00
104 13 2.81553743212112906e+00
105 13 2.79103993348168489e+00
106 13 2.75983810709123967e+00
107 13 2.72177059884520478e+00
108 13 2.67672006425126341e+00
109 13 2.62461752728852638e+00
110 13 2.56544611730048189e+00
111 13 2.49924402931913514e+00
112 13 2.42610656807258751e+00
113 13 2.34618715889528184e+00
114 13 2.25969723927141031e+00
115 13 2.16690498161609568e+00
116 13 2.06813283938090331e+00
117 13 1.96375395243569351e+00
118 13 1.85418749139717209e+00
119 13 1.73989306151441592e+00
120 13 1.62136432237775230e+00
121 13 1.49912200793279982e+00
122 13 1.37370655043639989e+00
123 13 1.24567052113919652e+00
124 13 1.11557109941209731e+00
125 13 9.83962771269353720e-01
126 13 8.51390438943534944e-01
127 13 7.18383097007249560e-01
128 13 5.85448199512068945e-01
129 13 4.53066808863696824e-01
130 13 3.21689582765406712e-01
131 13 1.91733622428381600e-01
132 13 6.35801749374522995e-02
133 13 6.98287357085894997e-16
1 14 0.00000000000000000e+00
2 14 -6.29550204974382577e-02
3 14 -1.89848394439013857e-01
4 14 -3.18526557951937517e-01
5 14 -4.48612012577551122e-01
6 14 -5.79691758267878110e-01
7 14 -7.11319568428310012e-01
8 14 -8.43019110717179498e-01
9 14 -9.74287920643792216e-01
10 14 -1.10460220499439243e+00
11 14 -1.23342241930792529e+00
12 14 -1.36019952957454082e+00
13 14 -1.48438183491026687e+00
14 14 -1.60542219724187696e+00
15 14 -1.72278549813283899e+00
16 14 -1.83595612377346651e+00
17 14 -1.94444526849975374e+00
18 14 -2.04779784614837013e+00
19 14 -2.14559880761331678e+00
20 14 -2.23747868193642008e+00
21 14 -2.32311818620169097e+00
22 14 -2.40225178480927815e+00
23 14 -2.47467011924193248e+00
24 14 -2.54022127272552956e+00
25 14 -2.59881087761926022e+00
26 14 -2.65040111444519821e+00
27 14 -2.69500868797849247e+00
28 14 -2.73270189603073987e+00
29 14 -2.76359692930015699e+00
30 14 -2.78785355537108925e+00
31 14 -2.80567034664705339e+00
32 14 -2.81727961123541171e+00
33 14 -2.82294217851299178e+00
34 14 -2.82294217851299223e+00
35 14 -2.82294217851299178e+00
36 14 -2.81727961123541393e+00
37 14 -2.80567034664705384e+00
38 14 -2.78785355537108925e+00
39 14 -2.76359692930015788e+00
40 14 -2.73270189603073987e+00
41 14 -2.69500868797849424e+00
42 14 -2.65040111444519955e+00
43 14 -2.59881087761926155e+00
44 14 -2.54022127272553000e+00
45 14 -2.47467011924193203e+00
46 14 -2.40225178480927815e+00
47 14 -2.32311818620169097e+00
48 14 -2.23747868193641963e+00
49 14 -2.14559880761331723e+00
50 14 -2.04779784614836835e+00
51 14 -1.94444526849975285e+00
52 14 -1.83595612377346629e+00
53 14 -1.72278549813283921e+00
54 14 -1.60542219724187629e+00
55 14 -1.48438183491026687e+00
56 14 -1.36019952957454149e+00
57 14 -1.23342241930792462e+00
58 14 -1.10460220499439243e+00
59 14 -9.74287920643792327e-01
60 14 -8.43019110717179498e-01
61 14 -7.11319568428310012e-01
62 14 -5.79691758267878110e-01
63 14 -4.48612012577551289e-01
64 14 -3.18526557951937461e-01
65 14 -1.89848394439014134e-01
66 14 -6.29550204974385907e-02
67 14 -3.45710710309399009e-16
68 14 6.29550204974379662e-02
69 14 1.89848394439013524e-01
70 14 3.18526557951937239e-01
71 14 4.48612012577551011e-01
72 14 5.79691758267877777e-01
73 14 7.11319568428310012e-01
74 14 8.43019110717179498e-01
75 14 9.74287920643792216e-01
76 14 1.10460220499439243e+00
77 14 1.23342241930792529e+00
78 14 1.36019952957454082e+00
79 14 1.48438183491026687e+00
80 14 1.60542219724187696e+00
81 14 1.72278549813283899e+00
82 14 1.83595612377346651e+00
83 14 1.94444526849975374e+00
84 14 2.04779784614836835e+00
85 14 2.14559880761331678e+00
86 14 2.23747868193642008e+00
87 14 2.32311818620169097e+00
88 14 2.40225178480927815e+00
89 14 2.47467011924193159e+00
90 14 2.54022127272552956e+00
91 14 2.59881087761926022e+00
92 14 2.65040111444519821e+00
93 14 2.69500868797849247e+00
94 14 2.73270189603073987e+00
95 14 2.76359692930015699e+00
96 14 2.78785355537108925e+00
97 14 2.80567034664705339e+00
98 14 2.81727961123541171e+00
99 14 2.82294217851299178e+00
100 14 2.82294217851299223e+00
101 14 2.82294217851299178e+00
102 14 2.81727961123541393e+00
103 14 2.80567034664705384e+00
104 14 2.78785355537108925e+00
105 14 2.76359692930015788e+00
106 14 2.73270189603073987e+00
107 14 2.69500868797849424e+00
108 14 2.65040111444519955e+00
109 14 2.59881087761926155e+00
110 14 2.54022127272553000e+00
111 14 2.47467011924193203e+00
112 14 2.40225178480927815e+00
113 14 2.32311818620169186e+00
114 14 2.23747868193641963e+00
115 14 2.14559880761331767e+00
116 14 2.04779784614836835e+00
117 14 1.94444526849975374e+00
118 14 1.83595612377346629e+00
119 14 1.72278549813283921e+00
120 14 1.60542219724187629e+00
121 14 1.48438183491026687e+00
122 14 1.36019952957454149e+00
123 14 1.23342241930792529e+00
124 14 1.10460220499439288e+00
125 14 9.74287920643792438e-01
126 14 8.43019110717179831e-01
127 14 7.11319568428310345e-01
128 14 5.79691758267878332e-01
129 14 4.48612012577551511e-01
130 14 3.18526557951937905e-01
131 14 1.89848394439014356e-01
132 14 6.29550204974389099e-02
133 14 6.91421420618798017e-16
1 15 0.00000000000000000e+00
2 15 -6.22784694840379099e-02
3 15 -1.87808173934989497e-01
4 15 -3.15103487577652108e-01
5 15 -4.43790968769849303e-01
6 15 -5.73462055800671000e-01
7 15 -7.03675317484237173e-01
8 15 -8.33959540421355672e-01
9 15 -9.63817659894975587e-01
10 15 -1.09273151167576166e+00
11 15 -1.22016734955908035e+00
12 15 -1.34558203977167801e+00
13 15 -1.46842981032594522e+00
14 15 -1.58816940301042075e+00
15 15 -1.70427145008037861e+00
16 15 -1.81622587880995234e+00
17 15 -1.92354913652313764e+00
18 15 -2.02579102767537611e+00
19 15 -2.12254096351809585e+00
20 15 -2.21343344364144778e+00
21 15 -2.29815261632807788e+00
22 15 -2.37643579957706530e+00
23 15 -2.44807588475871407e+00
24 15 -2.51292258768430177e+00
25 15 -2.57088255484219541e+00
26 15 -2.62191837318442333e+00
27 15 -2.66604656796697137e+00
28 15 -2.70333470303370360e+00
29 15 -2.73389772043048129e+00
30 15 -2.75789367078690706e+00
31 15 -2.77551899253275147e+00
32 15 -2.78700349725827401e+00
33 15 -2.79260521131716244e+00
34 15 -2.79260521131716244e+00
35 15 -2.79260521131716244e+00
36 15 -2.78700349725827623e+00
37 15 -2.77551899253275192e+00
38 15 -2.75789367078690706e+00
39 15 -2.73389772043048263e+00
40 15 -2.70333470303370360e+00
41 15 -2.66604656796697270e+00
42 15 -2.62191837318442467e+00
43 15 -2.57088255484219719e+00
44 15 -2.51292258768430221e+00
45 15 -2.44807588475871363e+00
46 15 -2.37643579957706530e+00
47 15 -2.29815261632807788e+00
48 15 -2.21343344364144734e+00
49 15 -2.12254096351809629e+00
50 15 -2.02579102767537433e+00
51 15 -1.92354913652313697e+00
52 15 -1.81622587880995190e+00
53 15 -1.70427145008037884e+00
54 15 -1.58816940301041987e+00
55 15 -1.46842981032594522e+00
56 15 -1.34558203977167845e+00
57 15 -1.22016734955907991e+00
58 15 -1.09273151167576144e+00
59 15 -9.63817659894975476e-01
60 15 -8.33959540421355672e-01
61 15 -7.03675317484237173e-01
62 15 -5.73462055800671000e-01
63 15 -4.43790968769849470e-01
64 15 -3.15103487577652053e-01
65 15 -1.87808173934989803e-01
66 15 -6.22784694840382430e-02
67 15 -3.41995503332177856e-16
68 15 6.22784694840376254e-02
69 15 1.87808173934989192e-01
70 15 3.15103487577651886e-01
71 15 4.43790968769849248e-01
72 15 5.73462055800670667e-01
73 15 7.03675317484237173e-01
74 15 8.33959540421355672e-01
75 15 9.63817659894975587e-01
76 15 1.09273151167576166e+00
77 15 1.22016734955908035e+00
78 15 1.34558203977167801e+00
79 15 1.46842981032594522e+00
80 15 1.58816940301042075e+00
81 15 1.70427145008037861e+00
82 15 1.81622587880995234e+00
83 15 1.92354913652313764e+00
84 15 2.02579102767537433e+00
85 15 2.12254096351809585e+00
86 15 2.21343344364144778e+00
87 15 2.29815261632807788e+00
88 15 2.37643579957706530e+00
89 15 2.44807588475871274e+00
90 15 2.51292258768430177e+00
91 15 2.57088255484219541e+00
92 15 2.62191837318442333e+00
93 15 2.66604656796697137e+00
94 15 2.70333470303370360e+00
95 15 2.73389772043048129e+00
96 15 2.75789367078690706e+00
97 15 2.77551899253275147e+00
98 15 2.78700349725827401e+00
99 15 2.79260521131716244e+00
100 15 2.79260521131716244e+00
101 15 2.79260521131716244e+00
102 15 2.78700349725827623e+00
103 15 2.77551899253275192e+00
104 15 2.75789367078690706e+00
105 15 2.73389772043048263e+00
106 15 2.70333470303370360e+00
107 15 2.66604656796697270e+00
108 15 2.62191837318442467e+00
109 15 2.57088255484219719e+00
110 15 2.51292258768430221e+00
111 15 2.44807588475871363e+00
112 15 2.37643579957706530e+00
113 15 2.29815261632807877e+00
114 15 2.21343344364144734e+00
115 15 2.12254096351809673e+00
116 15 2.02579102767537433e+00
117 15 1.92354913652313764e+00
118 15 1.81622587880995190e+00
119 15 1.70427145008037884e+00
120 15 1.58816940301042009e+00
121 15 1.46842981032594522e+00
122 15 1.34558203977167845e+00
123 15 1.22016734955908035e+00
124 15 1.09273151167576210e+00
125 15 9.63817659894975698e-01
126 15 8.33959540421356116e-01
127 15 7.03675317484237395e-01
128 15 5.73462055800671222e-01
129 15 4.43790968769849747e-01
130 15 3.15103487577652497e-01
131 15 1.87808173934990053e-01
132 15 6.22784694840385553e-02
133 15 6.83991006664355712e-16
1 16 0.00000000000000000e+00
2 16 -6.15526196251708693e-02
3 16 -1.85619286865763594e-01
4 16 -3.11430985284618544e-01
5 16 -4.38618625667701878e-01
6 16 -5.66778408053431382e-01
7 16 -6.95474046095975629e-01
8 16 -8.24239818345160358e-01
9 16 -9.52584453327694147e-01
10 16 -1.07999582597088550e+00
11 16 -1.20594641083323983e+00
12 16 -1.32989940431589493e+00
13 16 -1.45131539535377851e+00
14 16 -1.56965943405032093e+00
15 16 -1.68440832239338500e+00
16 16 -1.79505793250801626e+00
17 16 -1.90113034748036913e+00
18 16 -2.00218061875373188e+00
19 16 -2.09780294295379788e+00
20 16 -2.18763607954452644e+00
21 16 -2.27136785803140517e+00
22 16 -2.34873865794817993e+00
23 16 -2.41954378449726892e+00
24 16 -2.48363470503840666e+00
25 16 -2.54091915408659030e+00
26 16 -2.59136015463949576e+00
27 16 -2.63497403935276431e+00
28 16 -2.67182758461984626e+00
29 16 -2.70203439284758407e+00
30 16 -2.72575067259996473e+00
31 16 -2.74317057283484900e+00
32 16 -2.75452122670945565e+00
33 16 -2.76005765330394848e+00
34 16 -2.76005765330394759e+00
35 16 -2.76005765330394848e+00
36 16 -2.75452122670945743e+00
37 16 -2.74317057283484944e+00
38 16 -2.72575067259996473e+00
39 16 -2.70203439284758451e+00
40 16 -2.67182758461984626e+00
41 16 -2.63497403935276564e+00
42 16 -2.59136015463949709e+00
43 16 -2.54091915408659164e+00
44 16 -2.48363470503840711e+00
45 16 -2.41954378449726804e+00
46 16 -2.34873865794817993e+00
47 16 -2.27136785803140517e+00
48 16 -2.18763607954452599e+00
49 16 -2.09780294295379832e+00
50 16 -2.00218061875373010e+00
51 16 -1.90113034748036847e+00
52 16 -1.79505793250801582e+00
53 16 -1.68440832239338545e+00
54 16 -1.56965943405032005e+00
55 16 -1.45131539535377851e+00
56 16 -1.32989940431589493e+00
57 16 -1.20594641083323939e+00
58 16 -1.07999582597088528e+00
59 16 -9.52584453327694036e-01
60 16 -8.24239818345160358e-01
61 16 -6.95474046095975740e-01
62 16 -5.66778408053431382e-01
63 16 -4.38618625667701989e-01
64 16 -3.11430985284618489e-01
65 16 -1.85619286865763899e-01
66 16 -6.15526196251712024e-02
67 16 -3.38009577058083297e-16
68 16 6.15526196251705918e-02
69 16 1.85619286865763344e-01
70 16 3.11430985284618322e-01
71 16 4.38618625667701822e-01
72 16 5.66778408053431049e-01
73 16 6.95474046095975629e-01
74 16 8.24239818345160358e-01
75 16 9.52584453327694147e-01
76 16 1.07999582597088550e+00
77 16 1.20594641083323983e+00
78 16 1.32989940431589493e+00
79 16 1.45131539535377851e+00
80 16 1.56965943405032093e+00
81 16 1.68440832239338500e+00
82 16 1.79505793250801626e+00
83 16 1.90113034748036913e+00
84 16 2.00218061875373010e+00
85 16 2.09780294295379788e+00
86 16 2.18763607954452644e+00
87 16 2.27136785803140517e+00
88 16 2.34873865794817993e+00
89 16 2.41954378449726759e+00
90 16 2.48363470503840666e+00
91 16 2.54091915408659030e+00
92 16 2.59136015463949576e+00
93 16 2.63497403935276431e+00
94 16 2.67182758461984626e+00
95 16 2.70203439284758407e+00
96 16 2.72575067259996473e+00
97 16 2.74317057283484900e+00
98 16 2.75452122670945565e+00
99 16 2.76005765330394848e+00
100 16 2.76005765330394759e+00
101 16 2.76005765330394848e+00
102 16 2.75452122670945743e+00
103 16 2.74317057283484944e+00
104 16 2.72575067259996473e+00
105 16 2.70203439284758451e+00
106 16 2.67182758461984626e+00
107 16 2.63497403935276564e+00
108 16 2.59136015463949709e+00
109 16 2.54091915408659164e+00
110 16 2.48363470503840711e+00
111 16 2.41954378449726804e+00
112 16 2.34873865794817993e+00
113 16 2.27136785803140606e+00
114 16 2.18763607954452599e+00
115 16 2.09780294295379877e+00
116 16 2.00218061875373010e+00
117 16 1.90113034748036913e+00
118 16 1.79505793250801582e+00
119 16 1.68440832239338545e+00
120 16 1.56965943405032027e+00
121 16 1.45131539535377851e+00
122 16 1.32989940431589493e+00
123 16 1.20594641083323983e+00
124 16 1.07999582597088595e+00
125 16 9.52584453327694369e-01
126 16 8.24239818345160802e-01
127 16 6.95474046095975962e-01
128 16 5.66778408053431604e-01
129 16 4.38618625667702322e-01
130 16 3.11430985284618933e-01
131 16 1.85619286865764177e-01
132 16 6.15526196251715077e-02
133 16 6.76019154116166594e-16
1 17 0.00000000000000000e+00
2 17 -6.07799932518831160e-02
3 17 -1.83289339622304454e-01
4 17 -3.07521813032403057e-01
5 17 -4.33112957183244496e-01
6 17 -5.59664040727738232e-01
7 17 -6.86744253713083008e-01
8 17 -8.13893720560120437e-01
9 17 -9.40627336377891532e-01
10 17 -1.06643940443647889e+00
11 17 -1.19080902094706742e+00
12 17 -1.31320612042560270e+00
13 17 -1.43309806265149442e+00
14 17 -1.54995661257477013e+00
15 17 -1.66326513951682164e+00
16 17 -1.77252584356231746e+00
17 17 -1.87726680674943336e+00
18 17 -1.97704866564507564e+00
19 17 -2.07147071063684907e+00
20 17 -2.16017623558492478e+00
21 17 -2.24285698844957571e+00
22 17 -2.31925660759610697e+00
23 17 -2.38917296761553510e+00
24 17 -2.45245940029246956e+00
25 17 -2.50902479828509462e+00
26 17 -2.55883264873716731e+00
27 17 -2.60189907929208752e+00
28 17 -2.63829002814660596e+00
29 17 -2.66811767173713221e+00
30 17 -2.69153625785235251e+00
31 17 -2.70873749843597489e+00
32 17 -2.71994567560380629e+00
33 17 -2.72541260736238922e+00
34 17 -2.72541260736238833e+00
35 17 -2.72541260736238922e+00
36 17 -2.71994567560380807e+00
37 17 -2.70873749843597533e+00
38 17 -2.69153625785235251e+00
39 17 -2.66811767173713266e+00
40 17 -2.63829002814660596e+00
41 17 -2.60189907929208974e+00
42 17 -2.55883264873716865e+00
43 17 -2.50902479828509550e+00
44 17 -2.45245940029247000e+00
45 17 -2.38917296761553466e+00
46 17 -2.31925660759610697e+00
47 17 -2.24285698844957571e+00
48 17 -2.16017623558492389e+00
49 17 -2.07147071063684907e+00
50 17 -1.97704866564507387e+00
51 17 -1.87726680674943269e+00
52 17 -1.77252584356231724e+00
53 17 -1.66326513951682231e+00
54 17 -1.54995661257476924e+00
55 17 -1.43309806265149442e+00
56 17 -1.31320612042560270e+00
57 17 -1.19080902094706698e+00
58 17 -1.06643940443647867e+00
59 17 -9.40627336377891421e-01
60 17 -8.13893720560120437e-01
61 17 -6.86744253713083119e-01
62 17 -5.59664040727738121e-01
63 17 -4.33112957183244551e-01
64 17 -3.07521813032403057e-01
65 17 -1.83289339622304759e-01
66 17 -6.07799932518834352e-02
67 17 -3.33766782596218928e-16
68 17 6.07799932518828384e-02
69 17 1.83289339622304204e-01
70 17 3.07521813032402835e-01
71 17 4.33112957183244440e-01
72 17 5.59664040727737899e-01
73 17 6.86744253713083008e-01
74 17 8.13893720560120437e-01
75 17 9.40627336377891532e-01
76 17 1.06643940443647889e+00
77 17 1.19080902094706742e+00
78 17 1.31320612042560270e+00
79 17 1.43309806265149442e+00
80 17 1.54995661257477013e+00
81 17 1.66326513951682164e+00
82 17 1.77252584356231746e+00
83 17 1.87726680674943336e+00
84 17 1.97704866564507387e+00
85 17 2.07147071063684907e+00
86 17 2.16017623558492478e+00
87 17 2.24285698844957571e+00
88 17 2.31925660759610697e+00
89 17 2.38917296761553377e+00
90 17 2.45245940029246956e+00
91 17 2.50902479828509462e+00
92 17 2.55883264873716731e+00
93 17 2.60189907929208752e+00
94 17 2.63829002814660596e+00
95 17 2.66811767173713221e+00
96 17 2.69153625785235251e+00
97 17 2.70873749843597489e+00
98 17 2.71994567560380629e+00
99 17 2.72541260736238922e+00
100 17 2.72541260736238833e+00
101 17 2.72541260736238922e+00
102 17 2.71994567560380807e+00
103 17 2.70873749843597533e+00
104 17 2.69153625785235251e+00
105 17 2.66811767173713266e+00
106 17 2.63829002814660596e+00
107 17 2.60189907929208974e+00
108 17 2.55883264873716865e+00
109 17 2.50902479828509550e+00
110 17 2.45245940029247000e+00
111 17 2.38917296761553466e+00
112 17 2.31925660759610697e+00
113 17 2.24285698844957659e+00
114 17 2.16017623558492389e+00
115 17 2.07147071063684995e+00
116 17 1.97704866564507387e+00
117 17 1.87726680674943336e+00
118 17 1.77252584356231724e+00
119 17 1.66326513951682231e+00
120 17 1.54995661257476947e+00
121 17 1.43309806265149442e+00
122 17 1.31320612042560270e+00
123 17 1.19080902094706742e+00
124 17 1.06643940443647933e+00
125 17 9.40627336377891754e-01
126 17 8.13893720560120881e-01
127 17 6.86744253713083341e-01
128 17 5.59664040727738454e-01
129 17 4.33112957183244884e-01
130 17 3.07521813032403502e-01
131 17 1.83289339622305009e-01
132 17 6.07799932518837474e-02
133 17 6.67533565192437856e-16
1 18 0.00000000000000000e+00
2 18 -5.99635091801267103e-02
3 18 -1.80827134243238735e-01
4 18 -3.03390738831422757e-01
5 18 -4.27294762545645079e-01
6 18 -5.52145830370337931e-01
7 18 -6.77518919610078485e-01
8 18 -8.02960332394281662e-01
9 18 -9.27991480456874074e-01
10 18 -1.05211346031194908e+00
11 18 -1.17481236569773495e+00
12 18 -1.29556525173025605e+00
13 18 -1.41384663337655514e+00
14 18 -1.52913537159772184e+00
15 18 -1.64092177583964483e+00
16 18 -1.74871473334965910e+00
17 18 -1.85204866564507520e+00
18 18 -1.95049011145279705e+00
19 18 -2.04364374406684979e+00
20 18 -2.13115764913604933e+00
21 18 -2.21272771550432212e+00
22 18 -2.28810102535425841e+00
23 18 -2.35707816851536212e+00
24 18 -2.41951444703013863e+00
25 18 -2.47531997744130239e+00
26 18 -2.52445873738568149e+00
27 18 -2.56694663785702959e+00
28 18 -2.60284873127563721e+00
29 18 -2.63227568716307747e+00
30 18 -2.65537968123043511e+00
31 18 -2.67234985007153947e+00
32 18 -2.68340746292303356e+00
33 18 -2.68880095501070748e+00
34 18 -2.68880095501070704e+00
35 18 -2.68880095501070748e+00
36 18 -2.68340746292303534e+00
37 18 -2.67234985007154036e+00
38 18 -2.65537968123043511e+00
39 18 -2.63227568716307747e+00
40 18 -2.60284873127563721e+00
41 18 -2.56694663785703181e+00
42 18 -2.52445873738568238e+00
43 18 -2.47531997744130328e+00
44 18 -2.41951444703013863e+00
45 18 -2.35707816851536123e+00
46 18 -2.28810102535425841e+00
47 18 -2.21272771550432212e+00
48 18 -2.13115764913604888e+00
49 18 -2.04364374406685023e+00
50 18 -1.95049011145279549e+00
51 18 -1.85204866564507453e+00
52 18 -1.74871473334965888e+00
53 18 -1.64092177583964527e+00
54 18 -1.52913537159772117e+00
55 18 -1.41384663337655514e+00
56 18 -1.29556525173025605e+00
57 18 -1.17481236569773451e+00
58 18 -1.05211346031194886e+00
59 18 -9.27991480456873963e-01
60 18 -8.02960332394281551e-01
61 18 -6.77518919610078707e-01
62 18 -5.52145830370337709e-01
63 18 -4.27294762545645135e-01
64 18 -3.03390738831422813e-01
65 18 -1.80827134243239068e-01
66 18 -5.99635091801270156e-02
67 18 -3.29283148309820716e-16
68 18 5.99635091801264328e-02
69 18 1.80827134243238513e-01
70 18 3.03390738831422535e-01
71 18 4.27294762545644968e-01
72 18 5.52145830370337598e-01
73 18 6.77518919610078485e-01
74 18 8.02960332394281551e-01
75 18 9.27991480456874074e-01
76 18 1.05211346031194908e+00
77 18 1.17481236569773495e+00
78 18 1.29556525173025605e+00
79 18 1.41384663337655514e+00
80 18 1.52913537159772184e+00
81 18 1.64092177583964483e+00
82 18 1.74871473334965910e+00
83 18 1.85204866564507520e+00
84 18 1.95049011145279549e+00
85 18 2.04364374406684979e+00
86 18 2.13115764913604933e+00
87 18 2.21272771550432212e+00
88 18 2.28810102535425841e+00
89 18 2.35707816851536034e+00
90 18 2.41951444703013863e+00
91 18 2.47531997744130239e+00
92 18 2.52445873738568149e+00
93 18 2.56694663785702959e+00
94 18 2.60284873127563721e+00
95 18 2.63227568716307747e+00
96 18 2.65537968123043511e+00
97 18 2.67234985007153947e+00
98 18 2.68340746292303356e+00
99 18 2.68880095501070748e+00
100 18 2.68880095501070704e+00
101 18 2.68880095501070748e+00
102 18 2.68340746292303534e+00
103 18 2.67234985007154036e+00
104 18 2.65537968123043511e+00
105 18 2.63227568716307747e+00
106 18 2.60284873127563721e+00
107 18 2.56694663785703181e+00
108 18 2.52445873738568238e+00
109 18 2.47531997744130328e+00
110 18 2.41951444703013863e+00
111 18 2.35707816851536123e+00
112 18 2.28810102535425841e+00
113 18 2.21272771550432346e+00
114 18 2.13115764913604888e+00
115 18 2.04364374406685068e+00
116 18 1.95049011145279549e+00
117 18 1.85204866564507520e+00
118 18 1.74871473334965888e+00
119 18 1.64092177583964527e+00
120 18 1.52913537159772117e+00
121 18 1.41384663337655514e+00
122 18 1.29556525173025605e+00
123 18 1.17481236569773495e+00
124 18 1.05211346031194952e+00
125 18 9.27991480456874296e-01
126 18 8.02960332394282106e-01
127 18 6.77518919610078929e-01
128 18 5.52145830370338153e-01
129 18 4.27294762545645468e-01
130 18 3.03390738831423201e-01
131 18 1.80827134243239318e-01
132 18 5.99635091801273279e-02
133 18 6.58566296619641432e-16
1 19 0.00000000000000000e+00
2 19 -5.91064462926518888e-02
3 19 -1.78242558591691136e-01
4 19 -2.99054352482270303e-01
5 19 -4.21187406788827379e-01
6 19 -5.44253969034090068e-01
7 19 -6.67835091403568337e-01
8 19 -7.91483560764017047e-01
9 19 -9.14727629346972715e-01
10 19 -1.03707552453108343e+00
11 19 -1.15802068535492175e+00
12 19 -1.27704764142455374e+00
13 19 -1.39363841850360237e+00
14 19 -1.50727932623212157e+00
15 19 -1.61746795910092156e+00
16 19 -1.72372022386836354e+00
17 19 -1.82557719659956863e+00
18 19 -1.92261161151559068e+00
19 19 -2.01443379234440645e+00
20 19 -2.10069685467277312e+00
21 19 -2.18110103402794486e+00
22 19 -2.25539702756564742e+00
23 19 -2.32338827529975323e+00
24 19 -2.38493214745141469e+00
25 19 -2.43994004527427233e+00
26 19 -2.48837646127546508e+00
27 19 -2.53025707903173203e+00
28 19 -2.56564602116429130e+00
29 19 -2.59465237538703031e+00
30 19 -2.61742614235230064e+00
31 19 -2.63415375531055540e+00
32 19 -2.64505332088081735e+00
33 19 -2.65036972338575261e+00
34 19 -2.65036972338575216e+00
35 19 -2.65036972338575261e+00
36 19 -2.64505332088081913e+00
37 19 -2.63415375531055673e+00
38 19 -2.61742614235230020e+00
39 19 -2.59465237538703031e+00
40 19 -2.56564602116429175e+00
41 19 -2.53025707903173425e+00
42 19 -2.48837646127546597e+00
43 19 -2.43994004527427322e+00
44 19 -2.38493214745141469e+00
45 19 -2.32338827529975234e+00
46 19 -2.25539702756564697e+00
47 19 -2.18110103402794486e+00
48 19 -2.10069685467277267e+00
49 19 -2.01443379234440645e+00
50 19 -1.92261161151558913e+00
51 19 -1.82557719659956796e+00
52 19 -1.72372022386836354e+00
53 19 -1.61746795910092200e+00
54 19 -1.50727932623212113e+00
55 19 -1.39363841850360237e+00
56 19 -1.27704764142455374e+00
57 19 -1.15802068535492131e+00
58 19 -1.03707552453108343e+00
59 19 -9.14727629346972604e-01
60 19 -7.91483560764016936e-01
61 19 -6.67835091403568559e-01
62 19 -5.44253969034089846e-01
63 19 -4.21187406788827434e-01
64 19 -2.99054352482270358e-01
65 19 -1.78242558591691441e-01
66 19 -5.91064462926521803e-02
67 19 -3.24576679830141530e-16
68 19 5.91064462926516043e-02
69 19 1.78242558591690886e-01
70 19 2.99054352482270080e-01
71 19 4.21187406788827212e-01
72 19 5.44253969034089735e-01
73 19 6.67835091403568337e-01
74 19 7.91483560764016936e-01
75 19 9.14727629346972715e-01
76 19 1.03707552453108343e+00
77 19 1.15802068535492175e+00
78 19 1.27704764142455374e+00
79 19 1.39363841850360237e+00
80 19 1.50727932623212157e+00
81 19 1.61746795910092156e+00
82 19 1.72372022386836354e+00
83 19 1.82557719659956863e+00
84 19 1.92261161151558913e+00
85 19 2.01443379234440645e+00
86 19 2.10069685467277312e+00
87 19 2.18110103402794486e+00
88 19 2.25539702756564742e+00
89 19 2.32338827529975145e+00
90 19 2.38493214745141469e+00
91 19 2.43994004527427233e+00
92 19 2.48837646127546508e+00
93 19 2.53025707903173203e+00
94 19 2.56564602116429130e+00
95 19 2.59465237538703031e+00
96 19 2.61742614235230064e+00
97 19 2.63415375531055540e+00
98 19 2.64505332088081735e+00
99 19 2.65036972338575261e+00
100 19 2.65036972338575216e+00
101 19 2.65036972338575261e+00
102 19 2.64505332088081913e+00
103 19 2.63415375531055673e+00
104 19 2.61742614235230020e+00
105 19 2.59465237538703031e+00
106 19 2.56564602116429175e+00
107 19 2.53025707903173425e+00
108 19 2.48837646127546597e+00
109 19 2.43994004527427322e+00
110 19 2.38493214745141469e+00
111 19 2.32338827529975234e+00
112 19 2.25539702756564697e+00
113 19 2.18110103402794619e+00
114 19 2.10069685467277267e+00
115 19 2.01443379234440689e+00
116 19 1.92261161151558913e+00
117 19 1.82557719659956863e+00
118 19 1.72372022386836354e+00
119 19 1.61746795910092200e+00
120 19 1.50727932623212113e+00
121 19 1.39363841850360237e+00
122 19 1.27704764142455374e+00
123 19 1.15802068535492175e+00
124 19 1.03707552453108387e+00
125 19 9.14727629346972937e-01
126 19 7.91483560764017491e-01
127 19 6.67835091403568781e-01
128 19 5.44253969034090290e-01
129 19 4.21187406788827712e-01
130 19 2.99054352482270691e-01
131 19 1.78242558591691719e-01
132 19 5.91064462926524856e-02
133 19 6.49153359660283060e-16
1 20 0.00000000000000000e+00
2 20 -5.82123997644614366e-02
3 20 -1.75546454347905889e-01
4 20 -2.94530844094484545e-01
5 20 -4.14816508817857588e-01
6 20 -5.36021561200609842e-01
7 20 -6.57733390450057520e-01
8 20 -7.79511547997131182e-01
9 20 -9.00891421749440036e-01
10 20 -1.02138867765845087e+00
11 20 -1.14050441702459215e+00
12 20 -1.25773096648022742e+00
13 20 -1.37255818668850038e+00
14 20 -1.48448015739089501e+00
15 20 -1.59300207248453640e+00
16 20 -1.69764716114199277e+00
17 20 -1.79796344113062578e+00
18 20 -1.89353010951116607e+00
19 20 -1.98396338427084662e+00
20 20 -2.06892162798427082e+00
21 20 -2.14810961042838855e+00
22 20 -2.22128179972396245e+00
23 20 -2.28824460905926719e+00
24 20 -2.34885756607933471e+00
25 20 -2.40303341218607214e+00
26 20 -2.45073717697440996e+00
27 20 -2.49198430679066352e+00
28 20 -2.52683795433465397e+00
29 20 -2.55540555725504115e+00
30 20 -2.57783484728816248e+00
31 20 -2.59430943768748712e+00
32 20 -2.60504413598238260e+00
33 20 -2.61028012236521700e+00
34 20 -2.61028012236521656e+00
35 20 -2.61028012236521700e+00
36 20 -2.60504413598238393e+00
37 20 -2.59430943768748845e+00
38 20 -2.57783484728816203e+00
39 20 -2.55540555725504115e+00
40 20 -2.52683795433465486e+00
41 20 -2.49198430679066529e+00
42 20 -2.45073717697441040e+00
43 20 -2.40303341218607258e+00
44 20 -2.34885756607933471e+00
45 20 -2.28824460905926630e+00
46 20 -2.22128179972396200e+00
47 20 -2.14810961042838855e+00
48 20 -2.06892162798427037e+00
49 20 -1.98396338427084684e+00
50 20 -1.89353010951116474e+00
51 20 -1.79796344113062490e+00
52 20 -1.69764716114199277e+00
53 20 -1.59300207248453685e+00
54 20 -1.48448015739089434e+00
55 20 -1.37255818668850038e+00
56 20 -1.25773096648022742e+00
57 20 -1.14050441702459171e+00
58 20 -1.02138867765845087e+00
59 20 -9.00891421749439925e-01
60 20 -7.79511547997130960e-01
61 20 -6.57733390450057631e-01
62 20 -5.36021561200609731e-01
63 20 -4.14816508817857643e-01
64 20 -2.94530844094484656e-01
65 20 -1.75546454347906167e-01
66 20 -5.82123997644617211e-02
67 20 -3.19667119673252237e-16
68 20 5.82123997644611521e-02
69 20 1.75546454347905667e-01
70 20 2.94530844094484323e-01
71 20 4.14816508817857477e-01
72 20 5.36021561200609509e-01
73 20 6.57733390450057520e-01
74 20 7.79511547997130960e-01
75 20 9.00891421749440036e-01
76 20 1.02138867765845087e+00
77 20 1.14050441702459215e+00
78 20 1.25773096648022742e+00
79 20 1.37255818668850038e+00
80 20 1.48448015739089501e+00
81 20 1.59300207248453640e+00
82 20 1.69764716114199277e+00
83 20 1.79796344113062556e+00
84 20 1.89353010951116474e+00
85 20 1.98396338427084662e+00
86 20 2.06892162798427082e+00
87 20 2.14810961042838855e+00
88 20 2.22128179972396245e+00
89 20 2.28824460905926585e+00
90 20 2.34885756607933471e+00
91 20 2.40303341218607214e+00
92 20 2.45073717697440951e+00
93 20 2.49198430679066352e+00
94 20 2.52683795433465397e+00
95 20 2.55540555725504115e+00
96 20 2.57783484728816248e+00
97 20 2.59430943768748712e+00
98 20 2.60504413598238260e+00
99 20 2.61028012236521700e+00
100 20 2.61028012236521656e+00
101 20 2.61028012236521700e+00
102 20 2.60504413598238393e+00
103 20 2.59430943768748845e+00
104 20 2.57783484728816203e+00
105 20 2.55540555725504115e+00
106 20 2.52683795433465486e+00
107 20 2.49198430679066529e+00
108 20 2.45073717697441040e+00
109 20 2.40303341218607258e+00
110 20 2.34885756607933471e+00
111 20 2.28824460905926630e+00
112 20 2.22128179972396200e+00
113 20 2.14810961042839033e+00
114 20 2.06892162798427037e+00
115 20 1.98396338427084684e+00
116 20 1.89353010951116474e+00
117 20 1.79796344113062556e+00
118 20 1.69764716114199277e+00
119 20 1.59300207248453685e+00
120 20 1.48448015739089434e+00
121 20 1.37255818668850038e+00
122 20 1.25773096648022742e+00
123 20 1.14050441702459215e+00
124 20 1.02138867765845132e+00
125 20 9.00891421749440147e-01
126 20 7.79511547997131626e-01
127 20 6.57733390450057964e-01
128 20 5.36021561200610064e-01
129 20 4.14816508817857921e-01
130 20 2.94530844094484934e-01
131 20 1.75546454347906444e-01
132 20 5.82123997644620195e-02
133 20 6.39334239346504474e-16
1 21 0.00000000000000000e+00
2 21 -5.72852311541920470e-02
3 21 -1.72750466503837824e-01
4 21 -2.89839751569429982e-01
5 21 -4.08209585764459482e-01
6 21 -5.27484164220178076e-01
7 21 -6.47257447935767782e-01
8 21 -7.67096003515718716e-01
9 21 -8.86542618901821067e-01
10 21 -1.00512067419799878e+00
11 21 -1.12233921683326887e+00
12 21 -1.23769865932569290e+00
13 21 -1.35069698750044065e+00
14 21 -1.46083633906233223e+00
15 21 -1.56762978885290671e+00
16 21 -1.67060815973520471e+00
17 21 -1.76932666835071450e+00
18 21 -1.86337121403112582e+00
19 21 -1.95236412738979404e+00
20 21 -2.03596921237632467e+00
21 21 -2.11389594099943778e+00
22 21 -2.18590269204931076e+00
23 21 -2.25179896203694474e+00
24 21 -2.31144651595815320e+00
25 21 -2.36475948501209521e+00
26 21 -2.41170345577918654e+00
27 21 -2.45229362858655398e+00
28 21 -2.48659215027957581e+00
29 21 -2.51470474731108729e+00
30 21 -2.53677679844401727e+00
31 21 -2.55298899246134914e+00
32 21 -2.56355271558016540e+00
33 21 -2.56870530663421048e+00
34 21 -2.56870530663421004e+00
35 21 -2.56870530663421048e+00
36 21 -2.56355271558016673e+00
37 21 -2.55298899246135047e+00
38 21 -2.53677679844401682e+00
39 21 -2.51470474731108729e+00
40 21 -2.48659215027957670e+00
41 21 -2.45229362858655575e+00
42 21 -2.41170345577918699e+00
43 21 -2.36475948501209521e+00
44 21 -2.31144651595815320e+00
45 21 -2.25179896203694385e+00
46 21 -2.18590269204931031e+00
47 21 -2.11389594099943778e+00
48 21 -2.03596921237632378e+00
49 21 -1.95236412738979426e+00
50 21 -1.86337121403112493e+00
51 21 -1.76932666835071339e+00
52 21 -1.67060815973520471e+00
53 21 -1.56762978885290716e+00
54 21 -1.46083633906233157e+00
55 21 -1.35069698750044065e+00
56 21 -1.23769865932569290e+00
57 21 -1.12233921683326843e+00
58 21 -1.00512067419799900e+00
59 21 -8.86542618901820845e-01
60 21 -7.67096003515718383e-01
61 21 -6.47257447935768004e-01
62 21 -5.27484164220178076e-01
63 21 -4.08209585764459537e-01
64 21 -2.89839751569430149e-01
65 21 -1.72750466503838074e-01
66 21 -5.72852311541923245e-02
67 21 -3.14575673172240458e-16
68 21 5.72852311541917694e-02
69 21 1.72750466503837574e-01
70 21 2.89839751569429760e-01
71 21 4.08209585764459260e-01
72 21 5.27484164220177854e-01
73 21 6.47257447935767782e-01
74 21 7.67096003515718383e-01
75 21 8.86542618901821067e-01
76 21 1.00512067419799878e+00
77 21 1.12233921683326887e+00
78 21 1.23769865932569290e+00
79 21 1.35069698750044065e+00
80 21 1.46083633906233223e+00
81 21 1.56762978885290671e+00
82 21 1.67060815973520471e+00
83 21 1.76932666835071406e+00
84 21 1.86337121403112493e+00
85 21 1.95236412738979404e+00
86 21 2.03596921237632467e+00
87 21 2.11389594099943778e+00
88 21 2.18590269204931076e+00
89 21 2.25179896203694341e+00
90 21 2.31144651595815320e+00
91 21 2.36475948501209521e+00
92 21 2.41170345577918610e+00
93 21 2.45229362858655398e+00
94 21 2.48659215027957581e+00
95 21 2.51470474731108729e+00
96 21 2.53677679844401727e+00
97 21 2.55298899246134914e+00
98 21 2.56355271558016540e+00
99 21 2.56870530663421048e+00
100 21 2.56870530663421004e+00
101 21 2.56870530663421048e+00
102 21 2.56355271558016673e+00
103 21 2.55298899246135047e+00
104 21 2.53677679844401682e+00
105 21 2.51470474731108729e+00
106 21 2.48659215027957670e+00
107 21 2.45229362858655575e+00
108 21 2.41170345577918699e+00
109 21 2.36475948501209521e+00
110 21 2.31144651595815320e+00
111 21 2.25179896203694385e+00
112 21 2.18590269204931031e+00
113 21 2.11389594099943956e+00
114 21 2.03596921237632378e+00
115 21 1.95236412738979426e+00
116 21 1.86337121403112493e+00
117 21 1.76932666835071406e+00
118 21 1.67060815973520471e+00
119 21 1.56762978885290716e+00
120 21 1.46083633906233157e+00
121 21 1.35069698750044065e+00
122 21 1.23769865932569290e+00
123 21 1.12233921683326887e+00
124 21 1.00512067419799944e+00
125 21 8.86542618901821178e-01
126 21 7.67096003515719160e-01
127 21 6.47257447935768226e-01
128 21 5.27484164220178298e-01
129 21 4.08209585764459704e-01
130 21 2.89839751569430371e-01
131 21 1.72750466503838379e-01
132 21 5.72852311541926229e-02
133 21 6.29151346344480916e-16
1 22 0.00000000000000000e+00
2 22 -5.63290138044962932e-02
3 22 -1.69866878711473351e-01
4 22 -2.85001684348644868e-01
5 22 -4.01395663914874246e-01
6 22 -5.18679285556784775e-01
7 22 -6.36453287963539394e-01
8 22 -7.54291472702713017e-01
9 22 -8.71744259597712845e-01
10 22 -9.88342984593866380e-01
11 22 -1.10360489020567409e+00
12 22 -1.21703872817246439e+00
13 22 -1.32815086404755145e+00
14 22 -1.43645174595983582e+00
15 22 -1.54146257660990704e+00
16 22 -1.64272201046608068e+00
17 22 -1.73979268858894298e+00
18 22 -1.83226742256724529e+00
19 22 -1.91977484715264701e+00
20 22 -2.00198437815124386e+00
21 22 -2.07861033712722332e+00
22 22 -2.14941513606375301e+00
23 22 -2.21421145139688269e+00
24 22 -2.27286335557072716e+00
25 22 -2.32528641312486251e+00
26 22 -2.37144678507587781e+00
27 22 -2.41135941802378140e+00
28 22 -2.44508542144549690e+00
29 22 -2.47272875698526073e+00
30 22 -2.49443237671254803e+00
31 22 -2.51037395331447177e+00
32 22 -2.52076134450409661e+00
33 22 -2.52582792740451278e+00
34 22 -2.52582792740451278e+00
35 22 -2.52582792740451278e+00
36 22 -2.52076134450409794e+00
37 22 -2.51037395331447266e+00
38 22 -2.49443237671254758e+00
39 22 -2.47272875698526073e+00
40 22 -2.44508542144549779e+00
41 22 -2.41135941802378273e+00
42 22 -2.37144678507587781e+00
43 22 -2.32528641312486295e+00
44 22 -2.27286335557072716e+00
45 22 -2.21421145139688180e+00
46 22 -2.14941513606375256e+00
47 22 -2.07861033712722332e+00
48 22 -2.00198437815124297e+00
49 22 -1.91977484715264723e+00
50 22 -1.83226742256724440e+00
51 22 -1.73979268858894165e+00
52 22 -1.64272201046608046e+00
53 22 -1.54146257660990749e+00
54 22 -1.43645174595983516e+00
55 22 -1.32815086404755145e+00
56 22 -1.21703872817246439e+00
57 22 -1.10360489020567365e+00
58 22 -9.88342984593866380e-01
59 22 -8.71744259597712734e-01
60 22 -7.54291472702712906e-01
61 22 -6.36453287963539616e-01
62 22 -5.18679285556784775e-01
63 22 -4.01395663914874301e-01
64 22 -2.85001684348645035e-01
65 22 -1.69866878711473601e-01
66 22 -5.63290138044965638e-02
67 22 -3.09324708649292839e-16
68 22 5.63290138044960156e-02
69 22 1.69866878711473102e-01
70 22 2.85001684348644646e-01
71 22 4.01395663914874024e-01
72 22 5.18679285556784553e-01
73 22 6.36453287963539394e-01
74 22 7.54291472702712906e-01
75 22 8.71744259597712845e-01
76 22 9.88342984593866380e-01
77 22 1.10360489020567409e+00
78 22 1.21703872817246439e+00
79 22 1.32815086404755145e+00
80 22 1.43645174595983582e+00
81 22 1.54146257660990704e+00
82 22 1.64272201046608068e+00
83 22 1.73979268858894232e+00
84 22 1.83226742256724440e+00
85 22 1.91977484715264701e+00
86 22 2.00198437815124386e+00
87 22 2.07861033712722332e+00
88 22 2.14941513606375301e+00
89 22 2.21421145139688136e+00
90 22 2.27286335557072716e+00
91 22 2.32528641312486251e+00
92 22 2.37144678507587692e+00
93 22 2.41135941802378140e+00
94 22 2.44508542144549690e+00
95 22 2.47272875698526073e+00
96 22 2.49443237671254803e+00
97 22 2.51037395331447177e+00
98 22 2.52076134450409661e+00
99 22 2.52582792740451278e+00
100 22 2.52582792740451278e+00
101 22 2.52582792740451278e+00
102 22 2.52076134450409794e+00
103 22 2.51037395331447266e+00
104 22 2.49443237671254758e+00
105 22 2.47272875698526073e+00
106 22 2.44508542144549779e+00
107 22 2.41135941802378273e+00
108 22 2.37144678507587781e+00
109 22 2.32528641312486295e+00
110 22 2.27286335557072716e+00
111 22 2.21421145139688180e+00
112 22 2.14941513606375256e+00
113 22 2.07861033712722465e+00
114 22 2.00198437815124297e+00
115 22 1.91977484715264723e+00
116 22 1.83226742256724440e+00
117 22 1.73979268858894232e+00
118 22 1.64272201046608046e+00
119 22 1.54146257660990749e+00
120 22 1.43645174595983516e+00
121 22 1.32815086404755145e+00
122 22 1.21703872817246439e+00
123 22 1.10360489020567409e+00
124 22 9.88342984593867158e-01
125 22 8.71744259597712956e-01
126 22 7.54291472702713572e-01
127 22 6.36453287963539838e-01
128 22 5.18679285556784997e-01
129 22 4.01395663914874412e-01
130 22 2.85001684348645257e-01
131 22 1.69866878711473906e-01
132 22 5.63290138044968622e-02
133 22 6.18649417298585678e-16
1 23 0.00000000000000000e+00
2 23 -5.53479751443350307e-02
3 23 -1.66908439288492055e-01
4 23 -2.80038031487128303e-01
5 23 -3.94404867561003847e-01
6 23 -5.09645851505869163e-01
7 23 -6.25368675634872306e-01
8 23 -7.41154564282486716e-01
9 23 -8.56561767260686668e-01
10 23 -9.71129782872441227e-01
11 23 -1.08438426144422473e+00
12 23 -1.19584251040457290e+00
13 23 -1.30501949255435434e+00
14 23 -1.41143418216697847e+00
15 23 -1.51461612078352448e+00
16 23 -1.61411199776892222e+00
17 23 -1.70949207132453407e+00
18 23 -1.80035624472324374e+00
19 23 -1.88633962049665338e+00
20 23 -1.96711737197886727e+00
21 23 -2.04240879617338811e+00
22 23 -2.11198044294924303e+00
23 23 -2.17564825121142658e+00
24 23 -2.23327866074866455e+00
25 23 -2.28478870664733291e+00
26 23 -2.33014513927129840e+00
27 23 -2.36936264490725224e+00
28 23 -2.40250126873584557e+00
29 23 -2.42966316178214736e+00
30 23 -2.45098878643052531e+00
31 23 -2.46665272098097121e+00
32 23 -2.47685920305028739e+00
33 23 -2.48183754521356814e+00
34 23 -2.48183754521356814e+00
35 23 -2.48183754521356814e+00
36 23 -2.47685920305028828e+00
37 23 -2.46665272098097210e+00
38 23 -2.45098878643052442e+00
39 23 -2.42966316178214736e+00
40 23 -2.40250126873584646e+00
41 23 -2.36936264490725357e+00
42 23 -2.33014513927129840e+00
43 23 -2.28478870664733380e+00
44 23 -2.23327866074866455e+00
45 23 -2.17564825121142569e+00
46 23 -2.11198044294924259e+00
47 23 -2.04240879617338811e+00
48 23 -1.96711737197886638e+00
49 23 -1.88633962049665382e+00
50 23 -1.80035624472324329e+00
51 23 -1.70949207132453296e+00
52 23 -1.61411199776892200e+00
53 23 -1.51461612078352492e+00
54 23 -1.41143418216697780e+00
55 23 -1.30501949255435434e+00
56 23 -1.19584251040457290e+00
57 23 -1.08438426144422428e+00
58 23 -9.71129782872441116e-01
59 23 -8.56561767260686557e-01
60 23 -7.41154564282486494e-01
61 23 -6.25368675634872528e-01
62 23 -5.09645851505869163e-01
63 23 -3.94404867561003958e-01
64 23 -2.80038031487128414e-01
65 23 -1.66908439288492305e-01
66 23 -5.53479751443353013e-02
67 23 -3.03937440574951885e-16
68 23 5.53479751443347601e-02
69 23 1.66908439288491806e-01
70 23 2.80038031487128081e-01
71 23 3.94404867561003680e-01
72 23 5.09645851505869052e-01
73 23 6.25368675634872306e-01
74 23 7.41154564282486494e-01
75 23 8.56561767260686668e-01
76 23 9.71129782872441227e-01
77 23 1.08438426144422473e+00
78 23 1.19584251040457290e+00
79 23 1.30501949255435434e+00
80 23 1.41143418216697847e+00
81 23 1.51461612078352448e+00
82 23 1.61411199776892222e+00
83 23 1.70949207132453340e+00
84 23 1.80035624472324329e+00
85 23 1.88633962049665338e+00
86 23 1.96711737197886727e+00
87 23 2.04240879617338811e+00
88 23 2.11198044294924303e+00
89 23 2.17564825121142569e+00
90 23 2.23327866074866455e+00
91 23 2.28478870664733291e+00
92 23 2.33014513927129752e+00
93 23 2.36936264490725224e+00
94 23 2.40250126873584557e+00
95 23 2.42966316178214736e+00
96 23 2.45098878643052531e+00
97 23 2.46665272098097121e+00
98 23 2.47685920305028739e+00
99 23 2.48183754521356814e+00
100 23 2.48183754521356814e+00
101 23 2.48183754521356814e+00
102 23 2.47685920305028828e+00
103 23 2.46665272098097210e+00
104 23 2.45098878643052442e+00
105 23 2.42966316178214736e+00
106 23 2.40250126873584646e+00
107 23 2.36936264490725357e+00
108 23 2.33014513927129840e+00
109 23 2.28478870664733380e+00
110 23 2.23327866074866455e+00
111 23 2.17564825121142569e+00
112 23 2.11198044294924259e+00
113 23 2.04240879617338900e+00
114 23 1.96711737197886638e+00
115 23 1.88633962049665382e+00
116 23 1.80035624472324329e+00
117 23 1.70949207132453340e+00
118 23 1.61411199776892200e+00
119 23 1.51461612078352492e+00
120 23 1.41143418216697780e+00
121 23 1.30501949255435434e+00
122 23 1.19584251040457290e+00
123 23 1.08438426144422473e+00
124 23 9.71129782872441782e-01
125 23 8.56561767260686890e-01
126 23 7.41154564282487271e-01
127 23 6.25368675634872639e-01
128 23 5.09645851505869496e-01
129 23 3.94404867561004013e-01
130 23 2.80038031487128636e-01
131 23 1.66908439288492638e-01
132 23 5.53479751443355997e-02
133 23 6.07874881149903771e-16
1 24 0.00000000000000000e+00
2 24 -5.43464375576487718e-02
3 24 -1.63888182900672363e-01
4 24 -2.74970662473093208e-01
5 24 -3.87267997635694750e-01
6 24 -5.00423662711233730e-01
7 24 -6.14052448933693151e-01
8 24 -7.27743158504095544e-01
9 24 -8.41062034831581151e-01
10 24 -9.53556909130252150e-01
11 24 -1.06476201522084946e+00
12 24 -1.17420339499331994e+00
13 24 -1.28140478813665948e+00
14 24 -1.38589387322364987e+00
15 24 -1.48720870487698487e+00
16 24 -1.58490417524838545e+00
17 24 -1.67855831884110818e+00
18 24 -1.76777827879380367e+00
19 24 -1.85220576056309372e+00
20 24 -1.93152181531536438e+00
21 24 -2.00545081945586734e+00
22 24 -2.07376354720113465e+00
23 24 -2.13627926809480595e+00
24 24 -2.19286683873618315e+00
25 24 -2.24344479548570197e+00
26 24 -2.28798049036899220e+00
27 24 -2.32648834392014825e+00
28 24 -2.35902731478494632e+00
29 24 -2.38569770553616856e+00
30 24 -2.40663743685079368e+00
31 24 -2.42201792798408189e+00
32 24 -2.43203972081420616e+00
33 24 -2.43692797843902031e+00
34 24 -2.43692797843902031e+00
35 24 -2.43692797843901987e+00
36 24 -2.43203972081420661e+00
37 24 -2.42201792798408277e+00
38 24 -2.40663743685079323e+00
39 24 -2.38569770553616856e+00
40 24 -2.35902731478494720e+00
41 24 -2.32648834392014958e+00
42 24 -2.28798049036899176e+00
43 24 -2.24344479548570241e+00
44 24 -2.19286683873618315e+00
45 24 -2.13627926809480506e+00
46 24 -2.07376354720113465e+00
47 24 -2.00545081945586734e+00
48 24 -1.93152181531536371e+00
49 24 -1.85220576056309416e+00
50 24 -1.76777827879380345e+00
51 24 -1.67855831884110729e+00
52 24 -1.58490417524838545e+00
53 24 -1.48720870487698487e+00
54 24 -1.38589387322364899e+00
55 24 -1.28140478813665948e+00
56 24 -1.17420339499331994e+00
57 24 -1.06476201522084901e+00
58 24 -9.53556909130252262e-01
59 24 -8.41062034831580929e-01
60 24 -7.27743158504095322e-01
61 24 -6.14052448933693262e-01
62 24 -5.00423662711233730e-01
63 24 -3.87267997635694916e-01
64 24 -2.74970662473093375e-01
65 24 -1.63888182900672585e-01
66 24 -5.43464375576490424e-02
67 24 -2.98437604854797490e-16
68 24 5.43464375576485081e-02
69 24 1.63888182900672114e-01
70 24 2.74970662473093042e-01
71 24 3.87267997635694639e-01
72 24 5.00423662711233619e-01
73 24 6.14052448933693151e-01
74 24 7.27743158504095322e-01
75 24 8.41062034831581151e-01
76 24 9.53556909130252150e-01
77 24 1.06476201522084946e+00
78 24 1.17420339499331994e+00
79 24 1.28140478813665948e+00
80 24 1.38589387322364987e+00
81 24 1.48720870487698487e+00
82 24 1.58490417524838545e+00
83 24 1.67855831884110751e+00
84 24 1.76777827879380345e+00
85 24 1.85220576056309372e+00
86 24 1.93152181531536438e+00
87 24 2.00545081945586734e+00
88 24 2.07376354720113465e+00
89 24 2.13627926809480506e+00
90 24 2.19286683873618315e+00
91 24 2.24344479548570197e+00
92 24 2.28798049036899132e+00
93 24 2.32648834392014825e+00
94 24 2.35902731478494632e+00
95 24 2.38569770553616856e+00
96 24 2.40663743685079368e+00
97 24 2.42201792798408189e+00
98 24 2.43203972081420616e+00
99 24 2.43692797843902031e+00
100 24 2.43692797843902031e+00
101 24 2.43692797843901987e+00
102 24 2.43203972081420661e+00
103 24 2.42201792798408277e+00
104 24 2.40663743685079323e+00
105 24 2.38569770553616856e+00
106 24 2.35902731478494720e+00
107 24 2.32648834392014958e+00
108 24 2.28798049036899176e+00
109 24 2.24344479548570241e+00
110 24 2.19286683873618315e+00
111 24 2.13627926809480506e+00
112 24 2.07376354720113465e+00
113 24 2.00545081945586778e+00
114 24 1.93152181531536371e+00
115 24 1.85220576056309416e+00
116 24 1.76777827879380345e+00
117 24 1.67855831884110751e+00
118 24 1.58490417524838545e+00
119 24 1.48720870487698487e+00
120 24 1.38589387322364899e+00
121 24 1.28140478813665948e+00
122 24 1.17420339499331994e+00
123 24 1.06476201522084946e+00
124 24 9.53556909130252928e-01
125 24 8.41062034831581262e-01
126 24 7.27743158504096099e-01
127 24 6.14052448933693373e-01
128 24 5.00423662711234063e-01
129 24 3.87267997635694972e-01
130 24 2.74970662473093541e-01
131 24 1.63888182900672918e-01
132 24 5.43464375576493408e-02
133 24 5.96875209709594981e-16
1 25 0.00000000000000000e+00
2 25 -5.33287594745259566e-02
3 25 -1.60819252915263139e-01
4 25 -2.69821629173462585e-01
5 25 -3.80016111933515199e-01
6 25 -4.91052851730715390e-01
7 25 -6.02553853124081273e-01
8 25 -7.14115618303938327e-01
9 25 -8.25312513099142886e-01
10 25 -9.35700835925770136e-01
11 25 -1.04482354242799125e+00
12 25 -1.15221554971927542e+00
13 25 -1.25740951582259064e+00
14 25 -1.35994196388611854e+00
15 25 -1.45935959880858235e+00
16 25 -1.55522564772228566e+00
17 25 -1.64712604675306107e+00
18 25 -1.73467529558095390e+00
19 25 -1.81752180899847815e+00
20 25 -1.89535261072978445e+00
21 25 -1.96789723844007369e+00
22 25 -2.03493075877177443e+00
23 25 -2.09627582558279979e+00
24 25 -2.15180375123166412e+00
25 25 -2.20143459754697002e+00
26 25 -2.24513632791232309e+00
27 25 -2.28292309282642636e+00
28 25 -2.31485274688989140e+00
29 25 -2.34102371443408108e+00
30 25 -2.36157133346714643e+00
31 25 -2.37666381328934584e+00
32 25 -2.38649794048074249e+00
33 25 -2.39129466179015093e+00
34 25 -2.39129466179015138e+00
35 25 -2.39129466179015049e+00
36 25 -2.38649794048074249e+00
37 25 -2.37666381328934628e+00
38 25 -2.36157133346714598e+00
39 25 -2.34102371443408108e+00
40 25 -2.31485274688989229e+00
41 25 -2.28292309282642769e+00
42 25 -2.24513632791232265e+00
43 25 -2.20143459754697046e+00
44 25 -2.15180375123166368e+00
45 25 -2.09627582558279890e+00
46 25 -2.03493075877177443e+00
47 25 -1.96789723844007369e+00
48 25 -1.89535261072978378e+00
49 25 -1.81752180899847882e+00
50 25 -1.73467529558095390e+00
51 25 -1.64712604675306018e+00
52 25 -1.55522564772228566e+00
53 25 -1.45935959880858213e+00
54 25 -1.35994196388611766e+00
55 25 -1.25740951582259064e+00
56 25 -1.15221554971927542e+00
57 25 -1.04482354242799103e+00
58 25 -9.35700835925770136e-01
59 25 -8.25312513099142664e-01
60 25 -7.14115618303938104e-01
61 25 -6.02553853124081384e-01
62 25 -4.91052851730715501e-01
63 25 -3.80016111933515310e-01
64 25 -2.69821629173462807e-01
65 25 -1.60819252915263389e-01
66 25 -5.33287594745262203e-02
67 25 -2.92849135337945964e-16
68 25 5.33287594745256929e-02
69 25 1.60819252915262917e-01
70 25 2.69821629173462418e-01
71 25 3.80016111933515088e-01
72 25 4.91052851730715334e-01
73 25 6.02553853124081273e-01
74 25 7.14115618303938104e-01
75 25 8.25312513099142886e-01
76 25 9.35700835925770136e-01
77 25 1.04482354242799125e+00
78 25 1.15221554971927542e+00
79 25 1.25740951582259064e+00
80 25 1.35994196388611854e+00
81 25 1.45935959880858235e+00
82 25 1.55522564772228566e+00
83 25 1.64712604675306018e+00
84 25 1.73467529558095390e+00
85 25 1.81752180899847815e+00
86 25 1.89535261072978445e+00
87 25 1.96789723844007369e+00
88 25 2.03493075877177443e+00
89 25 2.09627582558279890e+00
90 25 2.15180375123166412e+00
91 25 2.20143459754697002e+00
92 25 2.24513632791232220e+00
93 25 2.28292309282642636e+00
94 25 2.31485274688989140e+00
95 25 2.34102371443408108e+00
96 25 2.36157133346714643e+00
97 25 2.37666381328934584e+00
98 25 2.38649794048074249e+00
99 25 2.39129466179015093e+00
100 25 2.39129466179015138e+00
101 25 2.39129466179015049e+00
102 25 2.38649794048074249e+00
103 25 2.37666381328934628e+00
104 25 2.36157133346714598e+00
105 25 2.34102371443408108e+00
106 25 2.31485274688989229e+00
107 25 2.28292309282642769e+00
108 25 2.24513632791232265e+00
109 25 2.20143459754697046e+00
110 25 2.15180375123166368e+00
111 25 2.09627582558279890e+00
112 25 2.03493075877177443e+00
113 25 1.96789723844007414e+00
114 25 1.89535261072978378e+00
115 25 1.81752180899847882e+00
116 25 1.73467529558095390e+00
117 25 1.64712604675306018e+00
118 25 1.55522564772228566e+00
119 25 1.45935959880858213e+00
120 25 1.35994196388611766e+00
121 25 1.25740951582259064e+00
122 25 1.15221554971927542e+00
123 25 1.04482354242799125e+00
124 25 9.35700835925770691e-01
125 25 8.25312513099142997e-01
126 25 7.14115618303938882e-01
127 25 6.02553853124081495e-01
128 25 4.91052851730715723e-01
129 25 3.80016111933515366e-01
130 25 2.69821629173462973e-01
131 25 1.60819252915263694e-01
132 25 5.33287594745265117e-02
133 25 5.85698270675891929e-16
1 26 0.00000000000000000e+00
2 26 -5.22992782567827108e-02
3 26 -1.57714729165618267e-01
4 26 -2.64612876858351109e-01
5 26 -3.72680118118353498e-01
6 26 -4.81573357124854329e-01
7 26 -5.90921895422789278e-01
8 26 -7.00330024497050840e-01
9 26 -8.09380326800867800e-01
10 26 -9.17637666155763032e-01
11 26 -1.02465382118593995e+00
12 26 -1.12997268716414090e+00
13 26 -1.23313594388305714e+00
14 26 -1.33368906164656065e+00
15 26 -1.43118749595619121e+00
16 26 -1.52520290559479488e+00
17 26 -1.61532921995460632e+00
18 26 -1.70118838057898669e+00
19 26 -1.78243558941190705e+00
20 26 -1.85876391200561830e+00
21 26 -1.92990810714609373e+00
22 26 -1.99564758368565087e+00
23 26 -2.05580841904810274e+00
24 26 -2.11026440983332098e+00
25 26 -2.15893716103061273e+00
26 26 -2.20179525447214974e+00
27 26 -2.23885256748934625e+00
28 26 -2.27016583783282133e+00
29 26 -2.29583158980848134e+00
30 26 -2.31598254880159216e+00
31 26 -2.33078367692802368e+00
32 26 -2.34042796191539759e+00
33 26 -2.34513208526184069e+00
34 26 -2.34513208526184069e+00
35 26 -2.34513208526184025e+00
36 26 -2.34042796191539715e+00
37 26 -2.33078367692802368e+00
38 26 -2.31598254880159171e+00
39 26 -2.29583158980848090e+00
40 26 -2.27016583783282222e+00
41 26 -2.23885256748934758e+00
42 26 -2.20179525447214930e+00
43 26 -2.15893716103061273e+00
44 26 -2.11026440983332053e+00
45 26 -2.05580841904810185e+00
46 26 -1.99564758368565087e+00
47 26 -1.92990810714609373e+00
48 26 -1.85876391200561764e+00
49 26 -1.78243558941190772e+00
50 26 -1.70118838057898669e+00
51 26 -1.61532921995460543e+00
52 26 -1.52520290559479488e+00
53 26 -1.43118749595619121e+00
54 26 -1.33368906164655976e+00
55 26 -1.23313594388305714e+00
56 26 -1.12997268716414090e+00
57 26 -1.02465382118593995e+00
58 26 -9.17637666155763032e-01
59 26 -8.09380326800867578e-01
60 26 -7.00330024497050840e-01
61 26 -5.90921895422789389e-01
62 26 -4.81573357124854384e-01
63 26 -3.72680118118353609e-01
64 26 -2.64612876858351276e-01
65 26 -1.57714729165618517e-01
66 26 -5.22992782567829675e-02
67 26 -2.87195850179367022e-16
68 26 5.22992782567824541e-02
69 26 1.57714729165618045e-01
70 26 2.64612876858350887e-01
71 26 3.72680118118353332e-01
72 26 4.81573357124854273e-01
73 26 5.90921895422789278e-01
74 26 7.00330024497050840e-01
75 26 8.09380326800867800e-01
76 26 9.17637666155763032e-01
77 26 1.02465382118593995e+00
78 26 1.12997268716414090e+00
79 26 1.23313594388305714e+00
80 26 1.33368906164656065e+00
81 26 1.43118749595619121e+00
82 26 1.52520290559479488e+00
83 26 1.61532921995460543e+00
84 26 1.70118838057898669e+00
85 26 1.78243558941190705e+00
86 26 1.85876391200561830e+00
87 26 1.92990810714609373e+00
88 26 1.99564758368565087e+00
89 26 2.05580841904810185e+00
90 26 2.11026440983332098e+00
91 26 2.15893716103061228e+00
92 26 2.20179525447214886e+00
93 26 2.23885256748934625e+00
94 26 2.27016583783282133e+00
95 26 2.29583158980848134e+00
96 26 2.31598254880159216e+00
97 26 2.33078367692802368e+00
98 26 2.34042796191539759e+00
99 26 2.34513208526184069e+00
100 26 2.34513208526184069e+00
101 26 2.34513208526184025e+00
102 26 2.34042796191539715e+00
103 26 2.33078367692802368e+00
104 26 2.31598254880159171e+00
105 26 2.29583158980848090e+00
106 26 2.27016583783282222e+00
107 26 2.23885256748934758e+00
108 26 2.20179525447214930e+00
109 26 2.15893716103061273e+00
110 26 2.11026440983332053e+00
111 26 2.05580841904810185e+00
112 26 1.99564758368565087e+00
113 26 1.92990810714609373e+00
114 26 1.85876391200561764e+00
115 26 1.78243558941190772e+00
116 26 1.70118838057898669e+00
117 26 1.61532921995460543e+00
118 26 1.52520290559479488e+00
119 26 1.43118749595619121e+00
120 26 1.33368906164655976e+00
121 26 1.23313594388305714e+00
122 26 1.12997268716414090e+00
123 26 1.02465382118593995e+00
124 26 9.17637666155763587e-01
125 26 8.09380326800867911e-01
126 26 7.00330024497051395e-01
127 26 5.90921895422789389e-01
128 26 4.81573357124854717e-01
129 26 3.72680118118353720e-01
130 26 2.64612876858351498e-01
131 26 1.57714729165618822e-01
132 26 5.22992782567832520e-02
133 26 5.74391700358734044e-16
1 27 0.00000000000000000e+00
2 27 -5.12622562989183128e-02
3 27 -1.54587465412180713e-01
4 27 -2.59365971494027348e-01
5 27 -3.65290389643503965e-01
6 27 -4.72024427152839432e-01
7 27 -5.79204736001821541e-01
8 27 -6.86443454024905697e-01
9 27 -7.93331440484791428e-01
10 27 -8.99442187348299060e-01
11 27 -1.00433636084619482e+00
12 27 -1.10756690017368142e+00
13 27 -1.20868457297579779e+00
14 27 -1.30724386224819855e+00
15 27 -1.40280903819162317e+00
16 27 -1.49496025299957958e+00
17 27 -1.58329948787975439e+00
18 27 -1.66745618074895607e+00
19 27 -1.74709237041711396e+00
20 27 -1.82190720851973920e+00
21 27 -1.89164071320722149e+00
22 27 -1.95607666734757268e+00
23 27 -2.01504459700742533e+00
24 27 -2.06842080122457173e+00
25 27 -2.11612843945236095e+00
26 27 -2.15813671650154015e+00
27 27 -2.19445923453534153e+00
28 27 -2.22515160627369069e+00
29 27 -2.25030844207973901e+00
30 27 -2.27005983557893876e+00
31 27 -2.28456747791780534e+00
32 27 -2.29402053014569995e+00
33 27 -2.29863137726797051e+00
34 27 -2.29863137726797051e+00
35 27 -2.29863137726796962e+00
36 27 -2.29402053014569995e+00
37 27 -2.28456747791780534e+00
38 27 -2.27005983557893831e+00
39 27 -2.25030844207973901e+00
40 27 -2.22515160627369113e+00
41 27 -2.19445923453534242e+00
42 27 -2.15813671650153971e+00
43 27 -2.11612843945236095e+00
44 27 -2.06842080122457128e+00
45 27 -2.01504459700742489e+00
46 27 -1.95607666734757268e+00
47 27 -1.89164071320722149e+00
48 27 -1.82190720851973875e+00
49 27 -1.74709237041711463e+00
50 27 -1.66745618074895630e+00
51 27 -1.58329948787975372e+00
52 27 -1.49496025299957980e+00
53 27 -1.40280903819162295e+00
54 27 -1.30724386224819789e+00
55 27 -1.20868457297579779e+00
56 27 -1.10756690017368142e+00
57 27 -1.00433636084619482e+00
58 27 -8.99442187348299060e-01
59 27 -7.93331440484791206e-01
60 27 -6.86443454024905697e-01
61 27 -5.79204736001821652e-01
62 27 -4.72024427152839432e-01
63 27 -3.65290389643504076e-01
64 27 -2.59365971494027514e-01
65 27 -1.54587465412180963e-01
66 27 -5.12622562989185696e-02
67 27 -2.81501155859089127e-16
68 27 5.12622562989180630e-02
69 27 1.54587465412180519e-01
70 27 2.59365971494027125e-01
71 27 3.65290389643503799e-01
72 27 4.72024427152839376e-01
73 27 5.79204736001821541e-01
74 27 6.86443454024905697e-01
75 27 7.93331440484791428e-01
76 27 8.99442187348299060e-01
77 27 1.00433636084619482e+00
78 27 1.10756690017368142e+00
79 27 1.20868457297579779e+00
80 27 1.30724386224819855e+00
81 27 1.40280903819162317e+00
82 27 1.49496025299957958e+00
83 27 1.58329948787975372e+00
84 27 1.66745618074895607e+00
85 27 1.74709237041711396e+00
86 27 1.82190720851973920e+00
87 27 1.89164071320722149e+00
88 27 1.95607666734757268e+00
89 27 2.01504459700742444e+00
90 27 2.06842080122457173e+00
91 27 2.11612843945236007e+00
92 27 2.15813671650153927e+00
93 27 2.19445923453534153e+00
94 27 2.22515160627369069e+00
95 27 2.25030844207973901e+00
96 27 2.27005983557893876e+00
97 27 2.28456747791780534e+00
98 27 2.29402053014569995e+00
99 27 2.29863137726797051e+00
100 27 2.29863137726797051e+00
101 27 2.29863137726796962e+00
102 27 2.29402053014569995e+00
103 27 2.28456747791780534e+00
104 27 2.27005983557893831e+00
105 27 2.25030844207973901e+00
106 27 2.22515160627369113e+00
107 27 2.19445923453534242e+00
108 27 2.15813671650153971e+00
109 27 2.11612843945236095e+00
110 27 2.06842080122457128e+00
111 27 2.01504459700742489e+00
112 27 1.95607666734757268e+00
113 27 1.89164071320722149e+00
114 27 1.82190720851973875e+00
115 27 1.74709237041711463e+00
116 27 1.66745618074895630e+00
117 27 1.58329948787975372e+00
118 27 1.49496025299957980e+00
119 27 1.40280903819162295e+00
120 27 1.30724386224819789e+00
121 27 1.20868457297579779e+00
122 27 1.10756690017368142e+00
123 27 1.00433636084619482e+00
124 27 8.99442187348299615e-01
125 27 7.93331440484791650e-01
126 27 6.86443454024906030e-01
127 27 5.79204736001821652e-01
128 27 4.72024427152839710e-01
129 27 3.65290389643504188e-01
130 27 2.59365971494027736e-01
131 27 1.54587465412181269e-01
132 27 5.12622562989188610e-02
133 27 5.63002311718178254e-16
1 28 0.00000000000000000e+00
2 28 -5.02218315607752611e-02
3 28 -1.51449940167802027e-01
4 28 -2.54101849458482298e-01
5 28 -3.57876413251695447e-01
6 28 -4.62444164275725655e-01
7 28 -5.67449129064195756e-01
8 28 -6.72511317547351717e-01
9 28 -7.77229892956060042e-01
10 28 -8.81187003713972405e-01
11 28 -9.83952232821322825e-01
12 28 -1.08508759307159752e+00
13 28 -1.18415296978215445e+00
14 28 -1.28071188821377802e+00
15 28 -1.37433746219007991e+00
16 28 -1.46461836518466137e+00
17 28 -1.55116465664108127e+00
18 28 -1.63361329544744893e+00
19 28 -1.71163317971345941e+00
20 28 -1.78492956712815043e+00
21 28 -1.85324775246388218e+00
22 28 -1.91637590695681737e+00
23 28 -1.97414701663244152e+00
24 28 -2.02643989117771639e+00
25 28 -2.07317924961069666e+00
26 28 -2.11433492176488480e+00
27 28 -2.14992023373242080e+00
28 28 -2.17998966951097417e+00
29 28 -2.20463591924072100e+00
30 28 -2.22398643615170499e+00
31 28 -2.23819962968805575e+00
32 28 -2.24746082166439365e+00
33 28 -2.25197808649520503e+00
34 28 -2.25197808649520548e+00
35 28 -2.25197808649520459e+00
36 28 -2.24746082166439365e+00
37 28 -2.23819962968805530e+00
38 28 -2.22398643615170455e+00
39 28 -2.20463591924072144e+00
40 28 -2.17998966951097506e+00
41 28 -2.14992023373242169e+00
42 28 -2.11433492176488436e+00
43 28 -2.07317924961069666e+00
44 28 -2.02643989117771595e+00
45 28 -1.97414701663244130e+00
46 28 -1.91637590695681737e+00
47 28 -1.85324775246388218e+00
48 28 -1.78492956712815021e+00
49 28 -1.71163317971346007e+00
50 28 -1.63361329544744915e+00
51 28 -1.55116465664108105e+00
52 28 -1.46461836518466182e+00
53 28 -1.37433746219007991e+00
54 28 -1.28071188821377757e+00
55 28 -1.18415296978215445e+00
56 28 -1.08508759307159752e+00
57 28 -9.83952232821322825e-01
58 28 -8.81187003713972405e-01
59 28 -7.77229892956059820e-01
60 28 -6.72511317547351717e-01
61 28 -5.67449129064195867e-01
62 28 -4.62444164275725655e-01
63 28 -3.57876413251695558e-01
64 28 -2.54101849458482465e-01
65 28 -1.51449940167802277e-01
66 28 -5.02218315607755109e-02
67 28 -2.75787775537633356e-16
68 28 5.02218315607750113e-02
69 28 1.51449940167801833e-01
70 28 2.54101849458482076e-01
71 28 3.57876413251695280e-01
72 28 4.62444164275725600e-01
73 28 5.67449129064195756e-01
74 28 6.72511317547351717e-01
75 28 7.77229892956060042e-01
76 28 8.81187003713972405e-01
77 28 9.83952232821322825e-01
78 28 1.08508759307159752e+00
79 28 1.18415296978215445e+00
80 28 1.28071188821377802e+00
81 28 1.37433746219007991e+00
82 28 1.46461836518466137e+00
83 28 1.55116465664108105e+00
84 28 1.63361329544744893e+00
85 28 1.71163317971345941e+00
86 28 1.78492956712815043e+00
87 28 1.85324775246388218e+00
88 28 1.91637590695681714e+00
89 28 1.97414701663244063e+00
90 28 2.02643989117771639e+00
91 28 2.07317924961069577e+00
92 28 2.11433492176488391e+00
93 28 2.14992023373242080e+00
94 28 2.17998966951097417e+00
95 28 2.20463591924072100e+00
96 28 2.22398643615170499e+00
97 28 2.23819962968805575e+00
98 28 2.24746082166439365e+00
99 28 2.25197808649520503e+00
100 28 2.25197808649520548e+00
101 28 2.25197808649520459e+00
102 28 2.24746082166439365e+00
103 28 2.23819962968805530e+00
104 28 2.22398643615170455e+00
105 28 2.20463591924072144e+00
106 28 2.17998966951097506e+00
107 28 2.14992023373242169e+00
108 28 2.11433492176488436e+00
109 28 2.07317924961069666e+00
110 28 2.02643989117771595e+00
111 28 1.97414701663244130e+00
112 28 1.91637590695681737e+00
113 28 1.85324775246388218e+00
114 28 1.78492956712815021e+00
115 28 1.71163317971346007e+00
116 28 1.63361329544744915e+00
117 28 1.55116465664108105e+00
118 28 1.46461836518466182e+00
119 28 1.37433746219007991e+00
120 28 1.28071188821377757e+00
121 28 1.18415296978215445e+00
122 28 1.08508759307159752e+00
123 28 9.83952232821322825e-01
124 28 8.81187003713972961e-01
125 28 7.77229892956060153e-01
126 28 6.72511317547352050e-01
127 28 5.67449129064195867e-01
128 28 4.62444164275725877e-01
129 28 3.57876413251695724e-01
130 28 2.54101849458482687e-01
131 28 1.51449940167802527e-01
132 28 5.02218315607757954e-02
133 28 5.51575551075266712e-16
1 29 0.00000000000000000e+00
2 29 -4.91819735055503762e-02
3 29 -1.48314123823544725e-01
4 29 -2.48840594605855336e-01
5 29 -3.50466474993182786e-01
6 29 -4.52869119432290801e-01
7 29 -5.55699924993976024e-01
8 29 -6.58586769416619977e-01
9 29 -7.61137115376375517e-01
10 29 -8.62941763038856835e-01
11 29 -9.63579207317113884e-01
12 29 -1.06262052966084486e+00
13 29 -1.15963472809364987e+00
14 29 -1.25419436521643846e+00
15 29 -1.34588139365888249e+00
16 29 -1.43429300353343314e+00
17 29 -1.51904732811959087e+00
18 29 -1.59978884318035441e+00
19 29 -1.67619330238916575e+00
20 29 -1.74797206616283485e+00
21 29 -1.81487570302170043e+00
22 29 -1.87669677017988712e+00
23 29 -1.93327171173721424e+00
24 29 -1.98448184666235106e+00
25 29 -2.03025345268861601e+00
26 29 -2.07055698433184077e+00
27 29 -2.10540549176343816e+00
28 29 -2.13485233087359694e+00
29 29 -2.15898827262539728e+00
30 29 -2.17793813129160396e+00
31 29 -2.19185703640138874e+00
32 29 -2.20092647262573049e+00
33 29 -2.20535020613607990e+00
34 29 -2.20535020613608035e+00
35 29 -2.20535020613607946e+00
36 29 -2.20092647262573049e+00
37 29 -2.19185703640138874e+00
38 29 -2.17793813129160307e+00
39 29 -2.15898827262539772e+00
40 29 -2.13485233087359783e+00
41 29 -2.10540549176343861e+00
42 29 -2.07055698433184032e+00
43 29 -2.03025345268861601e+00
44 29 -1.98448184666235061e+00
45 29 -1.93327171173721424e+00
46 29 -1.87669677017988712e+00
47 29 -1.81487570302170065e+00
48 29 -1.74797206616283463e+00
49 29 -1.67619330238916642e+00
50 29 -1.59978884318035464e+00
51 29 -1.51904732811959065e+00
52 29 -1.43429300353343381e+00
53 29 -1.34588139365888249e+00
54 29 -1.25419436521643801e+00
55 29 -1.15963472809364987e+00
56 29 -1.06262052966084486e+00
57 29 -9.63579207317113884e-01
58 29 -8.62941763038856835e-01
59 29 -7.61137115376375295e-01
60 29 -6.58586769416619977e-01
61 29 -5.55699924993976024e-01
62 29 -4.52869119432290801e-01
63 29 -3.50466474993182953e-01
64 29 -2.48840594605855475e-01
65 29 -1.48314123823544974e-01
66 29 -4.91819735055506121e-02
67 29 -2.70077507094350563e-16
68 29 4.91819735055501334e-02
69 29 1.48314123823544558e-01
70 29 2.48840594605855142e-01
71 29 3.50466474993182675e-01
72 29 4.52869119432290801e-01
73 29 5.55699924993976024e-01
74 29 6.58586769416619977e-01
75 29 7.61137115376375517e-01
76 29 8.62941763038856835e-01
77 29 9.63579207317113884e-01
78 29 1.06262052966084486e+00
79 29 1.15963472809364987e+00
80 29 1.25419436521643846e+00
81 29 1.34588139365888249e+00
82 29 1.43429300353343314e+00
83 29 1.51904732811959065e+00
84 29 1.59978884318035441e+00
85 29 1.67619330238916575e+00
86 29 1.74797206616283485e+00
87 29 1.81487570302170043e+00
88 29 1.87669677017988690e+00
89 29 1.93327171173721357e+00
90 29 1.98448184666235106e+00
91 29 2.03025345268861557e+00
92 29 2.07055698433183988e+00
93 29 2.10540549176343816e+00
94 29 2.13485233087359694e+00
95 29 2.15898827262539728e+00
96 29 2.17793813129160396e+00
97 29 2.19185703640138874e+00
98 29 2.20092647262573049e+00
99 29 2.20535020613607990e+00
100 29 2.20535020613608035e+00
101 29 2.20535020613607946e+00
102 29 2.20092647262573049e+00
103 29 2.19185703640138874e+00
104 29 2.17793813129160307e+00
105 29 2.15898827262539772e+00
106 29 2.13485233087359783e+00
107 29 2.10540549176343861e+00
108 29 2.07055698433184032e+00
109 29 2.03025345268861601e+00
110 29 1.98448184666235061e+00
111 29 1.93327171173721424e+00
112 29 1.87669677017988712e+00
113 29 1.81487570302170065e+00
114 29 1.74797206616283463e+00
115 29 1.67619330238916642e+00
116 29 1.59978884318035464e+00
117 29 1.51904732811959065e+00
118 29 1.43429300353343381e+00
119 29 1.34588139365888249e+00
120 29 1.25419436521643801e+00
121 29 1.15963472809364987e+00
122 29 1.06262052966084486e+00
123 29 9.63579207317113884e-01
124 29 8.62941763038857390e-01
125 29 7.61137115376375628e-01
126 29 6.58586769416620310e-01
127 29 5.55699924993976024e-01
128 29 4.52869119432291023e-01
129 29 3.50466474993183119e-01
130 29 2.48840594605855669e-01
131 29 1.48314123823545224e-01
132 29 4.91819735055508966e-02
133 29 5.40155014188701125e-16
1 30 0.00000000000000000e+00
2 30 -4.81464451527897838e-02
3 30 -1.45191364214949659e-01
4 30 -2.43601246270167104e-01
5 30 -3.43087389818681920e-01
6 30 -4.43333942621849553e-01
7 30 -5.43999641598612582e-01
8 30 -6.44720199535951277e-01
9 30 -7.45111343998541398e-01
10 30 -8.44772490870323356e-01
11 30 -9.43291009870241504e-01
12 30 -1.04024701334464620e+00
13 30 -1.13521857408040616e+00
14 30 -1.22778725438938663e+00
15 30 -1.31754380890479705e+00
16 30 -1.40409390891683761e+00
17 30 -1.48706372792356500e+00
18 30 -1.56610522726452772e+00
19 30 -1.64090098763210324e+00
20 30 -1.71116844676068025e+00
21 30 -1.77666342496004037e+00
22 30 -1.83718284716018210e+00
23 30 -1.89256660113672237e+00
24 30 -1.94269850469203242e+00
25 30 -1.98750638778460420e+00
26 30 -2.02696132701158049e+00
27 30 -2.06107609777251044e+00
28 30 -2.08990293254725357e+00
29 30 -2.11353069111275405e+00
30 30 -2.13208155977244029e+00
31 30 -2.14570740179725306e+00
32 30 -2.15458588069140955e+00
33 30 -2.15891647232174666e+00
34 30 -2.15891647232174666e+00
35 30 -2.15891647232174622e+00
36 30 -2.15458588069140955e+00
37 30 -2.14570740179725306e+00
38 30 -2.13208155977243985e+00
39 30 -2.11353069111275449e+00
40 30 -2.08990293254725445e+00
41 30 -2.06107609777251088e+00
42 30 -2.02696132701158049e+00
43 30 -1.98750638778460420e+00
44 30 -1.94269850469203220e+00
45 30 -1.89256660113672237e+00
46 30 -1.83718284716018210e+00
47 30 -1.77666342496004082e+00
48 30 -1.71116844676068003e+00
49 30 -1.64090098763210390e+00
50 30 -1.56610522726452794e+00
51 30 -1.48706372792356478e+00
52 30 -1.40409390891683783e+00
53 30 -1.31754380890479728e+00
54 30 -1.22778725438938618e+00
55 30 -1.13521857408040616e+00
56 30 -1.04024701334464620e+00
57 30 -9.43291009870241504e-01
58 30 -8.44772490870323356e-01
59 30 -7.45111343998541176e-01
60 30 -6.44720199535951277e-01
61 30 -5.43999641598612582e-01
62 30 -4.43333942621849553e-01
63 30 -3.43087389818682087e-01
64 30 -2.43601246270167271e-01
65 30 -1.45191364214949908e-01
66 30 -4.81464451527900197e-02
67 30 -2.64391014745532215e-16
68 30 4.81464451527895548e-02
69 30 1.45191364214949492e-01
70 30 2.43601246270166910e-01
71 30 3.43087389818681809e-01
72 30 4.43333942621849553e-01
73 30 5.43999641598612582e-01
74 30 6.44720199535951277e-01
75 30 7.45111343998541398e-01
76 30 8.44772490870323356e-01
77 30 9.43291009870241504e-01
78 30 1.04024701334464620e+00
79 30 1.13521857408040616e+00
80 30 1.22778725438938663e+00
81 30 1.31754380890479705e+00
82 30 1.40409390891683761e+00
83 30 1.48706372792356478e+00
84 30 1.56610522726452750e+00
85 30 1.64090098763210324e+00
86 30 1.71116844676068025e+00
87 30 1.77666342496004037e+00
88 30 1.83718284716018165e+00
89 30 1.89256660113672193e+00
90 30 1.94269850469203242e+00
91 30 1.98750638778460398e+00
92 30 2.02696132701157961e+00
93 30 2.06107609777251044e+00
94 30 2.08990293254725357e+00
95 30 2.11353069111275405e+00
96 30 2.13208155977244029e+00
97 30 2.14570740179725306e+00
98 30 2.15458588069140955e+00
99 30 2.15891647232174666e+00
100 30 2.15891647232174666e+00
101 30 2.15891647232174622e+00
102 30 2.15458588069140955e+00
103 30 2.14570740179725306e+00
104 30 2.13208155977243985e+00
105 30 2.11353069111275449e+00
106 30 2.08990293254725445e+00
107 30 2.06107609777251088e+00
108 30 2.02696132701158049e+00
109 30 1.98750638778460420e+00
110 30 1.94269850469203220e+00
111 30 1.89256660113672237e+00
112 30 1.83718284716018210e+00
113 30 1.77666342496004082e+00
114 30 1.71116844676068003e+00
115 30 1.64090098763210390e+00
116 30 1.56610522726452794e+00
117 30 1.48706372792356478e+00
118 30 1.40409390891683783e+00
119 30 1.31754380890479728e+00
120 30 1.22778725438938618e+00
121 30 1.13521857408040616e+00
122 30 1.04024701334464620e+00
123 30 9.43291009870241504e-01
124 30 8.44772490870323689e-01
125 30 7.45111343998541398e-01
126 30 6.44720199535951499e-01
127 30 5.43999641598612582e-01
128 30 4.43333942621849775e-01
129 30 3.43087389818682198e-01
130 30 2.43601246270167437e-01
131 30 1.45191364214950158e-01
132 30 4.81464451527902973e-02
133 30 5.28782029491064430e-16
1 31 0.00000000000000000e+00
2 31 -4.71187716870140952e-02
3 31 -1.42092291957590433e-01
4 31 -2.38401640437850837e-01
5 31 -3.35764277887157125e-01
6 31 -4.33871093851512069e-01
7 31 -5.32388109422389455e-01
8 31 -6.30958813003464680e-01
9 31 -7.29207134355529085e-01
10 31 -8.26741039727260874e-01
11 31 -9.23156706324629983e-01
12 31 -1.01804320888776068e+00
13 31 -1.11098762613116686e+00
14 31 -1.20158045181134709e+00
15 31 -1.28942117579841398e+00
16 31 -1.37412388622727066e+00
17 31 -1.45532273582633254e+00
18 31 -1.53267711473067614e+00
19 31 -1.60587637886600976e+00
20 31 -1.67464399718547274e+00
21 31 -1.73874100195141645e+00
22 31 -1.79796865267888140e+00
23 31 -1.85217025469765817e+00
24 31 -1.90123210568918855e+00
25 31 -1.94508357606290461e+00
26 31 -1.98369635977853043e+00
27 31 -2.01708295954800354e+00
28 31 -2.04529449296235999e+00
29 31 -2.06841792310950146e+00
30 31 -2.08657282825769386e+00
31 31 -2.09990783019549054e+00
32 31 -2.10859680024539031e+00
33 31 -2.11283495651325159e+00
34 31 -2.11283495651325159e+00
35 31 -2.11283495651325115e+00
36 31 -2.10859680024539031e+00
37 31 -2.09990783019549054e+00
38 31 -2.08657282825769341e+00
39 31 -2.06841792310950190e+00
40 31 -2.04529449296236043e+00
41 31 -2.01708295954800398e+00
42 31 -1.98369635977853043e+00
43 31 -1.94508357606290461e+00
44 31 -1.90123210568918810e+00
45 31 -1.85217025469765817e+00
46 31 -1.79796865267888162e+00
47 31 -1.73874100195141712e+00
48 31 -1.67464399718547274e+00
49 31 -1.60587637886601020e+00
50 31 -1.53267711473067658e+00
51 31 -1.45532273582633254e+00
52 31 -1.37412388622727089e+00
53 31 -1.28942117579841398e+00
54 31 -1.20158045181134687e+00
55 31 -1.11098762613116686e+00
56 31 -1.01804320888776068e+00
57 31 -9.23156706324630094e-01
58 31 -8.26741039727260874e-01
59 31 -7.29207134355528863e-01
60 31 -6.30958813003464680e-01
61 31 -5.32388109422389455e-01
62 31 -4.33871093851512069e-01
63 31 -3.35764277887157181e-01
64 31 -2.38401640437851003e-01
65 31 -1.42092291957590683e-01
66 31 -4.71187716870143242e-02
67 31 -2.58747656662059070e-16
68 31 4.71187716870138731e-02
69 31 1.42092291957590267e-01
70 31 2.38401640437850670e-01
71 31 3.35764277887156959e-01
72 31 4.33871093851512013e-01
73 31 5.32388109422389455e-01
74 31 6.30958813003464680e-01
75 31 7.29207134355529085e-01
76 31 8.26741039727260874e-01
77 31 9.23156706324629983e-01
78 31 1.01804320888776068e+00
79 31 1.11098762613116686e+00
80 31 1.20158045181134709e+00
81 31 1.28942117579841398e+00
82 31 1.37412388622727066e+00
83 31 1.45532273582633231e+00
84 31 1.53267711473067614e+00
85 31 1.60587637886600976e+00
86 31 1.67464399718547274e+00
87 31 1.73874100195141645e+00
88 31 1.79796865267888117e+00
89 31 1.85217025469765795e+00
90 31 1.90123210568918832e+00
91 31 1.94508357606290438e+00
92 31 1.98369635977852998e+00
93 31 2.01708295954800354e+00
94 31 2.04529449296235999e+00
95 31 2.06841792310950146e+00
96 31 2.08657282825769386e+00
97 31 2.09990783019549054e+00
98 31 2.10859680024539031e+00
99 31 2.11283495651325159e+00
100 31 2.11283495651325159e+00
101 31 2.11283495651325115e+00
102 31 2.10859680024539031e+00
103 31 2.09990783019549054e+00
104 31 2.08657282825769341e+00
105 31 2.06841792310950190e+00
106 31 2.04529449296236043e+00
107 31 2.01708295954800398e+00
108 31 1.98369635977853043e+00
109 31 1.94508357606290461e+00
110 31 1.90123210568918810e+00
111 31 1.85217025469765817e+00
112 31 1.79796865267888162e+00
113 31 1.73874100195141712e+00
114 31 1.67464399718547274e+00
115 31 1.60587637886601020e+00
116 31 1.53267711473067658e+00
117 31 1.45532273582633254e+00
118 31 1.37412388622727089e+00
119 31 1.28942117579841398e+00
120 31 1.20158045181134687e+00
121 31 1.11098762613116686e+00
122 31 1.01804320888776068e+00
123 31 9.23156706324630094e-01
124 31 8.26741039727261096e-01
125 31 7.29207134355529085e-01
126 31 6.30958813003464791e-01
127 31 5.32388109422389455e-01
128 31 4.33871093851512291e-01
129 31 3.35764277887157347e-01
130 31 2.38401640437851198e-01
131 31 1.42092291957590933e-01
132 31 4.71187716870145948e-02
133 31 5.17495313324118140e-16
1 32 0.00000000000000000e+00
2 32 -4.61022158034407742e-02
3 32 -1.39026746099150444e-01
4 32 -2.33258285007229144e-01
5 32 -3.28520388881578418e-01
6 32 -4.24510616118840223e-01
7 32 -5.20902193181347895e-01
8 32 -6.17346299971256784e-01
9 32 -7.13474979712434898e-01
10 32 -8.08904656518700027e-01
11 32 -9.03240219801847766e-01
12 32 -9.96079609738762972e-01
13 32 -1.08701881354363405e+00
14 32 -1.17565715979539331e+00
15 32 -1.26160277910147389e+00
16 32 -1.34447808538633029e+00
17 32 -1.42392512428778728e+00
18 32 -1.49961063437021624e+00
19 32 -1.57123067349679357e+00
20 32 -1.63851467659244876e+00
21 32 -1.70122883148813142e+00
22 32 -1.75917868539149480e+00
23 32 -1.81221092421470109e+00
24 32 -1.86021429869042310e+00
25 32 -1.90311970301411892e+00
26 32 -1.94089944182933882e+00
27 32 -1.97356574811039942e+00
28 32 -2.00116863662060807e+00
29 32 -2.02379319427759619e+00
30 32 -2.04155641952872502e+00
31 32 -2.05460372774718270e+00
32 32 -2.06310523909834798e+00
33 32 -2.06725195998843203e+00
34 32 -2.06725195998843247e+00
35 32 -2.06725195998843203e+00
36 32 -2.06310523909834798e+00
37 32 -2.05460372774718270e+00
38 32 -2.04155641952872502e+00
39 32 -2.02379319427759663e+00
40 32 -2.00116863662060851e+00
41 32 -1.97356574811039964e+00
42 32 -1.94089944182933882e+00
43 32 -1.90311970301411892e+00
44 32 -1.86021429869042265e+00
45 32 -1.81221092421470109e+00
46 32 -1.75917868539149524e+00
47 32 -1.70122883148813209e+00
48 32 -1.63851467659244876e+00
49 32 -1.57123067349679379e+00
50 32 -1.49961063437021669e+00
51 32 -1.42392512428778728e+00
52 32 -1.34447808538633051e+00
53 32 -1.26160277910147389e+00
54 32 -1.17565715979539331e+00
55 32 -1.08701881354363405e+00
56 32 -9.96079609738763083e-01
57 32 -9.03240219801847877e-01
58 32 -8.08904656518700027e-01
59 32 -7.13474979712434787e-01
60 32 -6.17346299971256784e-01
61 32 -5.20902193181347895e-01
62 32 -4.24510616118840223e-01
63 32 -3.28520388881578418e-01
64 32 -2.33258285007229282e-01
65 32 -1.39026746099150694e-01
66 32 -4.61022158034410032e-02
67 32 -2.53165349583092611e-16
68 32 4.61022158034405591e-02
69 32 1.39026746099150278e-01
70 32 2.33258285007228977e-01
71 32 3.28520388881578196e-01
72 32 4.24510616118840167e-01
73 32 5.20902193181347895e-01
74 32 6.17346299971256784e-01
75 32 7.13474979712434898e-01
76 32 8.08904656518700027e-01
77 32 9.03240219801847766e-01
78 32 9.96079609738762972e-01
79 32 1.08701881354363405e+00
80 32 1.17565715979539331e+00
81 32 1.26160277910147389e+00
82 32 1.34447808538633029e+00
83 32 1.42392512428778706e+00
84 32 1.49961063437021624e+00
85 32 1.57123067349679357e+00
86 32 1.63851467659244876e+00
87 32 1.70122883148813142e+00
88 32 1.75917868539149480e+00
89 32 1.81221092421470109e+00
90 32 1.86021429869042287e+00
91 32 1.90311970301411870e+00
92 32 1.94089944182933838e+00
93 32 1.97356574811039920e+00
94 32 2.00116863662060807e+00
95 32 2.02379319427759619e+00
96 32 2.04155641952872502e+00
97 32 2.05460372774718270e+00
98 32 2.06310523909834798e+00
99 32 2.06725195998843203e+00
100 32 2.06725195998843247e+00
101 32 2.06725195998843203e+00
102 32 2.06310523909834798e+00
103 32 2.05460372774718270e+00
104 32 2.04155641952872502e+00
105 32 2.02379319427759663e+00
106 32 2.00116863662060851e+00
107 32 1.97356574811039964e+00
108 32 1.94089944182933882e+00
109 32 1.90311970301411892e+00
110 32 1.86021429869042265e+00
111 32 1.81221092421470109e+00
112 32 1.75917868539149524e+00
113 32 1.70122883148813209e+00
114 32 1.63851467659244876e+00
115 32 1.57123067349679379e+00
116 32 1.49961063437021669e+00
117 32 1.42392512428778728e+00
118 32 1.34447808538633051e+00
119 32 1.26160277910147389e+00
120 32 1.17565715979539331e+00
121 32 1.08701881354363405e+00
122 32 9.96079609738763083e-01
123 32 9.03240219801847877e-01
124 32 8.08904656518700249e-01
125 32 7.13474979712435120e-01
126 32 6.17346299971257007e-01
127 32 5.20902193181348006e-01
128 32 4.24510616118840445e-01
129 32 3.28520388881578640e-01
130 32 2.33258285007229504e-01
131 32 1.39026746099150916e-01
132 32 4.61022158034412599e-02
133 32 5.06330699166185223e-16
1 33 0.00000000000000000e+00
2 33 -4.50997597351753751e-02
3 33 -1.36003719920268051e-01
4 33 -2.28186268853480062e-01
5 33 -3.21376973936245758e-01
6 33 -4.15279969917673186e-01
7 33 -5.09575588691148385e-01
8 33 -6.03922594974821592e-01
9 33 -6.97961032920426661e-01
10 33 -7.91315667194790073e-01
11 33 -8.83599978575651424e-01
12 33 -9.74420649711433273e-01
13 33 -1.06338245275348431e+00
14 33 -1.15009342856257502e+00
15 33 -1.23417022863485681e+00
16 33 -1.31524347720411816e+00
17 33 -1.39296300334150236e+00
18 33 -1.46700279211662199e+00
19 33 -1.53706551037302819e+00
20 33 -1.60288647625832437e+00
21 33 -1.66423696166338342e+00
22 33 -1.72092674201739304e+00
23 33 -1.77280583692559324e+00
24 33 -1.81976541614762111e+00
25 33 -1.86173787652977096e+00
26 33 -1.89869612492912299e+00
27 33 -1.93065212832368283e+00
28 33 -1.95765481394545127e+00
29 33 -1.97978741856461249e+00
30 33 -1.99716439659020928e+00
31 33 -2.00992800145362871e+00
32 33 -2.01824465419236354e+00
33 33 -2.02230120793001866e+00
34 33 -2.02230120793001911e+00
35 33 -2.02230120793001866e+00
36 33 -2.01824465419236310e+00
37 33 -2.00992800145362871e+00
38 33 -1.99716439659020928e+00
39 33 -1.97978741856461271e+00
40 33 -1.95765481394545171e+00
41 33 -1.93065212832368305e+00
42 33 -1.89869612492912299e+00
43 33 -1.86173787652977096e+00
44 33 -1.81976541614762088e+00
45 33 -1.77280583692559324e+00
46 33 -1.72092674201739326e+00
47 33 -1.66423696166338386e+00
48 33 -1.60288647625832437e+00
49 33 -1.53706551037302819e+00
50 33 -1.46700279211662243e+00
51 33 -1.39296300334150258e+00
52 33 -1.31524347720411838e+00
53 33 -1.23417022863485681e+00
54 33 -1.15009342856257502e+00
55 33 -1.06338245275348453e+00
56 33 -9.74420649711433384e-01
57 33 -8.83599978575651535e-01
58 33 -7.91315667194790184e-01
59 33 -6.97961032920426661e-01
60 33 -6.03922594974821703e-01
61 33 -5.09575588691148385e-01
62 33 -4.15279969917673242e-01
63 33 -3.21376973936245869e-01
64 33 -2.28186268853480201e-01
65 33 -1.36003719920268301e-01
66 33 -4.50997597351755972e-02
67 33 -2.47660470120332378e-16
68 33 4.50997597351751670e-02
69 33 1.36003719920267913e-01
70 33 2.28186268853479923e-01
71 33 3.21376973936245647e-01
72 33 4.15279969917673131e-01
73 33 5.09575588691148385e-01
74 33 6.03922594974821592e-01
75 33 6.97961032920426661e-01
76 33 7.91315667194790073e-01
77 33 8.83599978575651424e-01
78 33 9.74420649711433273e-01
79 33 1.06338245275348431e+00
80 33 1.15009342856257502e+00
81 33 1.23417022863485681e+00
82 33 1.31524347720411816e+00
83 33 1.39296300334150236e+00
84 33 1.46700279211662199e+00
85 33 1.53706551037302797e+00
86 33 1.60288647625832437e+00
87 33 1.66423696166338342e+00
88 33 1.72092674201739304e+00
89 33 1.77280583692559324e+00
90 33 1.81976541614762111e+00
91 33 1.86173787652977096e+00
92 33 1.89869612492912276e+00
93 33 1.93065212832368260e+00
94 33 1.95765481394545127e+00
95 33 1.97978741856461249e+00
96 33 1.99716439659020928e+00
97 33 2.00992800145362871e+00
98 33 2.01824465419236354e+00
99 33 2.02230120793001866e+00
100 33 2.02230120793001911e+00
101 33 2.02230120793001866e+00
102 33 2.01824465419236310e+00
103 33 2.00992800145362871e+00
104 33 1.99716439659020928e+00
105 33 1.97978741856461271e+00
106 33 1.95765481394545171e+00
107 33 1.93065212832368305e+00
108 33 1.89869612492912299e+00
109 33 1.86173787652977096e+00
110 33 1.81976541614762088e+00
111 33 1.77280583692559324e+00
112 33 1.72092674201739326e+00
113 33 1.66423696166338386e+00
114 33 1.60288647625832437e+00
115 33 1.53706551037302819e+00
116 33 1.46700279211662243e+00
117 33 1.39296300334150258e+00
118 33 1.31524347720411838e+00
119 33 1.23417022863485681e+00
120 33 1.15009342856257502e+00
121 33 1.06338245275348453e+00
122 33 9.74420649711433384e-01
123 33 8.83599978575651535e-01
124 33 7.91315667194790406e-01
125 33 6.97961032920426772e-01
126 33 6.03922594974821814e-01
127 33 5.09575588691148496e-01
128 33 4.15279969917673353e-01
129 33 3.21376973936246035e-01
130 33 2.28186268853480423e-01
131 33 1.36003719920268523e-01
132 33 4.50997597351758470e-02
133 33 4.95320940240664757e-16
1 34 0.00000000000000000e+00
2 34 -4.46024158600374504e-02
3 34 -1.34503919976864728e-01
4 34 -2.25669913026503410e-01
5 34 -3.17832944643493431e-01
6 34 -4.10700412272160309e-01
7 34 -5.03956172990410622e-01
8 34 -5.97262754535940688e-01
9 34 -6.90264170523681386e-01
10 34 -7.82589323580301643e-01
11 34 -8.73855956878040185e-01
12 34 -9.63675090427135728e-01
13 34 -1.05165585480902557e+00
14 34 -1.13741061326842030e+00
15 34 -1.22056024473043290e+00
16 34 -1.30073944677150388e+00
17 34 -1.37760191002141319e+00
18 34 -1.45082521472477621e+00
19 34 -1.52011530660789473e+00
20 34 -1.58521042263432377e+00
21 34 -1.64588435702598268e+00
22 34 -1.70194898293997898e+00
23 34 -1.75325597391122234e+00
24 34 -1.79969769983996719e+00
25 34 -1.84120730307569103e+00
26 34 -1.87775798924887649e+00
27 34 -1.90936159337001432e+00
28 34 -1.93606650311924811e+00
29 34 -1.95795503736169718e+00
30 34 -1.97514038834448513e+00
31 34 -1.98776324077949318e+00
32 34 -1.99598818047306859e+00
33 34 -2.00000000000000000e+00
34 34 -2.00000000000000000e+00
35 34 -2.00000000000000000e+00
36 34 -1.99598818047306859e+00
37 34 -1.98776324077949318e+00
38 34 -1.97514038834448513e+00
39 34 -1.95795503736169740e+00
40 34 -1.93606650311924833e+00
41 34 -1.90936159337001454e+00
42 34 -1.87775798924887649e+00
43 34 -1.84120730307569103e+00
44 34 -1.79969769983996719e+00
45 34 -1.75325597391122234e+00
46 34 -1.70194898293997920e+00
47 34 -1.64588435702598290e+00
48 34 -1.58521042263432399e+00
49 34 -1.52011530660789496e+00
50 34 -1.45082521472477644e+00
51 34 -1.37760191002141341e+00
52 34 -1.30073944677150388e+00
53 34 -1.22056024473043290e+00
54 34 -1.13741061326842030e+00
55 34 -1.05165585480902579e+00
56 34 -9.63675090427135839e-01
57 34 -8.73855956878040185e-01
58 34 -7.82589323580301754e-01
59 34 -6.90264170523681386e-01
60 34 -5.97262754535940799e-01
61 34 -5.03956172990410622e-01
62 34 -4.10700412272160365e-01
63 34 -3.17832944643493542e-01
64 34 -2.25669913026503549e-01
65 34 -1.34503919976864950e-01
66 34 -4.46024158600376655e-02
67 34 -2.44929359829470641e-16
68 34 4.46024158600372422e-02
69 34 1.34503919976864589e-01
70 34 2.25669913026503272e-01
71 34 3.17832944643493320e-01
72 34 4.10700412272160198e-01
73 34 5.03956172990410511e-01
74 34 5.97262754535940688e-01
75 34 6.90264170523681386e-01
76 34 7.82589323580301643e-01
77 34 8.73855956878040185e-01
78 34 9.63675090427135728e-01
79 34 1.05165585480902557e+00
80 34 1.13741061326842030e+00
81 34 1.22056024473043290e+00
82 34 1.30073944677150388e+00
83 34 1.37760191002141319e+00
84 34 1.45082521472477621e+00
85 34 1.52011530660789473e+00
86 34 1.58521042263432377e+00
87 34 1.64588435702598268e+00
88 34 1.70194898293997898e+00
89 34 1.75325597391122234e+00
90 34 1.79969769983996719e+00
91 34 1.84120730307569103e+00
92 34 1.87775798924887649e+00
93 34 1.90936159337001432e+00
94 34 1.93606650311924811e+00
95 34 1.95795503736169718e+00
96 34 1.97514038834448513e+00
97 34 1.98776324077949318e+00
98 34 1.99598818047306859e+00
99 34 2.00000000000000000e+00
100 34 2.00000000000000000e+00
101 34 2.00000000000000000e+00
102 34 1.99598818047306859e+00
103 34 1.98776324077949318e+00
104 34 1.97514038834448513e+00
105 34 1.95795503736169740e+00
106 34 1.93606650311924833e+00
107 34 1.90936159337001454e+00
108 34 1.87775798924887649e+00
109 34 1.84120730307569103e+00
110 34 1.79969769983996719e+00
111 34 1.75325597391122234e+00
112 34 1.70194898293997920e+00
113 34 1.64588435702598290e+00
114 34 1.58521042263432399e+00
115 34 1.52011530660789496e+00
116 34 1.45082521472477644e+00
117 34 1.37760191002141341e+00
118 34 1.30073944677150388e+00
119 34 1.22056024473043290e+00
120 34 1.13741061326842030e+00
121 34 1.05165585480902579e+00
122 34 9.63675090427135839e-01
123 34 8.73855956878040185e-01
124 34 7.82589323580301865e-01
125 34 6.90264170523681497e-01
126 34 5.97262754535940910e-01
127 34 5.03956172990410733e-01
128 34 4.10700412272160476e-01
129 34 3.17832944643493709e-01
130 34 2.25669913026503771e-01
131 34 1.34503919976865172e-01
132 34 4.46024158600379084e-02
133 34 4.89858719658941283e-16
1 35 0.00000000000000000e+00
2 35 -4.41050719848995257e-02
3 35 -1.33004120033461404e-01
4 35 -2.23153557199526731e-01
5 35 -3.14288915350741105e-01
6 35 -4.06120854626647432e-01
7 35 -4.98336757289672860e-01
8 35 -5.90602914097060006e-01
9 35 -6.82567308126936112e-01
10 35 -7.73862979965813103e-01
11 35 -8.64111935180428947e-01
12 35 -9.52929531142838071e-01
13 35 -1.03992925686456661e+00
14 35 -1.12472779797426559e+00
15 35 -1.20695026082600876e+00
16 35 -1.28623541633888960e+00
17 35 -1.36224081670132380e+00
18 35 -1.43464763733293066e+00
19 35 -1.50316510284276128e+00
20 35 -1.56753436901032295e+00
21 35 -1.62753175238858172e+00
22 35 -1.68297122386256470e+00
23 35 -1.73370611089685167e+00
24 35 -1.77962998353231350e+00
25 35 -1.82067672962161065e+00
26 35 -1.85681985356862977e+00
27 35 -1.88807105841634604e+00
28 35 -1.91447819229304472e+00
29 35 -1.93612265615878187e+00
30 35 -1.95311638009876121e+00
31 35 -1.96559848010535743e+00
32 35 -1.97373170675377385e+00
33 35 -1.97769879206998134e+00
34 35 -1.97769879206998112e+00
35 35 -1.97769879206998134e+00
36 35 -1.97373170675377385e+00
37 35 -1.96559848010535743e+00
38 35 -1.95311638009876121e+00
39 35 -1.93612265615878187e+00
40 35 -1.91447819229304494e+00
41 35 -1.88807105841634648e+00
42 35 -1.85681985356863000e+00
43 35 -1.82067672962161065e+00
44 35 -1.77962998353231350e+00
45 35 -1.73370611089685167e+00
46 35 -1.68297122386256492e+00
47 35 -1.62753175238858216e+00
48 35 -1.56753436901032361e+00
49 35 -1.50316510284276150e+00
50 35 -1.43464763733293066e+00
51 35 -1.36224081670132424e+00
52 35 -1.28623541633888960e+00
53 35 -1.20695026082600876e+00
54 35 -1.12472779797426559e+00
55 35 -1.03992925686456683e+00
56 35 -9.52929531142838293e-01
57 35 -8.64111935180428836e-01
58 35 -7.73862979965813325e-01
59 35 -6.82567308126936112e-01
60 35 -5.90602914097059783e-01
61 35 -4.98336757289672805e-01
62 35 -4.06120854626647432e-01
63 35 -3.14288915350741216e-01
64 35 -2.23153557199526897e-01
65 35 -1.33004120033461598e-01
66 35 -4.41050719848997269e-02
67 35 -2.42198249538608905e-16
68 35 4.41050719848993175e-02
69 35 1.33004120033461265e-01
70 35 2.23153557199526620e-01
71 35 3.14288915350740994e-01
72 35 4.06120854626647321e-01
73 35 4.98336757289672694e-01
74 35 5.90602914097060006e-01
75 35 6.82567308126936112e-01
76 35 7.73862979965813103e-01
77 35 8.64111935180428947e-01
78 35 9.52929531142838071e-01
79 35 1.03992925686456661e+00
80 35 1.12472779797426559e+00
81 35 1.20695026082600876e+00
82 35 1.28623541633888960e+00
83 35 1.36224081670132380e+00
84 35 1.43464763733293066e+00
85 35 1.50316510284276128e+00
86 35 1.56753436901032295e+00
87 35 1.62753175238858172e+00
88 35 1.68297122386256470e+00
89 35 1.73370611089685167e+00
90 35 1.77962998353231350e+00
91 35 1.82067672962161065e+00
92 35 1.85681985356862977e+00
93 35 1.88807105841634604e+00
94 35 1.91447819229304472e+00
95 35 1.93612265615878187e+00
96 35 1.95311638009876121e+00
97 35 1.96559848010535743e+00
98 35 1.97373170675377385e+00
99 35 1.97769879206998134e+00
100 35 1.97769879206998112e+00
101 35 1.97769879206998134e+00
102 35 1.97373170675377385e+00
103 35 1.96559848010535743e+00
104 35 1.95311638009876121e+00
105 35 1.93612265615878187e+00
106 35 1.91447819229304494e+00
107 35 1.88807105841634648e+00
108 35 1.85681985356863000e+00
109 35 1.82067672962161065e+00
110 35 1.77962998353231350e+00
111 35 1.73370611089685167e+00
112 35 1.68297122386256515e+00
113 35 1.62753175238858216e+00
114 35 1.56753436901032361e+00
115 35 1.50316510284276150e+00
116 35 1.43464763733293066e+00
117 35 1.36224081670132424e+00
118 35 1.28623541633888960e+00
119 35 1.20695026082600876e+00
120 35 1.12472779797426559e+00
121 35 1.03992925686456683e+00
122 35 9.52929531142838293e-01
123 35 8.64111935180428836e-01
124 35 7.73862979965813325e-01
125 35 6.82567308126936334e-01
126 35 5.90602914097060006e-01
127 35 4.98336757289672971e-01
128 35 4.06120854626647543e-01
129 35 3.14288915350741382e-01
130 35 2.23153557199527119e-01
131 35 1.33004120033461848e-01
132 35 4.41050719848999698e-02
133 35 4.84396499077217809e-16
1 36 0.00000000000000000e+00
2 36 -4.31026159166341266e-02
3 36 -1.29981093854579038e-01
4 36 -2.18081541045777622e-01
5 36 -3.07145500405408445e-01
6 36 -3.96890208425480229e-01
7 36 -4.87010152799473295e-01
8 36 -5.77179209100624702e-01
9 36 -6.67053361334927652e-01
10 36 -7.56273990641903038e-01
11 36 -8.44471693954232605e-01
12 36 -9.31270571115508594e-01
13 36 -1.01629289607441686e+00
14 36 -1.09916406674144684e+00
15 36 -1.17951771035939190e+00
16 36 -1.25700080815667770e+00
17 36 -1.33127869575503932e+00
18 36 -1.40203979507933618e+00
19 36 -1.46899993971899545e+00
20 36 -1.53190616867619855e+00
21 36 -1.59053988256383350e+00
22 36 -1.64471928048846272e+00
23 36 -1.69430102360774404e+00
24 36 -1.73918110098951151e+00
25 36 -1.77929490313726246e+00
26 36 -1.81461653666841416e+00
27 36 -1.84515743862962966e+00
28 36 -1.87096436961788859e+00
29 36 -1.89211688044579773e+00
30 36 -1.90872435716024524e+00
31 36 -1.92092275381180344e+00
32 36 -1.92887112184778875e+00
33 36 -1.93274804001156775e+00
34 36 -1.93274804001156730e+00
35 36 -1.93274804001156775e+00
36 36 -1.92887112184778919e+00
37 36 -1.92092275381180344e+00
38 36 -1.90872435716024524e+00
39 36 -1.89211688044579773e+00
40 36 -1.87096436961788859e+00
41 36 -1.84515743862963011e+00
42 36 -1.81461653666841416e+00
43 36 -1.77929490313726246e+00
44 36 -1.73918110098951173e+00
45 36 -1.69430102360774404e+00
46 36 -1.64471928048846316e+00
47 36 -1.59053988256383372e+00
48 36 -1.53190616867619966e+00
49 36 -1.46899993971899612e+00
50 36 -1.40203979507933618e+00
51 36 -1.33127869575503954e+00
52 36 -1.25700080815667747e+00
53 36 -1.17951771035939190e+00
54 36 -1.09916406674144684e+00
55 36 -1.01629289607441686e+00
56 36 -9.31270571115508594e-01
57 36 -8.44471693954232494e-01
58 36 -7.56273990641903149e-01
59 36 -6.67053361334927764e-01
60 36 -5.77179209100624702e-01
61 36 -4.87010152799473461e-01
62 36 -3.96890208425480284e-01
63 36 -3.07145500405408611e-01
64 36 -2.18081541045777871e-01
65 36 -1.29981093854579205e-01
66 36 -4.31026159166343209e-02
67 36 -2.36693370075848671e-16
68 36 4.31026159166339184e-02
69 36 1.29981093854578872e-01
70 36 2.18081541045777511e-01
71 36 3.07145500405408389e-01
72 36 3.96890208425480173e-01
73 36 4.87010152799473184e-01
74 36 5.77179209100624702e-01
75 36 6.67053361334927652e-01
76 36 7.56273990641903038e-01
77 36 8.44471693954232605e-01
78 36 9.31270571115508594e-01
79 36 1.01629289607441686e+00
80 36 1.09916406674144684e+00
81 36 1.17951771035939190e+00
82 36 1.25700080815667770e+00
83 36 1.33127869575503932e+00
84 36 1.40203979507933618e+00
85 36 1.46899993971899545e+00
86 36 1.53190616867619855e+00
87 36 1.59053988256383350e+00
88 36 1.64471928048846272e+00
89 36 1.69430102360774404e+00
90 36 1.73918110098951151e+00
91 36 1.77929490313726246e+00
92 36 1.81461653666841416e+00
93 36 1.84515743862962966e+00
94 36 1.87096436961788859e+00
95 36 1.89211688044579773e+00
96 36 1.90872435716024524e+00
97 36 1.92092275381180344e+00
98 36 1.92887112184778875e+00
99 36 1.93274804001156775e+00
100 36 1.93274804001156730e+00
101 36 1.93274804001156775e+00
102 36 1.92887112184778919e+00
103 36 1.92092275381180344e+00
104 36 1.90872435716024524e+00
105 36 1.89211688044579773e+00
106 36 1.87096436961788859e+00
107 36 1.84515743862963011e+00
108 36 1.81461653666841416e+00
109 36 1.77929490313726246e+00
110 36 1.73918110098951173e+00
111 36 1.69430102360774404e+00
112 36 1.64471928048846339e+00
113 36 1.59053988256383372e+00
114 36 1.53190616867619966e+00
115 36 1.46899993971899612e+00
116 36 1.40203979507933618e+00
117 36 1.33127869575503954e+00
118 36 1.25700080815667747e+00
119 36 1.17951771035939190e+00
120 36 1.09916406674144684e+00
121 36 1.01629289607441686e+00
122 36 9.31270571115508594e-01
123 36 8.44471693954232494e-01
124 36 7.56273990641903260e-01
125 36 6.67053361334927875e-01
126 36 5.77179209100625035e-01
127 36 4.87010152799473517e-01
128 36 3.96890208425480451e-01
129 36 3.07145500405408778e-01
130 36 2.18081541045778093e-01
131 36 1.29981093854579427e-01
132 36 4.31026159166345568e-02
133 36 4.73386740151697343e-16
1 37 0.00000000000000000e+00
2 37 -4.20860600330608056e-02
3 37 -1.26915547996139050e-01
4 37 -2.12938185615155984e-01
5 37 -2.99901611399829682e-01
6 37 -3.87529730692808383e-01
7 37 -4.75524236558431734e-01
8 37 -5.63566696068416917e-01
9 37 -6.51321206691833576e-01
10 37 -7.38437607433342302e-01
11 37 -8.24555207431450388e-01
12 37 -9.09306971966510891e-01
13 37 -9.92324083486884057e-01
14 37 -1.07324077472549351e+00
15 37 -1.15169931366245182e+00
16 37 -1.22735500731573710e+00
17 37 -1.29988108421649406e+00
18 37 -1.36897331471887651e+00
19 37 -1.43435423434977927e+00
20 37 -1.49577684808317479e+00
21 37 -1.55302771210054869e+00
22 37 -1.60592931320107635e+00
23 37 -1.65434169312478696e+00
24 37 -1.69816329399074650e+00
25 37 -1.73733103008847722e+00
26 37 -1.77181961871922233e+00
27 37 -1.80164022719202532e+00
28 37 -1.82683851327613689e+00
29 37 -1.84749215161389291e+00
30 37 -1.86370794843127685e+00
31 37 -1.87561865136349581e+00
32 37 -1.88337956070074664e+00
33 37 -1.88716504348674841e+00
34 37 -1.88716504348674796e+00
35 37 -1.88716504348674841e+00
36 37 -1.88337956070074708e+00
37 37 -1.87561865136349581e+00
38 37 -1.86370794843127685e+00
39 37 -1.84749215161389291e+00
40 37 -1.82683851327613689e+00
41 37 -1.80164022719202555e+00
42 37 -1.77181961871922233e+00
43 37 -1.73733103008847722e+00
44 37 -1.69816329399074650e+00
45 37 -1.65434169312478696e+00
46 37 -1.60592931320107679e+00
47 37 -1.55302771210054891e+00
48 37 -1.49577684808317546e+00
49 37 -1.43435423434978016e+00
50 37 -1.36897331471887651e+00
51 37 -1.29988108421649429e+00
52 37 -1.22735500731573732e+00
53 37 -1.15169931366245182e+00
54 37 -1.07324077472549351e+00
55 37 -9.92324083486884057e-01
56 37 -9.09306971966510891e-01
57 37 -8.24555207431450388e-01
58 37 -7.38437607433342413e-01
59 37 -6.51321206691833687e-01
60 37 -5.63566696068416806e-01
61 37 -4.75524236558431845e-01
62 37 -3.87529730692808438e-01
63 37 -2.99901611399829848e-01
64 37 -2.12938185615156178e-01
65 37 -1.26915547996139216e-01
66 37 -4.20860600330609930e-02
67 37 -2.31111062996882164e-16
68 37 4.20860600330606044e-02
69 37 1.26915547996138856e-01
70 37 2.12938185615155845e-01
71 37 2.99901611399829682e-01
72 37 3.87529730692808327e-01
73 37 4.75524236558431623e-01
74 37 5.63566696068416917e-01
75 37 6.51321206691833576e-01
76 37 7.38437607433342302e-01
77 37 8.24555207431450388e-01
78 37 9.09306971966510891e-01
79 37 9.92324083486884057e-01
80 37 1.07324077472549351e+00
81 37 1.15169931366245182e+00
82 37 1.22735500731573710e+00
83 37 1.29988108421649406e+00
84 37 1.36897331471887651e+00
85 37 1.43435423434977927e+00
86 37 1.49577684808317479e+00
87 37 1.55302771210054869e+00
88 37 1.60592931320107635e+00
89 37 1.65434169312478696e+00
90 37 1.69816329399074650e+00
91 37 1.73733103008847722e+00
92 37 1.77181961871922233e+00
93 37 1.80164022719202532e+00
94 37 1.82683851327613689e+00
95 37 1.84749215161389291e+00
96 37 1.86370794843127685e+00
97 37 1.87561865136349581e+00
98 37 1.88337956070074664e+00
99 37 1.88716504348674841e+00
100 37 1.88716504348674796e+00
101 37 1.88716504348674841e+00
102 37 1.88337956070074708e+00
103 37 1.87561865136349581e+00
104 37 1.86370794843127685e+00
105 37 1.84749215161389291e+00
106 37 1.82683851327613689e+00
107 37 1.80164022719202555e+00
108 37 1.77181961871922233e+00
109 37 1.73733103008847722e+00
110 37 1.69816329399074650e+00
111 37 1.65434169312478696e+00
112 37 1.60592931320107701e+00
113 37 1.55302771210054891e+00
114 37 1.49577684808317546e+00
115 37 1.43435423434978016e+00
116 37 1.36897331471887651e+00
117 37 1.29988108421649429e+00
118 37 1.22735500731573732e+00
119 37 1.15169931366245182e+00
120 37 1.07324077472549351e+00
121 37 9.92324083486884279e-01
122 37 9.09306971966510891e-01
123 37 8.24555207431450388e-01
124 37 7.38437607433342746e-01
125 37 6.51321206691833687e-01
126 37 5.63566696068417028e-01
127 37 4.75524236558432012e-01
128 37 3.87529730692808605e-01
129 37 2.99901611399830070e-01
130 37 2.12938185615156372e-01
131 37 1.26915547996139411e-01
132 37 4.20860600330612220e-02
133 37 4.62222125993764327e-16
1 38 0.00000000000000000e+00
2 38 -4.10583865672851170e-02
3 38 -1.23816475738779824e-01
4 38 -2.07738579782839744e-01
5 38 -2.92578499468304887e-01
6 38 -3.78066881922470843e-01
7 38 -4.63912704382208663e-01
8 38 -5.49805309535930209e-01
9 38 -6.35416997048821153e-01
10 38 -7.20406156290279931e-01
11 38 -8.04420903885838978e-01
12 38 -8.87103167509625590e-01
13 38 -9.68093135537645089e-01
14 38 -1.04703397214745419e+00
15 38 -1.12357668055606874e+00
16 38 -1.19738498462617016e+00
17 38 -1.26814009211926182e+00
18 38 -1.33554520218502493e+00
19 38 -1.39932962558368579e+00
20 38 -1.45925239850796729e+00
21 38 -1.51510528909192499e+00
22 38 -1.56671511871977609e+00
23 38 -1.61394534668572298e+00
24 38 -1.65669689498790240e+00
25 38 -1.69490821836677785e+00
26 38 -1.72855465148617227e+00
27 38 -1.75764708896751864e+00
28 38 -1.78223007369124331e+00
29 38 -1.80237938361064010e+00
30 38 -1.81819921691653019e+00
31 38 -1.82981907976173286e+00
32 38 -1.83739048025472740e+00
33 38 -1.84108352767825356e+00
34 38 -1.84108352767825312e+00
35 38 -1.84108352767825356e+00
36 38 -1.83739048025472762e+00
37 38 -1.82981907976173308e+00
38 38 -1.81819921691653019e+00
39 38 -1.80237938361063987e+00
40 38 -1.78223007369124353e+00
41 38 -1.75764708896751887e+00
42 38 -1.72855465148617249e+00
43 38 -1.69490821836677785e+00
44 38 -1.65669689498790262e+00
45 38 -1.61394534668572298e+00
46 38 -1.56671511871977653e+00
47 38 -1.51510528909192543e+00
48 38 -1.45925239850796817e+00
49 38 -1.39932962558368668e+00
50 38 -1.33554520218502493e+00
51 38 -1.26814009211926182e+00
52 38 -1.19738498462617038e+00
53 38 -1.12357668055606874e+00
54 38 -1.04703397214745419e+00
55 38 -9.68093135537644978e-01
56 38 -8.87103167509625590e-01
57 38 -8.04420903885838978e-01
58 38 -7.20406156290279931e-01
59 38 -6.35416997048821264e-01
60 38 -5.49805309535930209e-01
61 38 -4.63912704382208774e-01
62 38 -3.78066881922470899e-01
63 38 -2.92578499468304942e-01
64 38 -2.07738579782839911e-01
65 38 -1.23816475738780005e-01
66 38 -4.10583865672852905e-02
67 38 -2.25467704913409019e-16
68 38 4.10583865672849227e-02
69 38 1.23816475738779644e-01
70 38 2.07738579782839605e-01
71 38 2.92578499468304831e-01
72 38 3.78066881922470788e-01
73 38 4.63912704382208496e-01
74 38 5.49805309535930209e-01
75 38 6.35416997048821153e-01
76 38 7.20406156290279931e-01
77 38 8.04420903885838978e-01
78 38 8.87103167509625590e-01
79 38 9.68093135537645089e-01
80 38 1.04703397214745419e+00
81 38 1.12357668055606874e+00
82 38 1.19738498462617016e+00
83 38 1.26814009211926182e+00
84 38 1.33554520218502493e+00
85 38 1.39932962558368579e+00
86 38 1.45925239850796729e+00
87 38 1.51510528909192499e+00
88 38 1.56671511871977609e+00
89 38 1.61394534668572298e+00
90 38 1.65669689498790240e+00
91 38 1.69490821836677785e+00
92 38 1.72855465148617227e+00
93 38 1.75764708896751864e+00
94 38 1.78223007369124331e+00
95 38 1.80237938361064010e+00
96 38 1.81819921691653019e+00
97 38 1.82981907976173286e+00
98 38 1.83739048025472740e+00
99 38 1.84108352767825356e+00
100 38 1.84108352767825312e+00
101 38 1.84108352767825356e+00
102 38 1.83739048025472762e+00
103 38 1.82981907976173308e+00
104 38 1.81819921691653019e+00
105 38 1.80237938361063987e+00
106 38 1.78223007369124353e+00
107 38 1.75764708896751887e+00
108 38 1.72855465148617249e+00
109 38 1.69490821836677785e+00
110 38 1.65669689498790262e+00
111 38 1.61394534668572298e+00
112 38 1.56671511871977698e+00
113 38 1.51510528909192543e+00
114 38 1.45925239850796817e+00
115 38 1.39932962558368668e+00
116 38 1.33554520218502493e+00
117 38 1.26814009211926182e+00
118 38 1.19738498462617038e+00
119 38 1.12357668055606919e+00
120 38 1.04703397214745419e+00
121 38 9.68093135537645089e-01
122 38 8.87103167509625590e-01
123 38 8.04420903885838978e-01
124 38 7.20406156290280264e-01
125 38 6.35416997048821264e-01
126 38 5.49805309535930431e-01
127 38 4.63912704382208885e-01
128 38 3.78066881922471176e-01
129 38 2.92578499468305275e-01
130 38 2.07738579782840105e-01
131 38 1.23816475738780185e-01
132 38 4.10583865672855125e-02
133 38 4.50935409826818037e-16
1 39 0.00000000000000000e+00
2 39 -4.00228582145245315e-02
3 39 -1.20693716130184758e-01
4 39 -2.02499231447151540e-01
5 39 -2.85199414293804077e-01
6 39 -3.68531705112029595e-01
7 39 -4.52212420986845165e-01
8 39 -5.35938739655261509e-01
9 39 -6.19391225670987033e-01
10 39 -7.02236884121746341e-01
11 39 -7.84132706438966709e-01
12 39 -8.64729651193426818e-01
13 39 -9.43676981524401048e-01
14 39 -1.02062686132040237e+00
15 39 -1.09523909580198353e+00
16 39 -1.16718589000957462e+00
17 39 -1.23615649192323596e+00
18 39 -1.30186158626919846e+00
19 39 -1.36403731082662349e+00
20 39 -1.42244877910581291e+00
21 39 -1.47689301103026538e+00
22 39 -1.52720119570007085e+00
23 39 -1.57324023608523111e+00
24 39 -1.61491355301758399e+00
25 39 -1.65216115346276626e+00
26 39 -1.68495899416591222e+00
27 39 -1.71331769497659114e+00
28 39 -1.73728067536489994e+00
29 39 -1.75692180209799687e+00
30 39 -1.77234264539736674e+00
31 39 -1.78366944515759673e+00
32 39 -1.79104988832040646e+00
33 39 -1.79464979386392054e+00
34 39 -1.79464979386391965e+00
35 39 -1.79464979386392054e+00
36 39 -1.79104988832040646e+00
37 39 -1.78366944515759696e+00
38 39 -1.77234264539736674e+00
39 39 -1.75692180209799664e+00
40 39 -1.73728067536490016e+00
41 39 -1.71331769497659137e+00
42 39 -1.68495899416591244e+00
43 39 -1.65216115346276626e+00
44 39 -1.61491355301758399e+00
45 39 -1.57324023608523111e+00
46 39 -1.52720119570007107e+00
47 39 -1.47689301103026538e+00
48 39 -1.42244877910581380e+00
49 39 -1.36403731082662416e+00
50 39 -1.30186158626919846e+00
51 39 -1.23615649192323596e+00
52 39 -1.16718589000957462e+00
53 39 -1.09523909580198353e+00
54 39 -1.02062686132040237e+00
55 39 -9.43676981524401048e-01
56 39 -8.64729651193426818e-01
57 39 -7.84132706438966820e-01
58 39 -7.02236884121746341e-01
59 39 -6.19391225670987144e-01
60 39 -5.35938739655261509e-01
61 39 -4.52212420986845332e-01
62 39 -3.68531705112029651e-01
63 39 -2.85199414293804132e-01
64 39 -2.02499231447151679e-01
65 39 -1.20693716130184925e-01
66 39 -4.00228582145247050e-02
67 39 -2.19781212564590671e-16
68 39 4.00228582145243372e-02
69 39 1.20693716130184564e-01
70 39 2.02499231447151373e-01
71 39 2.85199414293803966e-01
72 39 3.68531705112029595e-01
73 39 4.52212420986845054e-01
74 39 5.35938739655261509e-01
75 39 6.19391225670987033e-01
76 39 7.02236884121746341e-01
77 39 7.84132706438966709e-01
78 39 8.64729651193426818e-01
79 39 9.43676981524401048e-01
80 39 1.02062686132040237e+00
81 39 1.09523909580198353e+00
82 39 1.16718589000957462e+00
83 39 1.23615649192323596e+00
84 39 1.30186158626919846e+00
85 39 1.36403731082662349e+00
86 39 1.42244877910581291e+00
87 39 1.47689301103026538e+00
88 39 1.52720119570007085e+00
89 39 1.57324023608523111e+00
90 39 1.61491355301758399e+00
91 39 1.65216115346276626e+00
92 39 1.68495899416591222e+00
93 39 1.71331769497659114e+00
94 39 1.73728067536489994e+00
95 39 1.75692180209799687e+00
96 39 1.77234264539736674e+00
97 39 1.78366944515759673e+00
98 39 1.79104988832040646e+00
99 39 1.79464979386392054e+00
100 39 1.79464979386391965e+00
101 39 1.79464979386392054e+00
102 39 1.79104988832040646e+00
103 39 1.78366944515759696e+00
104 39 1.77234264539736674e+00
105 39 1.75692180209799664e+00
106 39 1.73728067536490016e+00
107 39 1.71331769497659137e+00
108 39 1.68495899416591244e+00
109 39 1.65216115346276626e+00
110 39 1.61491355301758399e+00
111 39 1.57324023608523111e+00
112 39 1.52720119570007173e+00
113 39 1.47689301103026538e+00
114 39 1.42244877910581380e+00
115 39 1.36403731082662416e+00
116 39 1.30186158626919846e+00
117 39 1.23615649192323596e+00
118 39 1.16718589000957462e+00
119 39 1.09523909580198398e+00
120 39 1.02062686132040237e+00
121 39 9.43676981524401381e-01
122 39 8.64729651193426818e-01
123 39 7.84132706438966820e-01
124 39 7.02236884121746674e-01
125 39 6.19391225670987144e-01
126 39 5.35938739655261620e-01
127 39 4.52212420986845554e-01
128 39 3.68531705112029928e-01
129 39 2.85199414293804410e-01
130 39 2.02499231447151873e-01
131 39 1.20693716130185105e-01
132 39 4.00228582145249201e-02
133 39 4.39562425129181342e-16
1 40 0.00000000000000000e+00
2 40 -3.89830001592996467e-02
3 40 -1.17557899785927455e-01
4 40 -1.97237976594524550e-01
5 40 -2.77789476035291416e-01
6 40 -3.58956660268594796e-01
7 40 -4.40463216916625377e-01
8 40 -5.22014191524529880e-01
9 40 -6.03298448091302508e-01
10 40 -6.83991643446630881e-01
11 40 -7.63759680934757546e-01
12 40 -8.42262587782673933e-01
13 40 -9.19158739835896577e-01
14 40 -9.94109338323063030e-01
15 40 -1.06678302727078589e+00
16 40 -1.13686052835834639e+00
17 40 -1.20403916340174533e+00
18 40 -1.26803713400210372e+00
19 40 -1.32859743350232984e+00
20 40 -1.38549127814049733e+00
21 40 -1.43852096158808385e+00
22 40 -1.48752205892314104e+00
23 40 -1.53236493119000428e+00
24 40 -1.57295550850221866e+00
25 40 -1.60923535654068584e+00
26 40 -1.64118105673286796e+00
27 40 -1.66880295300760850e+00
28 40 -1.69214333672752271e+00
29 40 -1.71127415548267292e+00
30 40 -1.72629434053726527e+00
31 40 -1.73732685187093039e+00
32 40 -1.74451553928174352e+00
33 40 -1.74802191350479519e+00
34 40 -1.74802191350479474e+00
35 40 -1.74802191350479519e+00
36 40 -1.74451553928174330e+00
37 40 -1.73732685187093083e+00
38 40 -1.72629434053726527e+00
39 40 -1.71127415548267292e+00
40 40 -1.69214333672752293e+00
41 40 -1.66880295300760850e+00
42 40 -1.64118105673286840e+00
43 40 -1.60923535654068584e+00
44 40 -1.57295550850221866e+00
45 40 -1.53236493119000428e+00
46 40 -1.48752205892314104e+00
47 40 -1.43852096158808385e+00
48 40 -1.38549127814049822e+00
49 40 -1.32859743350233028e+00
50 40 -1.26803713400210372e+00
51 40 -1.20403916340174533e+00
52 40 -1.13686052835834639e+00
53 40 -1.06678302727078611e+00
54 40 -9.94109338323063030e-01
55 40 -9.19158739835896799e-01
56 40 -8.42262587782673933e-01
57 40 -7.63759680934757768e-01
58 40 -6.83991643446630881e-01
59 40 -6.03298448091302730e-01
60 40 -5.22014191524529880e-01
61 40 -4.40463216916625599e-01
62 40 -3.58956660268594907e-01
63 40 -2.77789476035291527e-01
64 40 -1.97237976594524689e-01
65 40 -1.17557899785927636e-01
66 40 -3.89830001592998132e-02
67 40 -2.14070944121307853e-16
68 40 3.89830001592994524e-02
69 40 1.17557899785927289e-01
70 40 1.97237976594524411e-01
71 40 2.77789476035291305e-01
72 40 3.58956660268594796e-01
73 40 4.40463216916625322e-01
74 40 5.22014191524529880e-01
75 40 6.03298448091302508e-01
76 40 6.83991643446630881e-01
77 40 7.63759680934757546e-01
78 40 8.42262587782673933e-01
79 40 9.19158739835896577e-01
80 40 9.94109338323063030e-01
81 40 1.06678302727078589e+00
82 40 1.13686052835834639e+00
83 40 1.20403916340174533e+00
84 40 1.26803713400210372e+00
85 40 1.32859743350232984e+00
86 40 1.38549127814049733e+00
87 40 1.43852096158808385e+00
88 40 1.48752205892314104e+00
89 40 1.53236493119000428e+00
90 40 1.57295550850221866e+00
91 40 1.60923535654068584e+00
92 40 1.64118105673286796e+00
93 40 1.66880295300760850e+00
94 40 1.69214333672752271e+00
95 40 1.71127415548267292e+00
96 40 1.72629434053726527e+00
97 40 1.73732685187093039e+00
98 40 1.74451553928174352e+00
99 40 1.74802191350479519e+00
100 40 1.74802191350479474e+00
101 40 1.74802191350479519e+00
102 40 1.74451553928174330e+00
103 40 1.73732685187093083e+00
104 40 1.72629434053726527e+00
105 40 1.71127415548267292e+00
106 40 1.69214333672752293e+00
107 40 1.66880295300760850e+00
108 40 1.64118105673286840e+00
109 40 1.60923535654068584e+00
110 40 1.57295550850221866e+00
111 40 1.53236493119000428e+00
112 40 1.48752205892314171e+00
113 40 1.43852096158808385e+00
114 40 1.38549127814049822e+00
115 40 1.32859743350233028e+00
116 40 1.26803713400210372e+00
117 40 1.20403916340174533e+00
118 40 1.13686052835834639e+00
119 40 1.06678302727078633e+00
120 40 9.94109338323063030e-01
121 40 9.19158739835897021e-01
122 40 8.42262587782673933e-01
123 40 7.63759680934757768e-01
124 40 6.83991643446631103e-01
125 40 6.03298448091302730e-01
126 40 5.22014191524529991e-01
127 40 4.40463216916625711e-01
128 40 3.58956660268595185e-01
129 40 2.77789476035291749e-01
130 40 1.97237976594524883e-01
131 40 1.17557899785927816e-01
132 40 3.89830001593000283e-02
133 40 4.28141888242615706e-16
1 41 0.00000000000000000e+00
2 41 -3.79425754211565880e-02
3 41 -1.14420374541548742e-01
4 41 -1.91973854558979529e-01
5 41 -2.70375499643482842e-01
6 41 -3.49376397391481019e-01
7 41 -4.28707609978999649e-01
8 41 -5.08082055046975900e-01
9 41 -5.87196900562571233e-01
10 41 -6.65736459812304227e-01
11 41 -7.43375552909885440e-01
12 41 -8.19783280680589921e-01
13 41 -8.94627136642253351e-01
14 41 -9.67577364288642716e-01
15 41 -1.03831145126924262e+00
16 41 -1.10651864054342819e+00
17 41 -1.17190433216307266e+00
18 41 -1.23419424870059657e+00
19 41 -1.29313824279867529e+00
20 41 -1.34851363674890901e+00
21 41 -1.40012800084474431e+00
22 41 -1.44782129853238595e+00
23 41 -1.49146735081502024e+00
24 41 -1.53097459845536332e+00
25 41 -1.56628616669902132e+00
26 41 -1.59737926199621283e+00
27 41 -1.62426395220468778e+00
28 41 -1.64698139996480619e+00
29 41 -1.66560163264365491e+00
30 41 -1.68022094111003151e+00
31 41 -1.69095900364118079e+00
32 41 -1.69795583080043722e+00
33 41 -1.70136862273202993e+00
34 41 -1.70136862273202971e+00
35 41 -1.70136862273202993e+00
36 41 -1.69795583080043677e+00
37 41 -1.69095900364118079e+00
38 41 -1.68022094111003151e+00
39 41 -1.66560163264365513e+00
40 41 -1.64698139996480664e+00
41 41 -1.62426395220468778e+00
42 41 -1.59737926199621350e+00
43 41 -1.56628616669902132e+00
44 41 -1.53097459845536332e+00
45 41 -1.49146735081502024e+00
46 41 -1.44782129853238595e+00
47 41 -1.40012800084474454e+00
48 41 -1.34851363674890945e+00
49 41 -1.29313824279867573e+00
50 41 -1.23419424870059657e+00
51 41 -1.17190433216307266e+00
52 41 -1.10651864054342819e+00
53 41 -1.03831145126924285e+00
54 41 -9.67577364288642716e-01
55 41 -8.94627136642253462e-01
56 41 -8.19783280680589921e-01
57 41 -7.43375552909885662e-01
58 41 -6.65736459812304227e-01
59 41 -5.87196900562571344e-01
60 41 -5.08082055046975900e-01
61 41 -4.28707609978999871e-01
62 41 -3.49376397391481075e-01
63 41 -2.70375499643483008e-01
64 41 -1.91973854558979695e-01
65 41 -1.14420374541548936e-01
66 41 -3.79425754211567545e-02
67 41 -2.08357563799852107e-16
68 41 3.79425754211564076e-02
69 41 1.14420374541548589e-01
70 41 1.91973854558979390e-01
71 41 2.70375499643482786e-01
72 41 3.49376397391481019e-01
73 41 4.28707609978999538e-01
74 41 5.08082055046975900e-01
75 41 5.87196900562571233e-01
76 41 6.65736459812304227e-01
77 41 7.43375552909885440e-01
78 41 8.19783280680589921e-01
79 41 8.94627136642253351e-01
80 41 9.67577364288642716e-01
81 41 1.03831145126924262e+00
82 41 1.10651864054342819e+00
83 41 1.17190433216307266e+00
84 41 1.23419424870059657e+00
85 41 1.29313824279867529e+00
86 41 1.34851363674890901e+00
87 41 1.40012800084474431e+00
88 41 1.44782129853238595e+00
89 41 1.49146735081502024e+00
90 41 1.53097459845536332e+00
91 41 1.56628616669902132e+00
92 41 1.59737926199621283e+00
93 41 1.62426395220468778e+00
94 41 1.64698139996480619e+00
95 41 1.66560163264365491e+00
96 41 1.68022094111003151e+00
97 41 1.69095900364118079e+00
98 41 1.69795583080043722e+00
99 41 1.70136862273202993e+00
100 41 1.70136862273202971e+00
101 41 1.70136862273202993e+00
102 41 1.69795583080043677e+00
103 41 1.69095900364118079e+00
104 41 1.68022094111003151e+00
105 41 1.66560163264365513e+00
106 41 1.64698139996480664e+00
107 41 1.62426395220468778e+00
108 41 1.59737926199621350e+00
109 41 1.56628616669902132e+00
110 41 1.53097459845536332e+00
111 41 1.49146735081502024e+00
112 41 1.44782129853238639e+00
113 41 1.40012800084474454e+00
114 41 1.34851363674890945e+00
115 41 1.29313824279867573e+00
116 41 1.23419424870059657e+00
117 41 1.17190433216307266e+00
118 41 1.10651864054342819e+00
119 41 1.03831145126924329e+00
120 41 9.67577364288642716e-01
121 41 8.94627136642253795e-01
122 41 8.19783280680589921e-01
123 41 7.43375552909885662e-01
124 41 6.65736459812304449e-01
125 41 5.87196900562571344e-01
126 41 5.08082055046976011e-01
127 41 4.28707609978999982e-01
128 41 3.49376397391481353e-01
129 41 2.70375499643483175e-01
130 41 1.91973854558979834e-01
131 41 1.14420374541549102e-01
132 41 3.79425754211569558e-02
133 41 4.16715127599704213e-16
1 42 0.00000000000000000e+00
2 42 -3.69055534632921969e-02
3 42 -1.11293110788111202e-01
4 42 -1.86726949194655767e-01
5 42 -2.62985771168633309e-01
6 42 -3.39827467419466123e-01
7 42 -4.16990450558031911e-01
8 42 -4.94195484574830590e-01
9 42 -5.71148014246494751e-01
10 42 -6.47540981004840144e-01
11 42 -7.23058092570140531e-01
12 42 -7.97377493690130557e-01
13 42 -8.70175765734994222e-01
14 42 -9.41132164890280953e-01
15 42 -1.00993299350467414e+00
16 42 -1.07627598794821311e+00
17 42 -1.13987460008822095e+00
18 42 -1.20046204887056618e+00
19 42 -1.25779502380388197e+00
20 42 -1.31165693326302968e+00
21 42 -1.36186060690587207e+00
22 42 -1.40825038219430754e+00
23 42 -1.45070352877434305e+00
24 42 -1.48913098984661407e+00
25 42 -1.52347744512076932e+00
26 42 -1.55372072402560324e+00
27 42 -1.57987061925068262e+00
28 42 -1.60196716840567510e+00
29 42 -1.62007848491491324e+00
30 42 -1.63429822788737811e+00
31 42 -1.64474280463096290e+00
32 42 -1.65154839903074002e+00
33 42 -1.65486791473815953e+00
34 42 -1.65486791473815908e+00
35 42 -1.65486791473815953e+00
36 42 -1.65154839903073958e+00
37 42 -1.64474280463096290e+00
38 42 -1.63429822788737811e+00
39 42 -1.62007848491491324e+00
40 42 -1.60196716840567555e+00
41 42 -1.57987061925068262e+00
42 42 -1.55372072402560391e+00
43 42 -1.52347744512076910e+00
44 42 -1.48913098984661407e+00
45 42 -1.45070352877434305e+00
46 42 -1.40825038219430754e+00
47 42 -1.36186060690587252e+00
48 42 -1.31165693326303012e+00
49 42 -1.25779502380388286e+00
50 42 -1.20046204887056618e+00
51 42 -1.13987460008822095e+00
52 42 -1.07627598794821311e+00
53 42 -1.00993299350467458e+00
54 42 -9.41132164890280953e-01
55 42 -8.70175765734994222e-01
56 42 -7.97377493690130557e-01
57 42 -7.23058092570140754e-01
58 42 -6.47540981004840144e-01
59 42 -5.71148014246494862e-01
60 42 -4.94195484574830757e-01
61 42 -4.16990450558032077e-01
62 42 -3.39827467419466123e-01
63 42 -2.62985771168633475e-01
64 42 -1.86726949194655906e-01
65 42 -1.11293110788111396e-01
66 42 -3.69055534632923635e-02
67 42 -2.02662869479574187e-16
68 42 3.69055534632920235e-02
69 42 1.11293110788111049e-01
70 42 1.86726949194655628e-01
71 42 2.62985771168633309e-01
72 42 3.39827467419466123e-01
73 42 4.16990450558031689e-01
74 42 4.94195484574830590e-01
75 42 5.71148014246494751e-01
76 42 6.47540981004840144e-01
77 42 7.23058092570140531e-01
78 42 7.97377493690130557e-01
79 42 8.70175765734994222e-01
80 42 9.41132164890280953e-01
81 42 1.00993299350467414e+00
82 42 1.07627598794821311e+00
83 42 1.13987460008822095e+00
84 42 1.20046204887056618e+00
85 42 1.25779502380388197e+00
86 42 1.31165693326302968e+00
87 42 1.36186060690587207e+00
88 42 1.40825038219430754e+00
89 42 1.45070352877434305e+00
90 42 1.48913098984661407e+00
91 42 1.52347744512076932e+00
92 42 1.55372072402560324e+00
93 42 1.57987061925068262e+00
94 42 1.60196716840567510e+00
95 42 1.62007848491491324e+00
96 42 1.63429822788737811e+00
97 42 1.64474280463096290e+00
98 42 1.65154839903074002e+00
99 42 1.65486791473815953e+00
100 42 1.65486791473815908e+00
101 42 1.65486791473815953e+00
102 42 1.65154839903073958e+00
103 42 1.64474280463096290e+00
104 42 1.63429822788737811e+00
105 42 1.62007848491491324e+00
106 42 1.60196716840567555e+00
107 42 1.57987061925068262e+00
108 42 1.55372072402560391e+00
109 42 1.52347744512076910e+00
110 42 1.48913098984661407e+00
111 42 1.45070352877434305e+00
112 42 1.40825038219430820e+00
113 42 1.36186060690587252e+00
114 42 1.31165693326303012e+00
115 42 1.25779502380388286e+00
116 42 1.20046204887056618e+00
117 42 1.13987460008822095e+00
118 42 1.07627598794821333e+00
119 42 1.00993299350467503e+00
120 42 9.41132164890280953e-01
121 42 8.70175765734994555e-01
122 42 7.97377493690130557e-01
123 42 7.23058092570140754e-01
124 42 6.47540981004840366e-01
125 42 5.71148014246494862e-01
126 42 4.94195484574830979e-01
127 42 4.16990450558032300e-01
128 42 3.39827467419466345e-01
129 42 2.62985771168633642e-01
130 42 1.86726949194656072e-01
131 42 1.11293110788111549e-01
132 42 3.69055534632925647e-02
133 42 4.05325738959148374e-16
1 43 0.00000000000000000e+00
2 43 -3.58760722455489511e-02
3 43 -1.08188587038466344e-01
4 43 -1.81518196879544236e-01
5 43 -2.55649777353471608e-01
6 43 -3.30347972813605006e-01
7 43 -4.05358492856739805e-01
8 43 -4.80409890767943104e-01
9 43 -5.55215827948219887e-01
10 43 -6.29477811234833040e-01
11 43 -7.02888371328089567e-01
12 43 -7.75134631134996255e-01
13 43 -8.45902193795460722e-01
14 43 -9.14879262650723168e-01
15 43 -9.81760890652283447e-01
16 43 -1.04625324582072232e+00
17 43 -1.10807777328976620e+00
18 43 -1.16697513386859875e+00
19 43 -1.22270880421731087e+00
20 43 -1.27506823453886353e+00
21 43 -1.32387147561189167e+00
22 43 -1.36896720710818420e+00
23 43 -1.41023612223964623e+00
24 43 -1.44759164844827093e+00
25 43 -1.48098000860441181e+00
26 43 -1.51037965058542967e+00
27 43 -1.53580009391360273e+00
28 43 -1.55728025934860526e+00
29 43 -1.57488636028931350e+00
30 43 -1.58870944322182361e+00
31 43 -1.59886266826964030e+00
32 43 -1.60547842046539491e+00
33 43 -1.60870533820984907e+00
34 43 -1.60870533820984885e+00
35 43 -1.60870533820984907e+00
36 43 -1.60547842046539402e+00
37 43 -1.59886266826964007e+00
38 43 -1.58870944322182361e+00
39 43 -1.57488636028931350e+00
40 43 -1.55728025934860526e+00
41 43 -1.53580009391360273e+00
42 43 -1.51037965058543056e+00
43 43 -1.48098000860441159e+00
44 43 -1.44759164844827093e+00
45 43 -1.41023612223964623e+00
46 43 -1.36896720710818420e+00
47 43 -1.32387147561189211e+00
48 43 -1.27506823453886420e+00
49 43 -1.22270880421731154e+00
50 43 -1.16697513386859875e+00
51 43 -1.10807777328976620e+00
52 43 -1.04625324582072254e+00
53 43 -9.81760890652283669e-01
54 43 -9.14879262650723168e-01
55 43 -8.45902193795460722e-01
56 43 -7.75134631134996255e-01
57 43 -7.02888371328089567e-01
58 43 -6.29477811234833151e-01
59 43 -5.55215827948219887e-01
60 43 -4.80409890767943382e-01
61 43 -4.05358492856739971e-01
62 43 -3.30347972813605006e-01
63 43 -2.55649777353471719e-01
64 43 -1.81518196879544319e-01
65 43 -1.08188587038466538e-01
66 43 -3.58760722455491177e-02
67 43 -1.97009584320995220e-16
68 43 3.58760722455487846e-02
69 43 1.08188587038466191e-01
70 43 1.81518196879544097e-01
71 43 2.55649777353471608e-01
72 43 3.30347972813605006e-01
73 43 4.05358492856739583e-01
74 43 4.80409890767943104e-01
75 43 5.55215827948219887e-01
76 43 6.29477811234833040e-01
77 43 7.02888371328089567e-01
78 43 7.75134631134996255e-01
79 43 8.45902193795460722e-01
80 43 9.14879262650723168e-01
81 43 9.81760890652283447e-01
82 43 1.04625324582072232e+00
83 43 1.10807777328976620e+00
84 43 1.16697513386859875e+00
85 43 1.22270880421731087e+00
86 43 1.27506823453886353e+00
87 43 1.32387147561189167e+00
88 43 1.36896720710818420e+00
89 43 1.41023612223964623e+00
90 43 1.44759164844827093e+00
91 43 1.48098000860441181e+00
92 43 1.51037965058542967e+00
93 43 1.53580009391360273e+00
94 43 1.55728025934860526e+00
95 43 1.57488636028931350e+00
96 43 1.58870944322182361e+00
97 43 1.59886266826964030e+00
98 43 1.60547842046539491e+00
99 43 1.60870533820984907e+00
100 43 1.60870533820984885e+00
101 43 1.60870533820984907e+00
102 43 1.60547842046539402e+00
103 43 1.59886266826964007e+00
104 43 1.58870944322182361e+00
105 43 1.57488636028931350e+00
106 43 1.55728025934860526e+00
107 43 1.53580009391360273e+00
108 43 1.51037965058543056e+00
109 43 1.48098000860441159e+00
110 43 1.44759164844827093e+00
111 43 1.41023612223964623e+00
112 43 1.36896720710818487e+00
113 43 1.32387147561189211e+00
114 43 1.27506823453886420e+00
115 43 1.22270880421731154e+00
116 43 1.16697513386859875e+00
117 43 1.10807777328976620e+00
118 43 1.04625324582072277e+00
119 43 9.81760890652284113e-01
120 43 9.14879262650723279e-01
121 43 8.45902193795461055e-01
122 43 7.75134631134996255e-01
123 43 7.02888371328089567e-01
124 43 6.29477811234833262e-01
125 43 5.55215827948219887e-01
126 43 4.80409890767943548e-01
127 43 4.05358492856740193e-01
128 43 3.30347972813605284e-01
129 43 2.55649777353471885e-01
130 43 1.81518196879544486e-01
131 43 1.08188587038466677e-01
132 43 3.58760722455493050e-02
133 43 3.94019168641990440e-16
1 44 0.00000000000000000e+00
2 44 -3.48583941624261290e-02
3 44 -1.05119657053057133e-01
4 44 -1.76369163579913640e-01
5 44 -2.48397891651292030e-01
6 44 -3.20977161833086666e-01
7 44 -3.93859897047127927e-01
8 44 -4.66782350567785831e-01
9 44 -5.39466306215781732e-01
10 44 -6.11621738030350914e-01
11 44 -6.82949898535231470e-01
12 44 -7.53146785860951629e-01
13 44 -8.21906921481391994e-01
14 44 -8.88927353313191948e-01
15 44 -9.53911784583880817e-01
16 44 -1.01657471829462276e+00
17 44 -1.07664550120171887e+00
18 44 -1.13387215065574920e+00
19 44 -1.18802485265269531e+00
20 44 -1.23889902995328360e+00
21 44 -1.28631789459609824e+00
22 44 -1.33013441867882398e+00
23 44 -1.37023267972763985e+00
24 44 -1.40652856094375145e+00
25 44 -1.43896981066568008e+00
26 44 -1.46753548812876056e+00
27 44 -1.49223484281988084e+00
28 44 -1.51310569145355034e+00
29 44 -1.53021236918722603e+00
30 44 -1.54364333983817636e+00
31 44 -1.55350855357490381e+00
32 44 -1.55993664013193079e+00
33 44 -1.56307202156097991e+00
34 44 -1.56307202156097969e+00
35 44 -1.56307202156097991e+00
36 44 -1.55993664013193012e+00
37 44 -1.55350855357490336e+00
38 44 -1.54364333983817614e+00
39 44 -1.53021236918722581e+00
40 44 -1.51310569145355034e+00
41 44 -1.49223484281988084e+00
42 44 -1.46753548812876145e+00
43 44 -1.43896981066567964e+00
44 44 -1.40652856094375145e+00
45 44 -1.37023267972764007e+00
46 44 -1.33013441867882398e+00
47 44 -1.28631789459609847e+00
48 44 -1.23889902995328427e+00
49 44 -1.18802485265269597e+00
50 44 -1.13387215065574920e+00
51 44 -1.07664550120171909e+00
52 44 -1.01657471829462298e+00
53 44 -9.53911784583880928e-01
54 44 -8.88927353313191948e-01
55 44 -8.21906921481391994e-01
56 44 -7.53146785860951629e-01
57 44 -6.82949898535231470e-01
58 44 -6.11621738030351025e-01
59 44 -5.39466306215781843e-01
60 44 -4.66782350567786108e-01
61 44 -3.93859897047128149e-01
62 44 -3.20977161833086666e-01
63 44 -2.48397891651292113e-01
64 44 -1.76369163579913696e-01
65 44 -1.05119657053057300e-01
66 44 -3.48583941624262886e-02
67 44 -1.91421114804143719e-16
68 44 3.48583941624259694e-02
69 44 1.05119657053056967e-01
70 44 1.76369163579913502e-01
71 44 2.48397891651292030e-01
72 44 3.20977161833086666e-01
73 44 3.93859897047127760e-01
74 44 4.66782350567785831e-01
75 44 5.39466306215781732e-01
76 44 6.11621738030350914e-01
77 44 6.82949898535231470e-01
78 44 7.53146785860951629e-01
79 44 8.21906921481391994e-01
80 44 8.88927353313191948e-01
81 44 9.53911784583880817e-01
82 44 1.01657471829462276e+00
83 44 1.07664550120171887e+00
84 44 1.13387215065574920e+00
85 44 1.18802485265269531e+00
86 44 1.23889902995328360e+00
87 44 1.28631789459609824e+00
88 44 1.33013441867882398e+00
89 44 1.37023267972763985e+00
90 44 1.40652856094375145e+00
91 44 1.43896981066568008e+00
92 44 1.46753548812876056e+00
93 44 1.49223484281988084e+00
94 44 1.51310569145355034e+00
95 44 1.53021236918722603e+00
96 44 1.54364333983817636e+00
97 44 1.55350855357490381e+00
98 44 1.55993664013193079e+00
99 44 1.56307202156097991e+00
100 44 1.56307202156097969e+00
101 44 1.56307202156097991e+00
102 44 1.55993664013193012e+00
103 44 1.55350855357490336e+00
104 44 1.54364333983817614e+00
105 44 1.53021236918722581e+00
106 44 1.51310569145355034e+00
107 44 1.49223484281988084e+00
108 44 1.46753548812876145e+00
109 44 1.43896981066567964e+00
110 44 1.40652856094375145e+00
111 44 1.37023267972764007e+00
112 44 1.33013441867882420e+00
113 44 1.28631789459609847e+00
114 44 1.23889902995328427e+00
115 44 1.18802485265269597e+00
116 44 1.13387215065574920e+00
117 44 1.07664550120171909e+00
118 44 1.01657471829462320e+00
119 44 9.53911784583881373e-01
120 44 8.88927353313192281e-01
121 44 8.21906921481392327e-01
122 44 7.53146785860951629e-01
123 44 6.82949898535231470e-01
124 44 6.11621738030351136e-01
125 44 5.39466306215781843e-01
126 44 4.66782350567786330e-01
127 44 3.93859897047128316e-01
128 44 3.20977161833086888e-01
129 44 2.48397891651292335e-01
130 44 1.76369163579913835e-01
131 44 1.05119657053057453e-01
132 44 3.48583941624264759e-02
133 44 3.82842229608287437e-16
1 45 0.00000000000000000e+00
2 45 -3.38568565757398771e-02
3 45 -1.02099400665237414e-01
4 45 -1.71301794565878573e-01
5 45 -2.41261021725982960e-01
6 45 -3.11754973038451233e-01
7 45 -3.82543670345948661e-01
8 45 -4.53370944789394659e-01
9 45 -5.23966573786676215e-01
10 45 -5.94048864288162060e-01
11 45 -6.63327652311856086e-01
12 45 -7.31507670449698666e-01
13 45 -7.98292217063696907e-01
14 45 -8.63387044369863244e-01
15 45 -9.26504368677340984e-01
16 45 -9.87366895774086206e-01
17 45 -1.04571174871829320e+00
18 45 -1.10129418472630936e+00
19 45 -1.15389099271913564e+00
20 45 -1.20330347328978093e+00
21 45 -1.24935991787857725e+00
22 45 -1.29191752293071560e+00
23 45 -1.33086369661101922e+00
24 45 -1.36611673893127006e+00
25 45 -1.39762589950404870e+00
26 45 -1.42537083922645413e+00
27 45 -1.44936054183277685e+00
28 45 -1.46963173750265064e+00
29 45 -1.48624691294124722e+00
30 45 -1.49929199025844495e+00
31 45 -1.50887376057801448e+00
32 45 -1.51511715789584911e+00
33 45 -1.51816245478643208e+00
34 45 -1.51816245478643164e+00
35 45 -1.51816245478643208e+00
36 45 -1.51511715789584822e+00
37 45 -1.50887376057801448e+00
38 45 -1.49929199025844473e+00
39 45 -1.48624691294124722e+00
40 45 -1.46963173750265064e+00
41 45 -1.44936054183277707e+00
42 45 -1.42537083922645502e+00
43 45 -1.39762589950404825e+00
44 45 -1.36611673893126984e+00
45 45 -1.33086369661101966e+00
46 45 -1.29191752293071560e+00
47 45 -1.24935991787857748e+00
48 45 -1.20330347328978160e+00
49 45 -1.15389099271913631e+00
50 45 -1.10129418472630936e+00
51 45 -1.04571174871829342e+00
52 45 -9.87366895774086317e-01
53 45 -9.26504368677341095e-01
54 45 -8.63387044369863244e-01
55 45 -7.98292217063697018e-01
56 45 -7.31507670449698777e-01
57 45 -6.63327652311856197e-01
58 45 -5.94048864288162060e-01
59 45 -5.23966573786676215e-01
60 45 -4.53370944789395047e-01
61 45 -3.82543670345948938e-01
62 45 -3.11754973038451288e-01
63 45 -2.41261021725983071e-01
64 45 -1.71301794565878629e-01
65 45 -1.02099400665237594e-01
66 45 -3.38568565757400297e-02
67 45 -1.85921279083989250e-16
68 45 3.38568565757397175e-02
69 45 1.02099400665237261e-01
70 45 1.71301794565878435e-01
71 45 2.41261021725982960e-01
72 45 3.11754973038451177e-01
73 45 3.82543670345948605e-01
74 45 4.53370944789394659e-01
75 45 5.23966573786676215e-01
76 45 5.94048864288162060e-01
77 45 6.63327652311856086e-01
78 45 7.31507670449698666e-01
79 45 7.98292217063696907e-01
80 45 8.63387044369863244e-01
81 45 9.26504368677340984e-01
82 45 9.87366895774086206e-01
83 45 1.04571174871829320e+00
84 45 1.10129418472630936e+00
85 45 1.15389099271913564e+00
86 45 1.20330347328978093e+00
87 45 1.24935991787857725e+00
88 45 1.29191752293071560e+00
89 45 1.33086369661101922e+00
90 45 1.36611673893127006e+00
91 45 1.39762589950404870e+00
92 45 1.42537083922645413e+00
93 45 1.44936054183277685e+00
94 45 1.46963173750265064e+00
95 45 1.48624691294124722e+00
96 45 1.49929199025844495e+00
97 45 1.50887376057801448e+00
98 45 1.51511715789584911e+00
99 45 1.51816245478643208e+00
100 45 1.51816245478643164e+00
101 45 1.51816245478643208e+00
102 45 1.51511715789584822e+00
103 45 1.50887376057801448e+00
104 45 1.49929199025844473e+00
105 45 1.48624691294124722e+00
106 45 1.46963173750265064e+00
107 45 1.44936054183277707e+00
108 45 1.42537083922645502e+00
109 45 1.39762589950404825e+00
110 45 1.36611673893126984e+00
111 45 1.33086369661101966e+00
112 45 1.29191752293071582e+00
113 45 1.24935991787857748e+00
114 45 1.20330347328978160e+00
115 45 1.15389099271913631e+00
116 45 1.10129418472630936e+00
117 45 1.04571174871829342e+00
118 45 9.87366895774086650e-01
119 45 9.26504368677341539e-01
120 45 8.63387044369863577e-01
121 45 7.98292217063697240e-01
122 45 7.31507670449698888e-01
123 45 6.63327652311856197e-01
124 45 5.94048864288162282e-01
125 45 5.23966573786676215e-01
126 45 4.53370944789395158e-01
127 45 3.82543670345949105e-01
128 45 3.11754973038451455e-01
129 45 2.41261021725983266e-01
130 45 1.71301794565878768e-01
131 45 1.02099400665237733e-01
132 45 3.38568565757402171e-02
133 45 3.71842558167978499e-16
1 46 0.00000000000000000e+00
2 46 -3.28758179155786215e-02
3 46 -9.91409612422561592e-02
4 46 -1.66338141704361980e-01
5 46 -2.34270225372112589e-01
6 46 -3.02721538987535788e-01
7 46 -3.71459058017281574e-01
8 46 -4.40234036369168413e-01
9 46 -5.08784081449650150e-01
10 46 -5.76835662566736684e-01
11 46 -6.44107023550406610e-01
12 46 -7.10311452681807065e-01
13 46 -7.75160845570500023e-01
14 46 -8.38369480577005777e-01
15 46 -8.99657912850958530e-01
16 46 -9.58756883076927635e-01
17 46 -1.01541113145388429e+00
18 46 -1.06938300688230803e+00
19 46 -1.12045576606314223e+00
20 46 -1.16843646711740434e+00
21 46 -1.21315837692474182e+00
22 46 -1.25448282981620540e+00
23 46 -1.29230049642556288e+00
24 46 -1.32653204410920744e+00
25 46 -1.35712819302651955e+00
26 46 -1.38406919342187495e+00
27 46 -1.40736376871624769e+00
28 46 -1.42704758479299953e+00
29 46 -1.44318131773813385e+00
30 46 -1.45584839997642224e+00
31 46 -1.46515252824451392e+00
32 46 -1.47121501644203989e+00
33 46 -1.47417207259548722e+00
34 46 -1.47417207259548677e+00
35 46 -1.47417207259548722e+00
36 46 -1.47121501644203856e+00
37 46 -1.46515252824451370e+00
38 46 -1.45584839997642201e+00
39 46 -1.44318131773813385e+00
40 46 -1.42704758479299953e+00
41 46 -1.40736376871624791e+00
42 46 -1.38406919342187584e+00
43 46 -1.35712819302651888e+00
44 46 -1.32653204410920722e+00
45 46 -1.29230049642556355e+00
46 46 -1.25448282981620562e+00
47 46 -1.21315837692474227e+00
48 46 -1.16843646711740501e+00
49 46 -1.12045576606314290e+00
50 46 -1.06938300688230803e+00
51 46 -1.01541113145388451e+00
52 46 -9.58756883076927968e-01
53 46 -8.99657912850958641e-01
54 46 -8.38369480577005888e-01
55 46 -7.75160845570499912e-01
56 46 -7.10311452681807176e-01
57 46 -6.44107023550406721e-01
58 46 -5.76835662566736795e-01
59 46 -5.08784081449650039e-01
60 46 -4.40234036369168691e-01
61 46 -3.71459058017281851e-01
62 46 -3.02721538987535788e-01
63 46 -2.34270225372112700e-01
64 46 -1.66338141704362036e-01
65 46 -9.91409612422562980e-02
66 46 -3.28758179155787741e-02
67 46 -1.80534011009648321e-16
68 46 3.28758179155784688e-02
69 46 9.91409612422559788e-02
70 46 1.66338141704361842e-01
71 46 2.34270225372112589e-01
72 46 3.02721538987535677e-01
73 46 3.71459058017281518e-01
74 46 4.40234036369168413e-01
75 46 5.08784081449650150e-01
76 46 5.76835662566736684e-01
77 46 6.44107023550406610e-01
78 46 7.10311452681807065e-01
79 46 7.75160845570500023e-01
80 46 8.38369480577005777e-01
81 46 8.99657912850958530e-01
82 46 9.58756883076927635e-01
83 46 1.01541113145388429e+00
84 46 1.06938300688230803e+00
85 46 1.12045576606314223e+00
86 46 1.16843646711740434e+00
87 46 1.21315837692474182e+00
88 46 1.25448282981620540e+00
89 46 1.29230049642556288e+00
90 46 1.32653204410920744e+00
91 46 1.35712819302651955e+00
92 46 1.38406919342187495e+00
93 46 1.40736376871624769e+00
94 46 1.42704758479299953e+00
95 46 1.44318131773813385e+00
96 46 1.45584839997642224e+00
97 46 1.46515252824451392e+00
98 46 1.47121501644203989e+00
99 46 1.47417207259548722e+00
100 46 1.47417207259548677e+00
101 46 1.47417207259548722e+00
102 46 1.47121501644203856e+00
103 46 1.46515252824451370e+00
104 46 1.45584839997642201e+00
105 46 1.44318131773813385e+00
106 46 1.42704758479299953e+00
107 46 1.40736376871624791e+00
108 46 1.38406919342187584e+00
109 46 1.35712819302651888e+00
110 46 1.32653204410920722e+00
111 46 1.29230049642556355e+00
112 46 1.25448282981620607e+00
113 46 1.21315837692474227e+00
114 46 1.16843646711740501e+00
115 46 1.12045576606314290e+00
116 46 1.06938300688230803e+00
117 46 1.01541113145388451e+00
118 46 9.58756883076928079e-01
119 46 8.99657912850958974e-01
120 46 8.38369480577006110e-01
121 46 7.75160845570500245e-01
122 46 7.10311452681807398e-01
123 46 6.44107023550406721e-01
124 46 5.76835662566737017e-01
125 46 5.08784081449650039e-01
126 46 4.40234036369168913e-01
127 46 3.71459058017282018e-01
128 46 3.02721538987535954e-01
129 46 2.34270225372112895e-01
130 46 1.66338141704362175e-01
131 46 9.91409612422564368e-02
132 46 3.28758179155789546e-02
133 46 3.61068022019296641e-16
1 47 0.00000000000000000e+00
2 47 -3.19196005658828746e-02
3 47 -9.62573734498917005e-02
4 47 -1.61500074483576894e-01
5 47 -2.27456303522527381e-01
6 47 -2.93916660324142542e-01
7 47 -3.60654898045053185e-01
8 47 -4.27429505556162881e-01
9 47 -4.93985722145541928e-01
10 47 -5.60057972962604178e-01
11 47 -6.25372696922811722e-01
12 47 -6.89651521528578448e-01
13 47 -7.52614722117610935e-01
14 47 -8.13984887474509367e-01
15 47 -8.73490700607958970e-01
16 47 -9.30870733807803385e-01
17 47 -9.85877151692112319e-01
18 47 -1.03827921541842727e+00
19 47 -1.08786648582599499e+00
20 47 -1.13445163289232398e+00
21 47 -1.17787277305252713e+00
22 47 -1.21799527383064765e+00
23 47 -1.25471298578550083e+00
24 47 -1.28794888372178096e+00
25 47 -1.31765512113928707e+00
26 47 -1.34381252271856577e+00
27 47 -1.36642955815347511e+00
28 47 -1.38554085595892063e+00
29 47 -1.40120532741230708e+00
30 47 -1.41350397824495322e+00
31 47 -1.42253748909763678e+00
32 47 -1.42842364536597133e+00
33 47 -1.43129469336578996e+00
34 47 -1.43129469336578952e+00
35 47 -1.43129469336578996e+00
36 47 -1.42842364536597000e+00
37 47 -1.42253748909763633e+00
38 47 -1.41350397824495300e+00
39 47 -1.40120532741230686e+00
40 47 -1.38554085595892063e+00
41 47 -1.36642955815347555e+00
42 47 -1.34381252271856666e+00
43 47 -1.31765512113928640e+00
44 47 -1.28794888372178096e+00
45 47 -1.25471298578550150e+00
46 47 -1.21799527383064787e+00
47 47 -1.17787277305252736e+00
48 47 -1.13445163289232465e+00
49 47 -1.08786648582599565e+00
50 47 -1.03827921541842727e+00
51 47 -9.85877151692112874e-01
52 47 -9.30870733807803719e-01
53 47 -8.73490700607959192e-01
54 47 -8.13984887474509589e-01
55 47 -7.52614722117610935e-01
56 47 -6.89651521528578559e-01
57 47 -6.25372696922811722e-01
58 47 -5.60057972962604289e-01
59 47 -4.93985722145541817e-01
60 47 -4.27429505556163103e-01
61 47 -3.60654898045053462e-01
62 47 -2.93916660324142542e-01
63 47 -2.27456303522527437e-01
64 47 -1.61500074483576922e-01
65 47 -9.62573734498918393e-02
66 47 -3.19196005658830204e-02
67 47 -1.75283046486700702e-16
68 47 3.19196005658827289e-02
69 47 9.62573734498915340e-02
70 47 1.61500074483576755e-01
71 47 2.27456303522527381e-01
72 47 2.93916660324142431e-01
73 47 3.60654898045053185e-01
74 47 4.27429505556162881e-01
75 47 4.93985722145541928e-01
76 47 5.60057972962604178e-01
77 47 6.25372696922811722e-01
78 47 6.89651521528578448e-01
79 47 7.52614722117610935e-01
80 47 8.13984887474509367e-01
81 47 8.73490700607958970e-01
82 47 9.30870733807803385e-01
83 47 9.85877151692112319e-01
84 47 1.03827921541842727e+00
85 47 1.08786648582599499e+00
86 47 1.13445163289232398e+00
87 47 1.17787277305252713e+00
88 47 1.21799527383064765e+00
89 47 1.25471298578550083e+00
90 47 1.28794888372178096e+00
91 47 1.31765512113928707e+00
92 47 1.34381252271856577e+00
93 47 1.36642955815347511e+00
94 47 1.38554085595892063e+00
95 47 1.40120532741230708e+00
96 47 1.41350397824495322e+00
97 47 1.42253748909763678e+00
98 47 1.42842364536597133e+00
99 47 1.43129469336578996e+00
100 47 1.43129469336578952e+00
101 47 1.43129469336578996e+00
102 47 1.42842364536597000e+00
103 47 1.42253748909763633e+00
104 47 1.41350397824495300e+00
105 47 1.40120532741230686e+00
106 47 1.38554085595892063e+00
107 47 1.36642955815347555e+00
108 47 1.34381252271856666e+00
109 47 1.31765512113928640e+00
110 47 1.28794888372178096e+00
111 47 1.25471298578550150e+00
112 47 1.21799527383064832e+00
113 47 1.17787277305252736e+00
114 47 1.13445163289232465e+00
115 47 1.08786648582599565e+00
116 47 1.03827921541842727e+00
117 47 9.85877151692112874e-01
118 47 9.30870733807803830e-01
119 47 8.73490700607959303e-01
120 47 8.13984887474509811e-01
121 47 7.52614722117611157e-01
122 47 6.89651521528578781e-01
123 47 6.25372696922811722e-01
124 47 5.60057972962604511e-01
125 47 4.93985722145541817e-01
126 47 4.27429505556163380e-01
127 47 3.60654898045053629e-01
128 47 2.93916660324142764e-01
129 47 2.27456303522527659e-01
130 47 1.61500074483577061e-01
131 47 9.62573734498919781e-02
132 47 3.19196005658831938e-02
133 47 3.50566092973401403e-16
1 48 0.00000000000000000e+00
2 48 -3.09924319556134920e-02
3 48 -9.34613856058236075e-02
4 48 -1.56808981958522331e-01
5 48 -2.20849380469129192e-01
6 48 -2.85379263343710832e-01
7 48 -3.50178955530763503e-01
8 48 -4.15013961074750359e-01
9 48 -4.79636919297922959e-01
10 48 -5.43789969502152304e-01
11 48 -6.07207496731488328e-01
12 48 -6.69619214374043925e-01
13 48 -7.30753522929551314e-01
14 48 -7.90341069145946595e-01
15 48 -8.48118416976329059e-01
16 48 -9.03831732401015220e-01
17 48 -9.57240378912200929e-01
18 48 -1.00812031993838702e+00
19 48 -1.05626722894494218e+00
20 48 -1.10149921728437761e+00
21 48 -1.14365910362357659e+00
22 48 -1.18261616615599596e+00
23 48 -1.21826733876317839e+00
24 48 -1.25053783360059967e+00
25 48 -1.27938119396530969e+00
26 48 -1.30477880152334236e+00
27 48 -1.32673887994936557e+00
28 48 -1.34529505190384246e+00
29 48 -1.36050451746835277e+00
30 48 -1.37244592940080801e+00
31 48 -1.38121704387149880e+00
32 48 -1.38693222496375412e+00
33 48 -1.38971987763478388e+00
34 48 -1.38971987763478300e+00
35 48 -1.38971987763478388e+00
36 48 -1.38693222496375279e+00
37 48 -1.38121704387149880e+00
38 48 -1.37244592940080756e+00
39 48 -1.36050451746835255e+00
40 48 -1.34529505190384246e+00
41 48 -1.32673887994936623e+00
42 48 -1.30477880152334325e+00
43 48 -1.27938119396530903e+00
44 48 -1.25053783360059967e+00
45 48 -1.21826733876317883e+00
46 48 -1.18261616615599618e+00
47 48 -1.14365910362357659e+00
48 48 -1.10149921728437827e+00
49 48 -1.05626722894494285e+00
50 48 -1.00812031993838702e+00
51 48 -9.57240378912201595e-01
52 48 -9.03831732401015442e-01
53 48 -8.48118416976329281e-01
54 48 -7.90341069145946817e-01
55 48 -7.30753522929551425e-01
56 48 -6.69619214374044036e-01
57 48 -6.07207496731488328e-01
58 48 -5.43789969502152304e-01
59 48 -4.79636919297922792e-01
60 48 -4.15013961074750526e-01
61 48 -3.50178955530763725e-01
62 48 -2.85379263343710832e-01
63 48 -2.20849380469129247e-01
64 48 -1.56808981958522331e-01
65 48 -9.34613856058237463e-02
66 48 -3.09924319556136377e-02
67 48 -1.70191599985688898e-16
68 48 3.09924319556133462e-02
69 48 9.34613856058234410e-02
70 48 1.56808981958522192e-01
71 48 2.20849380469129192e-01
72 48 2.85379263343710721e-01
73 48 3.50178955530763503e-01
74 48 4.15013961074750359e-01
75 48 4.79636919297922959e-01
76 48 5.43789969502152304e-01
77 48 6.07207496731488328e-01
78 48 6.69619214374043925e-01
79 48 7.30753522929551314e-01
80 48 7.90341069145946595e-01
81 48 8.48118416976329059e-01
82 48 9.03831732401015220e-01
83 48 9.57240378912200929e-01
84 48 1.00812031993838702e+00
85 48 1.05626722894494218e+00
86 48 1.10149921728437761e+00
87 48 1.14365910362357659e+00
88 48 1.18261616615599596e+00
89 48 1.21826733876317839e+00
90 48 1.25053783360059967e+00
91 48 1.27938119396530969e+00
92 48 1.30477880152334236e+00
93 48 1.32673887994936557e+00
94 48 1.34529505190384246e+00
95 48 1.36050451746835277e+00
96 48 1.37244592940080801e+00
97 48 1.38121704387149880e+00
98 48 1.38693222496375412e+00
99 48 1.38971987763478388e+00
100 48 1.38971987763478300e+00
101 48 1.38971987763478388e+00
102 48 1.38693222496375279e+00
103 48 1.38121704387149880e+00
104 48 1.37244592940080756e+00
105 48 1.36050451746835255e+00
106 48 1.34529505190384246e+00
107 48 1.32673887994936623e+00
108 48 1.30477880152334325e+00
109 48 1.27938119396530903e+00
110 48 1.25053783360059967e+00
111 48 1.21826733876317883e+00
112 48 1.18261616615599663e+00
113 48 1.14365910362357659e+00
114 48 1.10149921728437827e+00
115 48 1.05626722894494285e+00
116 48 1.00812031993838702e+00
117 48 9.57240378912201595e-01
118 48 9.03831732401015553e-01
119 48 8.48118416976329281e-01
120 48 7.90341069145947150e-01
121 48 7.30753522929551647e-01
122 48 6.69619214374044147e-01
123 48 6.07207496731488328e-01
124 48 5.43789969502152637e-01
125 48 4.79636919297922792e-01
126 48 4.15013961074750859e-01
127 48 3.50178955530763891e-01
128 48 2.85379263343711054e-01
129 48 2.20849380469129469e-01
130 48 1.56808981958522498e-01
131 48 9.34613856058238851e-02
132 48 3.09924319556137973e-02
133 48 3.40383199971377796e-16
1 49 0.00000000000000000e+00
2 49 -3.00983854274230397e-02
3 49 -9.07652813620383192e-02
4 49 -1.52285473570736601e-01
5 49 -2.14478482498159401e-01
6 49 -2.77146855510230605e-01
7 49 -3.40077254577252741e-01
8 49 -4.03041948307864439e-01
9 49 -4.65800711700390280e-01
10 49 -5.28103122629519750e-01
11 49 -5.89691228401158840e-01
12 49 -6.50302539429717830e-01
13 49 -7.09673291114449323e-01
14 49 -7.67541900304719693e-01
15 49 -8.23652530359943902e-01
16 49 -8.77758669674644332e-01
17 49 -9.29626623443257971e-01
18 49 -9.79038817933962857e-01
19 49 -1.02579682087138235e+00
20 49 -1.06972399059587531e+00
21 49 -1.11066768002402050e+00
22 49 -1.14850093831431077e+00
23 49 -1.18312367252269279e+00
24 49 -1.21446325222851992e+00
25 49 -1.24247456087710928e+00
26 49 -1.26713951722228724e+00
27 49 -1.28846610770829684e+00
28 49 -1.30648698507420558e+00
29 49 -1.32125769933636383e+00
30 49 -1.33285463433666984e+00
31 49 -1.34137272624843074e+00
32 49 -1.34692304006531915e+00
33 49 -1.34963027661424828e+00
34 49 -1.34963027661424761e+00
35 49 -1.34963027661424828e+00
36 49 -1.34692304006531804e+00
37 49 -1.34137272624843074e+00
38 49 -1.33285463433666940e+00
39 49 -1.32125769933636339e+00
40 49 -1.30648698507420558e+00
41 49 -1.28846610770829728e+00
42 49 -1.26713951722228813e+00
43 49 -1.24247456087710861e+00
44 49 -1.21446325222851992e+00
45 49 -1.18312367252269324e+00
46 49 -1.14850093831431121e+00
47 49 -1.11066768002402050e+00
48 49 -1.06972399059587597e+00
49 49 -1.02579682087138302e+00
50 49 -9.79038817933962857e-01
51 49 -9.29626623443258637e-01
52 49 -8.77758669674644554e-01
53 49 -8.23652530359944235e-01
54 49 -7.67541900304720026e-01
55 49 -7.09673291114449545e-01
56 49 -6.50302539429717941e-01
57 49 -5.89691228401158840e-01
58 49 -5.28103122629519750e-01
59 49 -4.65800711700390169e-01
60 49 -4.03041948307864606e-01
61 49 -3.40077254577252908e-01
62 49 -2.77146855510230661e-01
63 49 -2.14478482498159428e-01
64 49 -1.52285473570736601e-01
65 49 -9.07652813620384719e-02
66 49 -3.00983854274231820e-02
67 49 -1.65282039828799580e-16
68 49 3.00983854274229010e-02
69 49 9.07652813620381665e-02
70 49 1.52285473570736463e-01
71 49 2.14478482498159401e-01
72 49 2.77146855510230550e-01
73 49 3.40077254577252741e-01
74 49 4.03041948307864439e-01
75 49 4.65800711700390280e-01
76 49 5.28103122629519750e-01
77 49 5.89691228401158840e-01
78 49 6.50302539429717830e-01
79 49 7.09673291114449323e-01
80 49 7.67541900304719693e-01
81 49 8.23652530359943902e-01
82 49 8.77758669674644332e-01
83 49 9.29626623443257971e-01
84 49 9.79038817933962857e-01
85 49 1.02579682087138235e+00
86 49 1.06972399059587531e+00
87 49 1.11066768002402050e+00
88 49 1.14850093831431077e+00
89 49 1.18312367252269279e+00
90 49 1.21446325222851992e+00
91 49 1.24247456087710928e+00
92 49 1.26713951722228724e+00
93 49 1.28846610770829684e+00
94 49 1.30648698507420558e+00
95 49 1.32125769933636383e+00
96 49 1.33285463433666984e+00
97 49 1.34137272624843074e+00
98 49 1.34692304006531915e+00
99 49 1.34963027661424828e+00
100 49 1.34963027661424761e+00
101 49 1.34963027661424828e+00
102 49 1.34692304006531804e+00
103 49 1.34137272624843074e+00
104 49 1.33285463433666940e+00
105 49 1.32125769933636339e+00
106 49 1.30648698507420558e+00
107 49 1.28846610770829728e+00
108 49 1.26713951722228813e+00
109 49 1.24247456087710861e+00
110 49 1.21446325222851992e+00
111 49 1.18312367252269324e+00
112 49 1.14850093831431166e+00
113 49 1.11066768002402050e+00
114 49 1.06972399059587597e+00
115 49 1.02579682087138302e+00
116 49 9.79038817933962857e-01
117 49 9.29626623443258637e-01
118 49 8.77758669674644554e-01
119 49 8.23652530359944235e-01
120 49 7.67541900304720359e-01
121 49 7.09673291114449545e-01
122 49 6.50302539429718052e-01
123 49 5.89691228401158951e-01
124 49 5.28103122629519972e-01
125 49 4.65800711700390169e-01
126 49 4.03041948307864939e-01
127 49 3.40077254577253130e-01
128 49 2.77146855510230827e-01
129 49 2.14478482498159678e-01
130 49 1.52285473570736768e-01
131 49 9.07652813620386106e-02
132 49 3.00983854274233346e-02
133 49 3.30564079657599161e-16
1 50 0.00000000000000000e+00
2 50 -2.92413225399482148e-02
3 50 -8.81807057104906783e-02
4 50 -1.47949087221584119e-01
5 50 -2.08371126741341672e-01
6 50 -2.69254994173982687e-01
7 50 -3.30393426370742649e-01
8 50 -3.91565176677599880e-01
9 50 -4.52536860590488810e-01
10 50 -5.13065186848654098e-01
11 50 -5.72899548058345642e-01
12 50 -6.31784929124015626e-01
13 50 -6.89465076241496555e-01
14 50 -7.45685854939119430e-01
15 50 -8.00198713621220525e-01
16 50 -8.52764160193348775e-01
17 50 -9.03155154397751514e-01
18 50 -9.51160317996756710e-01
19 50 -9.96586869148939014e-01
20 50 -1.03926319613259932e+00
21 50 -1.07904099854764279e+00
22 50 -1.11579694052569955e+00
23 50 -1.14943377930708390e+00
24 50 -1.17988095264979598e+00
25 50 -1.20709462871007922e+00
26 50 -1.23105724111207082e+00
27 50 -1.25177654888299905e+00
28 50 -1.26928427496285945e+00
29 50 -1.28363438756031645e+00
30 50 -1.29490109545853493e+00
31 50 -1.30317663148744733e+00
32 50 -1.30856889802310317e+00
33 50 -1.31119904498929363e+00
34 50 -1.31119904498929296e+00
35 50 -1.31119904498929363e+00
36 50 -1.30856889802310183e+00
37 50 -1.30317663148744689e+00
38 50 -1.29490109545853449e+00
39 50 -1.28363438756031645e+00
40 50 -1.26928427496285945e+00
41 50 -1.25177654888299950e+00
42 50 -1.23105724111207171e+00
43 50 -1.20709462871007855e+00
44 50 -1.17988095264979598e+00
45 50 -1.14943377930708435e+00
46 50 -1.11579694052570000e+00
47 50 -1.07904099854764279e+00
48 50 -1.03926319613259999e+00
49 50 -9.96586869148939569e-01
50 50 -9.51160317996756710e-01
51 50 -9.03155154397752180e-01
52 50 -8.52764160193348886e-01
53 50 -8.00198713621220969e-01
54 50 -7.45685854939119763e-01
55 50 -6.89465076241496777e-01
56 50 -6.31784929124015626e-01
57 50 -5.72899548058345642e-01
58 50 -5.13065186848654209e-01
59 50 -4.52536860590488754e-01
60 50 -3.91565176677600046e-01
61 50 -3.30393426370742760e-01
62 50 -2.69254994173982742e-01
63 50 -2.08371126741341700e-01
64 50 -1.47949087221584147e-01
65 50 -8.81807057104908448e-02
66 50 -2.92413225399483535e-02
67 50 -1.60575571349120444e-16
68 50 2.92413225399480795e-02
69 50 8.81807057104905395e-02
70 50 1.47949087221583980e-01
71 50 2.08371126741341645e-01
72 50 2.69254994173982687e-01
73 50 3.30393426370742649e-01
74 50 3.91565176677599880e-01
75 50 4.52536860590488810e-01
76 50 5.13065186848654098e-01
77 50 5.72899548058345642e-01
78 50 6.31784929124015626e-01
79 50 6.89465076241496555e-01
80 50 7.45685854939119430e-01
81 50 8.00198713621220525e-01
82 50 8.52764160193348775e-01
83 50 9.03155154397751514e-01
84 50 9.51160317996756710e-01
85 50 9.96586869148939014e-01
86 50 1.03926319613259932e+00
87 50 1.07904099854764279e+00
88 50 1.11579694052569955e+00
89 50 1.14943377930708390e+00
90 50 1.17988095264979598e+00
91 50 1.20709462871007922e+00
92 50 1.23105724111207082e+00
93 50 1.25177654888299905e+00
94 50 1.26928427496285945e+00
95 50 1.28363438756031645e+00
96 50 1.29490109545853493e+00
97 50 1.30317663148744733e+00
98 50 1.30856889802310317e+00
99 50 1.31119904498929363e+00
100 50 1.31119904498929296e+00
101 50 1.31119904498929363e+00
102 50 1.30856889802310183e+00
103 50 1.30317663148744689e+00
104 50 1.29490109545853449e+00
105 50 1.28363438756031645e+00
106 50 1.26928427496285945e+00
107 50 1.25177654888299950e+00
108 50 1.23105724111207171e+00
109 50 1.20709462871007855e+00
110 50 1.17988095264979598e+00
111 50 1.14943377930708435e+00
112 50 1.11579694052570044e+00
113 50 1.07904099854764279e+00
114 50 1.03926319613259999e+00
115 50 9.96586869148939569e-01
116 50 9.51160317996756710e-01
117 50 9.03155154397752180e-01
118 50 8.52764160193348997e-01
119 50 8.00198713621220969e-01
120 50 7.45685854939119985e-01
121 50 6.89465076241496888e-01
122 50 6.31784929124015848e-01
123 50 5.72899548058345753e-01
124 50 5.13065186848654431e-01
125 50 4.52536860590488754e-01
126 50 3.91565176677600324e-01
127 50 3.30393426370742982e-01
128 50 2.69254994173982964e-01
129 50 2.08371126741341950e-01
130 50 1.47949087221584313e-01
131 50 8.81807057104909697e-02
132 50 2.92413225399485027e-02
133 50 3.21151142698240887e-16
1 51 0.00000000000000000e+00
2 51 -2.84248384681918022e-02
3 51 -8.57185003314249877e-02
4 51 -1.43818013020603819e-01
5 51 -2.02552932103742256e-01
6 51 -2.61736783816582386e-01
7 51 -3.21168092267738237e-01
8 51 -3.80631788511761104e-01
9 51 -4.39901004669471352e-01
10 51 -4.98739242724124232e-01
11 51 -5.56902892809013172e-01
12 51 -6.14144060428668759e-01
13 51 -6.70213646966557275e-01
14 51 -7.24864613962071247e-01
15 51 -7.77855349944043484e-01
16 51 -8.28953049980690415e-01
17 51 -8.77937013293393353e-01
18 51 -9.24601763804478116e-01
19 51 -9.68759902578940069e-01
20 51 -1.01024460968372432e+00
21 51 -1.04891172560238966e+00
22 51 -1.08464135828385122e+00
23 51 -1.11733898020691069e+00
24 51 -1.14693599938746504e+00
25 51 -1.17338980786628699e+00
26 51 -1.19668332976058478e+00
27 51 -1.21682410744794134e+00
28 51 -1.23384297809189047e+00
29 51 -1.24779240298626148e+00
30 51 -1.25874451883661798e+00
31 51 -1.26678898312301191e+00
32 51 -1.27203068534233044e+00
33 51 -1.27458739263761189e+00
34 51 -1.27458739263761123e+00
35 51 -1.27458739263761189e+00
36 51 -1.27203068534232910e+00
37 51 -1.26678898312301147e+00
38 51 -1.25874451883661775e+00
39 51 -1.24779240298626148e+00
40 51 -1.23384297809189047e+00
41 51 -1.21682410744794156e+00
42 51 -1.19668332976058545e+00
43 51 -1.17338980786628633e+00
44 51 -1.14693599938746504e+00
45 51 -1.11733898020691114e+00
46 51 -1.08464135828385166e+00
47 51 -1.04891172560238966e+00
48 51 -1.01024460968372520e+00
49 51 -9.68759902578940402e-01
50 51 -9.24601763804478116e-01
51 51 -8.77937013293393909e-01
52 51 -8.28953049980690415e-01
53 51 -7.77855349944043928e-01
54 51 -7.24864613962071469e-01
55 51 -6.70213646966557497e-01
56 51 -6.14144060428668870e-01
57 51 -5.56902892809013172e-01
58 51 -4.98739242724124399e-01
59 51 -4.39901004669471352e-01
60 51 -3.80631788511761326e-01
61 51 -3.21168092267738292e-01
62 51 -2.61736783816582441e-01
63 51 -2.02552932103742284e-01
64 51 -1.43818013020603847e-01
65 51 -8.57185003314251542e-02
66 51 -2.84248384681919410e-02
67 51 -1.56091937062722182e-16
68 51 2.84248384681916738e-02
69 51 8.57185003314248628e-02
70 51 1.43818013020603680e-01
71 51 2.02552932103742200e-01
72 51 2.61736783816582386e-01
73 51 3.21168092267738237e-01
74 51 3.80631788511761104e-01
75 51 4.39901004669471352e-01
76 51 4.98739242724124232e-01
77 51 5.56902892809013172e-01
78 51 6.14144060428668759e-01
79 51 6.70213646966557275e-01
80 51 7.24864613962071247e-01
81 51 7.77855349944043484e-01
82 51 8.28953049980690415e-01
83 51 8.77937013293393353e-01
84 51 9.24601763804478116e-01
85 51 9.68759902578940069e-01
86 51 1.01024460968372432e+00
87 51 1.04891172560238966e+00
88 51 1.08464135828385122e+00
89 51 1.11733898020691069e+00
90 51 1.14693599938746504e+00
91 51 1.17338980786628699e+00
92 51 1.19668332976058478e+00
93 51 1.21682410744794134e+00
94 51 1.23384297809189047e+00
95 51 1.24779240298626148e+00
96 51 1.25874451883661798e+00
97 51 1.26678898312301191e+00
98 51 1.27203068534233044e+00
99 51 1.27458739263761189e+00
100 51 1.27458739263761123e+00
101 51 1.27458739263761189e+00
102 51 1.27203068534232910e+00
103 51 1.26678898312301147e+00
104 51 1.25874451883661775e+00
105 51 1.24779240298626148e+00
106 51 1.23384297809189047e+00
107 51 1.21682410744794156e+00
108 51 1.19668332976058545e+00
109 51 1.17338980786628633e+00
110 51 1.14693599938746504e+00
111 51 1.11733898020691114e+00
112 51 1.08464135828385211e+00
113 51 1.04891172560238966e+00
114 51 1.01024460968372520e+00
115 51 9.68759902578940402e-01
116 51 9.24601763804478116e-01
117 51 8.77937013293393909e-01
118 51 8.28953049980690637e-01
119 51 7.77855349944043928e-01
120 51 7.24864613962071802e-01
121 51 6.70213646966557497e-01
122 51 6.14144060428669092e-01
123 51 5.56902892809013395e-01
124 51 4.98739242724124676e-01
125 51 4.39901004669471407e-01
126 51 3.80631788511761548e-01
127 51 3.21168092267738514e-01
128 51 2.61736783816582663e-01
129 51 2.02552932103742533e-01
130 51 1.43818013020604013e-01
131 51 8.57185003314252653e-02
132 51 2.84248384681920832e-02
133 51 3.12183874125444364e-16
1 52 0.00000000000000000e+00
2 52 -2.76522120949040384e-02
3 52 -8.33885530879658332e-02
4 52 -1.39908840768388387e-01
5 52 -1.97047263619284846e-01
6 52 -2.54622416490889236e-01
7 52 -3.12438299884845672e-01
8 52 -3.70285690726721184e-01
9 52 -4.27943887719668736e-01
10 52 -4.85182821189717617e-01
11 52 -5.41765502922840758e-01
12 52 -5.97450776538376527e-01
13 52 -6.51996314264272958e-01
14 52 -7.05161792486520667e-01
15 52 -7.56712167067480235e-01
16 52 -8.06420961034991834e-01
17 52 -8.54073472562457581e-01
18 52 -8.99469810695821992e-01
19 52 -9.42427670261991257e-01
20 52 -9.82784765724121989e-01
21 52 -1.02040085602056041e+00
22 52 -1.05515930793177848e+00
23 52 -1.08696816332517687e+00
24 52 -1.11576069464152816e+00
25 52 -1.14149545206479130e+00
26 52 -1.16415582385825633e+00
27 52 -1.18374914738726478e+00
28 52 -1.20030542161865039e+00
29 52 -1.21387568187580985e+00
30 52 -1.22453010408900620e+00
31 52 -1.23235590872413803e+00
32 52 -1.23745513423668108e+00
33 52 -1.23994234669605241e+00
34 52 -1.23994234669605197e+00
35 52 -1.23994234669605263e+00
36 52 -1.23745513423667997e+00
37 52 -1.23235590872413758e+00
38 52 -1.22453010408900598e+00
39 52 -1.21387568187580985e+00
40 52 -1.20030542161865039e+00
41 52 -1.18374914738726522e+00
42 52 -1.16415582385825678e+00
43 52 -1.14149545206479064e+00
44 52 -1.11576069464152816e+00
45 52 -1.08696816332517732e+00
46 52 -1.05515930793177892e+00
47 52 -1.02040085602056041e+00
48 52 -9.82784765724122766e-01
49 52 -9.42427670261991368e-01
50 52 -8.99469810695821992e-01
51 52 -8.54073472562458136e-01
52 52 -8.06420961034991945e-01
53 52 -7.56712167067480679e-01
54 52 -7.05161792486520778e-01
55 52 -6.51996314264273291e-01
56 52 -5.97450776538376638e-01
57 52 -5.41765502922840758e-01
58 52 -4.85182821189717783e-01
59 52 -4.27943887719668736e-01
60 52 -3.70285690726721406e-01
61 52 -3.12438299884845727e-01
62 52 -2.54622416490889292e-01
63 52 -1.97047263619284874e-01
64 52 -1.39908840768388387e-01
65 52 -8.33885530879660275e-02
66 52 -2.76522120949041703e-02
67 52 -1.51849142600857838e-16
68 52 2.76522120949039135e-02
69 52 8.33885530879657361e-02
70 52 1.39908840768388248e-01
71 52 1.97047263619284763e-01
72 52 2.54622416490889236e-01
73 52 3.12438299884845672e-01
74 52 3.70285690726721184e-01
75 52 4.27943887719668736e-01
76 52 4.85182821189717617e-01
77 52 5.41765502922840758e-01
78 52 5.97450776538376527e-01
79 52 6.51996314264272958e-01
80 52 7.05161792486520667e-01
81 52 7.56712167067480235e-01
82 52 8.06420961034991834e-01
83 52 8.54073472562457581e-01
84 52 8.99469810695821992e-01
85 52 9.42427670261991257e-01
86 52 9.82784765724121989e-01
87 52 1.02040085602056041e+00
88 52 1.05515930793177848e+00
89 52 1.08696816332517687e+00
90 52 1.11576069464152816e+00
91 52 1.14149545206479130e+00
92 52 1.16415582385825633e+00
93 52 1.18374914738726478e+00
94 52 1.20030542161865039e+00
95 52 1.21387568187580985e+00
96 52 1.22453010408900620e+00
97 52 1.23235590872413803e+00
98 52 1.23745513423668108e+00
99 52 1.23994234669605241e+00
100 52 1.23994234669605197e+00
101 52 1.23994234669605263e+00
102 52 1.23745513423667997e+00
103 52 1.23235590872413758e+00
104 52 1.22453010408900598e+00
105 52 1.21387568187580985e+00
106 52 1.20030542161865039e+00
107 52 1.18374914738726522e+00
108 52 1.16415582385825678e+00
109 52 1.14149545206479064e+00
110 52 1.11576069464152816e+00
111 52 1.08696816332517732e+00
112 52 1.05515930793177914e+00
113 52 1.02040085602056041e+00
114 52 9.82784765724122766e-01
115 52 9.42427670261991368e-01
116 52 8.99469810695821992e-01
117 52 8.54073472562458136e-01
118 52 8.06420961034992057e-01
119 52 7.56712167067480679e-01
120 52 7.05161792486521000e-01
121 52 6.51996314264273291e-01
122 52 5.97450776538376860e-01
123 52 5.41765502922840980e-01
124 52 4.85182821189718116e-01
125 52 4.27943887719668847e-01
126 52 3.70285690726721683e-01
127 52 3.12438299884845949e-01
128 52 2.54622416490889514e-01
129 52 1.97047263619285096e-01
130 52 1.39908840768388554e-01
131 52 8.33885530879661246e-02
132 52 2.76522120949043125e-02
133 52 3.03698285201715676e-16
1 53 0.00000000000000000e+00
2 53 -2.69263622360369943e-02
3 53 -8.11996660187399438e-02
4 53 -1.36236338475354796e-01
5 53 -1.91874920517137421e-01
6 53 -2.47938768743649618e-01
7 53 -3.04237028496584183e-01
8 53 -3.60565968650525814e-01
9 53 -4.16710681152387241e-01
10 53 -4.72447135484841518e-01
11 53 -5.27544564197000243e-01
12 53 -5.81768141082593004e-01
13 53 -6.34881899292106255e-01
14 53 -6.86651823526420735e-01
15 53 -7.36849039380486737e-01
16 53 -7.85253014733055865e-01
17 53 -8.31654683519689186e-01
18 53 -8.75859401774177648e-01
19 53 -9.17689649697693288e-01
20 53 -9.56987401627200529e-01
21 53 -9.93616097723887592e-01
22 53 -1.02746216630289333e+00
23 53 -1.05843606306373172e+00
24 53 -1.08647281199563306e+00
25 53 -1.11153205130918620e+00
26 53 -1.13359760531332898e+00
27 53 -1.15267661877305749e+00
28 53 -1.16879830320479261e+00
29 53 -1.18201235429291196e+00
30 53 -1.19238710590206365e+00
31 53 -1.20000748902623489e+00
32 53 -1.20497286368786227e+00
33 53 -1.20739478868283778e+00
34 53 -1.20739478868283734e+00
35 53 -1.20739478868283823e+00
36 53 -1.20497286368786138e+00
37 53 -1.20000748902623466e+00
38 53 -1.19238710590206365e+00
39 53 -1.18201235429291196e+00
40 53 -1.16879830320479261e+00
41 53 -1.15267661877305816e+00
42 53 -1.13359760531332920e+00
43 53 -1.11153205130918553e+00
44 53 -1.08647281199563306e+00
45 53 -1.05843606306373195e+00
46 53 -1.02746216630289378e+00
47 53 -9.93616097723887592e-01
48 53 -9.56987401627201195e-01
49 53 -9.17689649697693510e-01
50 53 -8.75859401774177648e-01
51 53 -8.31654683519689519e-01
52 53 -7.85253014733055865e-01
53 53 -7.36849039380487181e-01
54 53 -6.86651823526420957e-01
55 53 -6.34881899292106588e-01
56 53 -5.81768141082593115e-01
57 53 -5.27544564197000243e-01
58 53 -4.72447135484841629e-01
59 53 -4.16710681152387241e-01
60 53 -3.60565968650526036e-01
61 53 -3.04237028496584239e-01
62 53 -2.47938768743649701e-01
63 53 -1.91874920517137448e-01
64 53 -1.36236338475354796e-01
65 53 -8.11996660187401381e-02
66 53 -2.69263622360371192e-02
67 53 -1.47863216326763230e-16
68 53 2.69263622360368729e-02
69 53 8.11996660187398606e-02
70 53 1.36236338475354657e-01
71 53 1.91874920517137310e-01
72 53 2.47938768743649618e-01
73 53 3.04237028496584183e-01
74 53 3.60565968650525814e-01
75 53 4.16710681152387241e-01
76 53 4.72447135484841518e-01
77 53 5.27544564197000243e-01
78 53 5.81768141082593004e-01
79 53 6.34881899292106255e-01
80 53 6.86651823526420735e-01
81 53 7.36849039380486737e-01
82 53 7.85253014733055865e-01
83 53 8.31654683519689186e-01
84 53 8.75859401774177648e-01
85 53 9.17689649697693288e-01
86 53 9.56987401627200529e-01
87 53 9.93616097723887592e-01
88 53 1.02746216630289333e+00
89 53 1.05843606306373172e+00
90 53 1.08647281199563306e+00
91 53 1.11153205130918620e+00
92 53 1.13359760531332898e+00
93 53 1.15267661877305749e+00
94 53 1.16879830320479261e+00
95 53 1.18201235429291196e+00
96 53 1.19238710590206365e+00
97 53 1.20000748902623489e+00
98 53 1.20497286368786227e+00
99 53 1.20739478868283778e+00
100 53 1.20739478868283734e+00
101 53 1.20739478868283823e+00
102 53 1.20497286368786138e+00
103 53 1.20000748902623466e+00
104 53 1.19238710590206365e+00
105 53 1.18201235429291196e+00
106 53 1.16879830320479261e+00
107 53 1.15267661877305816e+00
108 53 1.13359760531332920e+00
109 53 1.11153205130918553e+00
110 53 1.08647281199563306e+00
111 53 1.05843606306373195e+00
112 53 1.02746216630289400e+00
113 53 9.93616097723887592e-01
114 53 9.56987401627201195e-01
115 53 9.17689649697693510e-01
116 53 8.75859401774177648e-01
117 53 8.31654683519689519e-01
118 53 7.85253014733055865e-01
119 53 7.36849039380487181e-01
120 53 6.86651823526421068e-01
121 53 6.34881899292106588e-01
122 53 5.81768141082593337e-01
123 53 5.27544564197000465e-01
124 53 4.72447135484842018e-01
125 53 4.16710681152387352e-01
126 53 3.60565968650526258e-01
127 53 3.04237028496584461e-01
128 53 2.47938768743649868e-01
129 53 1.91874920517137670e-01
130 53 1.36236338475354934e-01
131 53 8.11996660187402353e-02
132 53 2.69263622360372580e-02
133 53 2.95726432653526459e-16
1 54 0.00000000000000000e+00
2 54 -2.62498112226366397e-02
3 54 -7.91594455147156401e-02
4 54 -1.32813268101069415e-01
5 54 -1.87053876709435629e-01
6 54 -2.41709066276442536e-01
7 54 -2.96592777552511289e-01
8 54 -3.51506398354701988e-01
9 54 -4.06240420403570557e-01
10 54 -4.60576442166210520e-01
11 54 -5.14289494448155526e-01
12 54 -5.67150651279729967e-01
13 54 -6.18929874707784489e-01
14 54 -6.69399029294964532e-01
15 54 -7.18334991328026362e-01
16 54 -7.65522769769541589e-01
17 54 -8.10758551543073303e-01
18 54 -8.53852583301183743e-01
19 54 -8.94631805602472352e-01
20 54 -9.32942163332228347e-01
21 54 -9.68650527850274390e-01
22 54 -1.00164618107068071e+00
23 54 -1.03184182858051332e+00
24 54 -1.05917412695440571e+00
25 54 -1.08360372853212183e+00
26 54 -1.10511486405255410e+00
27 54 -1.12371449876153617e+00
28 54 -1.13943111020775611e+00
29 54 -1.15231314542323648e+00
30 54 -1.16242722131788145e+00
31 54 -1.16985613491193319e+00
32 54 -1.17469674971072480e+00
33 54 -1.17705782148700799e+00
34 54 -1.17705782148700777e+00
35 54 -1.17705782148700866e+00
36 54 -1.17469674971072413e+00
37 54 -1.16985613491193319e+00
38 54 -1.16242722131788123e+00
39 54 -1.15231314542323648e+00
40 54 -1.13943111020775611e+00
41 54 -1.12371449876153662e+00
42 54 -1.10511486405255410e+00
43 54 -1.08360372853212117e+00
44 54 -1.05917412695440571e+00
45 54 -1.03184182858051354e+00
46 54 -1.00164618107068115e+00
47 54 -9.68650527850274390e-01
48 54 -9.32942163332228902e-01
49 54 -8.94631805602472463e-01
50 54 -8.53852583301183743e-01
51 54 -8.10758551543073525e-01
52 54 -7.65522769769541478e-01
53 54 -7.18334991328026806e-01
54 54 -6.69399029294964643e-01
55 54 -6.18929874707784933e-01
56 54 -5.67150651279730078e-01
57 54 -5.14289494448155637e-01
58 54 -4.60576442166210631e-01
59 54 -4.06240420403570612e-01
60 54 -3.51506398354702210e-01
61 54 -2.96592777552511289e-01
62 54 -2.41709066276442591e-01
63 54 -1.87053876709435685e-01
64 54 -1.32813268101069443e-01
65 54 -7.91594455147158205e-02
66 54 -2.62498112226367611e-02
67 54 -1.44148009349542151e-16
68 54 2.62498112226365217e-02
69 54 7.91594455147155429e-02
70 54 1.32813268101069304e-01
71 54 1.87053876709435546e-01
72 54 2.41709066276442536e-01
73 54 2.96592777552511289e-01
74 54 3.51506398354701988e-01
75 54 4.06240420403570557e-01
76 54 4.60576442166210520e-01
77 54 5.14289494448155526e-01
78 54 5.67150651279729967e-01
79 54 6.18929874707784489e-01
80 54 6.69399029294964532e-01
81 54 7.18334991328026362e-01
82 54 7.65522769769541589e-01
83 54 8.10758551543073303e-01
84 54 8.53852583301183743e-01
85 54 8.94631805602472352e-01
86 54 9.32942163332228347e-01
87 54 9.68650527850274390e-01
88 54 1.00164618107068071e+00
89 54 1.03184182858051332e+00
90 54 1.05917412695440571e+00
91 54 1.08360372853212183e+00
92 54 1.10511486405255410e+00
93 54 1.12371449876153617e+00
94 54 1.13943111020775611e+00
95 54 1.15231314542323648e+00
96 54 1.16242722131788145e+00
97 54 1.16985613491193319e+00
98 54 1.17469674971072480e+00
99 54 1.17705782148700799e+00
100 54 1.17705782148700777e+00
101 54 1.17705782148700866e+00
102 54 1.17469674971072413e+00
103 54 1.16985613491193319e+00
104 54 1.16242722131788123e+00
105 54 1.15231314542323648e+00
106 54 1.13943111020775611e+00
107 54 1.12371449876153662e+00
108 54 1.10511486405255410e+00
109 54 1.08360372853212117e+00
110 54 1.05917412695440571e+00
111 54 1.03184182858051354e+00
112 54 1.00164618107068115e+00
113 54 9.68650527850274390e-01
114 54 9.32942163332228902e-01
115 54 8.94631805602472463e-01
116 54 8.53852583301183743e-01
117 54 8.10758551543073525e-01
118 54 7.65522769769541589e-01
119 54 7.18334991328026806e-01
120 54 6.69399029294964754e-01
121 54 6.18929874707784933e-01
122 54 5.67150651279730411e-01
123 54 5.14289494448155748e-01
124 54 4.60576442166211020e-01
125 54 4.06240420403570668e-01
126 54 3.51506398354702432e-01
127 54 2.96592777552511511e-01
128 54 2.41709066276442786e-01
129 54 1.87053876709435907e-01
130 54 1.32813268101069581e-01
131 54 7.91594455147159176e-02
132 54 2.62498112226368999e-02
133 54 2.88296018699084302e-16
1 55 0.00000000000000000e+00
2 55 -2.56246567826232639e-02
3 55 -7.72742175253483821e-02
4 55 -1.29650243287600636e-01
5 55 -1.82599080423290289e-01
6 55 -2.35952625032251867e-01
7 55 -2.89529248973572129e-01
8 55 -3.43135070128346875e-01
9 55 -3.96565569778009219e-01
10 55 -4.49607547748506253e-01
11 55 -5.02041392616884408e-01
12 55 -5.53643630417871457e-01
13 55 -6.04189701685251435e-01
14 55 -6.53456904159088747e-01
15 55 -7.01227427946449433e-01
16 55 -7.47291402145835781e-01
17 55 -7.91449867607133983e-01
18 55 -8.33517590068649228e-01
19 55 -8.73325631599694452e-01
20 55 -9.10723605997238006e-01
21 55 -9.45581555156684406e-01
22 55 -9.77791397807371565e-01
23 55 -1.00726791850331021e+00
24 55 -1.03394928237945383e+00
25 55 -1.05779707886285745e+00
26 55 -1.07879591424649002e+00
27 55 -1.09695258789482564e+00
28 55 -1.11229489914725632e+00
29 55 -1.12487014124170948e+00
30 55 -1.13474334456784187e+00
31 55 -1.14199533428695932e+00
32 55 -1.14672066704397935e+00
33 55 -1.14902550853000984e+00
34 55 -1.14902550853000984e+00
35 55 -1.14902550853001029e+00
36 55 -1.14672066704397890e+00
37 55 -1.14199533428695932e+00
38 55 -1.13474334456784143e+00
39 55 -1.12487014124170948e+00
40 55 -1.11229489914725632e+00
41 55 -1.09695258789482608e+00
42 55 -1.07879591424649002e+00
43 55 -1.05779707886285723e+00
44 55 -1.03394928237945383e+00
45 55 -1.00726791850331066e+00
46 55 -9.77791397807371898e-01
47 55 -9.45581555156684406e-01
48 55 -9.10723605997238450e-01
49 55 -8.73325631599694563e-01
50 55 -8.33517590068649228e-01
51 55 -7.91449867607134316e-01
52 55 -7.47291402145835781e-01
53 55 -7.01227427946449766e-01
54 55 -6.53456904159088858e-01
55 55 -6.04189701685251879e-01
56 55 -5.53643630417871568e-01
57 55 -5.02041392616884519e-01
58 55 -4.49607547748506364e-01
59 55 -3.96565569778009275e-01
60 55 -3.43135070128347042e-01
61 55 -2.89529248973572129e-01
62 55 -2.35952625032251895e-01
63 55 -1.82599080423290344e-01
64 55 -1.29650243287600692e-01
65 55 -7.72742175253485486e-02
66 55 -2.56246567826233854e-02
67 55 -1.40715041115993686e-16
68 55 2.56246567826231460e-02
69 55 7.72742175253482849e-02
70 55 1.29650243287600553e-01
71 55 1.82599080423290178e-01
72 55 2.35952625032251839e-01
73 55 2.89529248973572129e-01
74 55 3.43135070128346875e-01
75 55 3.96565569778009219e-01
76 55 4.49607547748506253e-01
77 55 5.02041392616884408e-01
78 55 5.53643630417871457e-01
79 55 6.04189701685251435e-01
80 55 6.53456904159088747e-01
81 55 7.01227427946449433e-01
82 55 7.47291402145835781e-01
83 55 7.91449867607133983e-01
84 55 8.33517590068649228e-01
85 55 8.73325631599694452e-01
86 55 9.10723605997238006e-01
87 55 9.45581555156684406e-01
88 55 9.77791397807371565e-01
89 55 1.00726791850331021e+00
90 55 1.03394928237945383e+00
91 55 1.05779707886285745e+00
92 55 1.07879591424649002e+00
93 55 1.09695258789482564e+00
94 55 1.11229489914725632e+00
95 55 1.12487014124170948e+00
96 55 1.13474334456784187e+00
97 55 1.14199533428695932e+00
98 55 1.14672066704397935e+00
99 55 1.14902550853000984e+00
100 55 1.14902550853000984e+00
101 55 1.14902550853001029e+00
102 55 1.14672066704397890e+00
103 55 1.14199533428695932e+00
104 55 1.13474334456784143e+00
105 55 1.12487014124170948e+00
106 55 1.11229489914725632e+00
107 55 1.09695258789482608e+00
108 55 1.07879591424649002e+00
109 55 1.05779707886285723e+00
110 55 1.03394928237945383e+00
111 55 1.00726791850331066e+00
112 55 9.77791397807372120e-01
113 55 9.45581555156684406e-01
114 55 9.10723605997238450e-01
115 55 8.73325631599694563e-01
116 55 8.33517590068649228e-01
117 55 7.91449867607134316e-01
118 55 7.47291402145835781e-01
119 55 7.01227427946449766e-01
120 55 6.53456904159088969e-01
121 55 6.04189701685251990e-01
122 55 5.53643630417871901e-01
123 55 5.02041392616884630e-01
124 55 4.49607547748506753e-01
125 55 3.96565569778009386e-01
126 55 3.43135070128347264e-01
127 55 2.89529248973572351e-01
128 55 2.35952625032252117e-01
129 55 1.82599080423290594e-01
130 55 1.29650243287600803e-01
131 55 7.72742175253486457e-02
132 55 2.56246567826235172e-02
133 55 2.81430082231987372e-16
1 56 0.00000000000000000e+00
2 56 -2.50525528456666154e-02
3 56 -7.55489696733859240e-02
4 56 -1.26755632240067612e-01
5 56 -1.78522317417993431e-01
6 56 -2.30684674446168470e-01
7 56 -2.83065130269191834e-01
8 56 -3.35474131439738033e-01
9 56 -3.87711725386801431e-01
10 56 -4.39569471908724807e-01
11 56 -4.90832662694457189e-01
12 56 -5.41282813126932161e-01
13 56 -5.90700377323365888e-01
14 56 -6.38867625142698903e-01
15 56 -6.85571609582388719e-01
16 56 -7.30607145382974221e-01
17 56 -7.73779715417274971e-01
18 56 -8.14908221020465229e-01
19 56 -8.53827496021849375e-01
20 56 -8.90390511786833039e-01
21 56 -9.24470211695273769e-01
22 56 -9.55960927532066851e-01
23 56 -9.84779346397374744e-01
24 56 -1.01086501397028972e+00
25 56 -1.03418037724408451e+00
26 56 -1.05471038619634716e+00
27 56 -1.07246168838685718e+00
28 56 -1.08746146249843978e+00
29 56 -1.09975594588570535e+00
30 56 -1.10940871704990962e+00
31 56 -1.11649879662504858e+00
32 56 -1.12111863015541924e+00
33 56 -1.12337201304438805e+00
34 56 -1.12337201304438827e+00
35 56 -1.12337201304438872e+00
36 56 -1.12111863015541902e+00
37 56 -1.11649879662504858e+00
38 56 -1.10940871704990918e+00
39 56 -1.09975594588570513e+00
40 56 -1.08746146249843978e+00
41 56 -1.07246168838685763e+00
42 56 -1.05471038619634694e+00
43 56 -1.03418037724408429e+00
44 56 -1.01086501397028972e+00
45 56 -9.84779346397375410e-01
46 56 -9.55960927532067184e-01
47 56 -9.24470211695273769e-01
48 56 -8.90390511786833372e-01
49 56 -8.53827496021849597e-01
50 56 -8.14908221020465229e-01
51 56 -7.73779715417275304e-01
52 56 -7.30607145382974332e-01
53 56 -6.85571609582389052e-01
54 56 -6.38867625142699014e-01
55 56 -5.90700377323366443e-01
56 56 -5.41282813126932272e-01
57 56 -4.90832662694457356e-01
58 56 -4.39569471908724918e-01
59 56 -3.87711725386801487e-01
60 56 -3.35474131439738199e-01
61 56 -2.83065130269191834e-01
62 56 -2.30684674446168497e-01
63 56 -1.78522317417993487e-01
64 56 -1.26755632240067667e-01
65 56 -7.55489696733860905e-02
66 56 -2.50525528456667333e-02
67 56 -1.37573394002652935e-16
68 56 2.50525528456665009e-02
69 56 7.55489696733858268e-02
70 56 1.26755632240067556e-01
71 56 1.78522317417993348e-01
72 56 2.30684674446168442e-01
73 56 2.83065130269191834e-01
74 56 3.35474131439738033e-01
75 56 3.87711725386801431e-01
76 56 4.39569471908724807e-01
77 56 4.90832662694457189e-01
78 56 5.41282813126932161e-01
79 56 5.90700377323365888e-01
80 56 6.38867625142698903e-01
81 56 6.85571609582388719e-01
82 56 7.30607145382974221e-01
83 56 7.73779715417274971e-01
84 56 8.14908221020465229e-01
85 56 8.53827496021849375e-01
86 56 8.90390511786833039e-01
87 56 9.24470211695273769e-01
88 56 9.55960927532066851e-01
89 56 9.84779346397374744e-01
90 56 1.01086501397028972e+00
91 56 1.03418037724408451e+00
92 56 1.05471038619634716e+00
93 56 1.07246168838685718e+00
94 56 1.08746146249843978e+00
95 56 1.09975594588570535e+00
96 56 1.10940871704990962e+00
97 56 1.11649879662504858e+00
98 56 1.12111863015541924e+00
99 56 1.12337201304438805e+00
100 56 1.12337201304438827e+00
101 56 1.12337201304438872e+00
102 56 1.12111863015541902e+00
103 56 1.11649879662504858e+00
104 56 1.10940871704990918e+00
105 56 1.09975594588570513e+00
106 56 1.08746146249843978e+00
107 56 1.07246168838685763e+00
108 56 1.05471038619634694e+00
109 56 1.03418037724408429e+00
110 56 1.01086501397028972e+00
111 56 9.84779346397375410e-01
112 56 9.55960927532067628e-01
113 56 9.24470211695273769e-01
114 56 8.90390511786833372e-01
115 56 8.53827496021849597e-01
116 56 8.14908221020465229e-01
117 56 7.73779715417275304e-01
118 56 7.30607145382974332e-01
119 56 6.85571609582389052e-01
120 56 6.38867625142699236e-01
121 56 5.90700377323366554e-01
122 56 5.41282813126932605e-01
123 56 4.90832662694457411e-01
124 56 4.39569471908725196e-01
125 56 3.87711725386801542e-01
126 56 3.35474131439738421e-01
127 56 2.83065130269192000e-01
128 56 2.30684674446168692e-01
129 56 1.78522317417993737e-01
130 56 1.26755632240067778e-01
131 56 7.55489696733861876e-02
132 56 2.50525528456668686e-02
133 56 2.75146788005305869e-16
1 57 0.00000000000000000e+00
2 57 -2.45346995523836736e-02
3 57 -7.39873211264090863e-02
4 57 -1.24135507177282473e-01
5 57 -1.74832139791428670e-01
6 57 -2.25916265449776943e-01
7 57 -2.77213981652661923e-01
8 57 -3.28539653151336708e-01
9 57 -3.79697460530328101e-01
10 57 -4.30483272188605270e-01
11 57 -4.80686817981824499e-01
12 57 -5.30094129518438262e-01
13 57 -5.78490199078265821e-01
14 57 -6.25661797150234511e-01
15 57 -6.71400378491065708e-01
16 57 -7.15504999160056832e-01
17 57 -7.57785162831242420e-01
18 57 -7.98063514272275065e-01
19 57 -8.36178301409456037e-01
20 57 -8.71985534789989747e-01
21 57 -9.05360784140421426e-01
22 57 -9.36200565479465840e-01
23 57 -9.64423288041544757e-01
24 57 -9.89969747137649736e-01
25 57 -1.01280316600722320e+00
26 57 -1.03290880572204524e+00
27 57 -1.05029317643231668e+00
28 57 -1.06498289501901788e+00
29 57 -1.07702324307921593e+00
30 57 -1.08647648490333748e+00
31 57 -1.09342000771516989e+00
32 57 -1.09794434614678305e+00
33 57 -1.10015115008001585e+00
34 57 -1.10015115008001585e+00
35 57 -1.10015115008001607e+00
36 57 -1.09794434614678305e+00
37 57 -1.09342000771516989e+00
38 57 -1.08647648490333704e+00
39 57 -1.07702324307921571e+00
40 57 -1.06498289501901788e+00
41 57 -1.05029317643231712e+00
42 57 -1.03290880572204502e+00
43 57 -1.01280316600722298e+00
44 57 -9.89969747137649736e-01
45 57 -9.64423288041545423e-01
46 57 -9.36200565479466063e-01
47 57 -9.05360784140421426e-01
48 57 -8.71985534789990191e-01
49 57 -8.36178301409456037e-01
50 57 -7.98063514272275065e-01
51 57 -7.57785162831242864e-01
52 57 -7.15504999160057054e-01
53 57 -6.71400378491065930e-01
54 57 -6.25661797150234622e-01
55 57 -5.78490199078266376e-01
56 57 -5.30094129518438373e-01
57 57 -4.80686817981824610e-01
58 57 -4.30483272188605381e-01
59 57 -3.79697460530328157e-01
60 57 -3.28539653151336819e-01
61 57 -2.77213981652661923e-01
62 57 -2.25916265449776971e-01
63 57 -1.74832139791428726e-01
64 57 -1.24135507177282528e-01
65 57 -7.39873211264092528e-02
66 57 -2.45346995523837916e-02
67 57 -1.34729658452377113e-16
68 57 2.45346995523835591e-02
69 57 7.39873211264089892e-02
70 57 1.24135507177282417e-01
71 57 1.74832139791428615e-01
72 57 2.25916265449776887e-01
73 57 2.77213981652661923e-01
74 57 3.28539653151336708e-01
75 57 3.79697460530328101e-01
76 57 4.30483272188605270e-01
77 57 4.80686817981824499e-01
78 57 5.30094129518438262e-01
79 57 5.78490199078265821e-01
80 57 6.25661797150234511e-01
81 57 6.71400378491065708e-01
82 57 7.15504999160056832e-01
83 57 7.57785162831242420e-01
84 57 7.98063514272275065e-01
85 57 8.36178301409456037e-01
86 57 8.71985534789989747e-01
87 57 9.05360784140421426e-01
88 57 9.36200565479465840e-01
89 57 9.64423288041544757e-01
90 57 9.89969747137649736e-01
91 57 1.01280316600722320e+00
92 57 1.03290880572204524e+00
93 57 1.05029317643231668e+00
94 57 1.06498289501901788e+00
95 57 1.07702324307921593e+00
96 57 1.08647648490333748e+00
97 57 1.09342000771516989e+00
98 57 1.09794434614678305e+00
99 57 1.10015115008001585e+00
100 57 1.10015115008001585e+00
101 57 1.10015115008001607e+00
102 57 1.09794434614678305e+00
103 57 1.09342000771516989e+00
104 57 1.08647648490333704e+00
105 57 1.07702324307921571e+00
106 57 1.06498289501901788e+00
107 57 1.05029317643231712e+00
108 57 1.03290880572204502e+00
109 57 1.01280316600722298e+00
110 57 9.89969747137649736e-01
111 57 9.64423288041545423e-01
112 57 9.36200565479466507e-01
113 57 9.05360784140421426e-01
114 57 8.71985534789990191e-01
115 57 8.36178301409456037e-01
116 57 7.98063514272275065e-01
117 57 7.57785162831242864e-01
118 57 7.15504999160057054e-01
119 57 6.71400378491065930e-01
120 57 6.25661797150234844e-01
121 57 5.78490199078266487e-01
122 57 5.30094129518438706e-01
123 57 4.80686817981824721e-01
124 57 4.30483272188605604e-01
125 57 3.79697460530328268e-01
126 57 3.28539653151337041e-01
127 57 2.77213981652662034e-01
128 57 2.25916265449777109e-01
129 57 1.74832139791429003e-01
130 57 1.24135507177282625e-01
131 57 7.39873211264093500e-02
132 57 2.45346995523839269e-02
133 57 2.69459316904754225e-16
1 58 0.00000000000000000e+00
2 58 -2.40718424059574443e-02
3 58 -7.25915200384367881e-02
4 58 -1.21793640039289858e-01
5 58 -1.71533859934580341e-01
6 58 -2.21654262659235546e-01
7 58 -2.71984226455405431e-01
8 58 -3.22341618159271093e-01
9 58 -3.72534312568759574e-01
10 58 -4.22362029109022374e-01
11 58 -4.71618464468029130e-01
12 58 -5.20093686855493065e-01
13 58 -5.67576744759853646e-01
14 58 -6.13858431332016119e-01
15 58 -6.58734135620051231e-01
16 58 -7.02006704572921914e-01
17 58 -7.43489235655801384e-01
18 58 -7.83007719515372624e-01
19 58 -8.20403455596994902e-01
20 58 -8.55535170867818606e-01
21 58 -8.88280782482413156e-01
22 58 -9.18538758727145188e-01
23 58 -9.46229048079615498e-01
24 58 -9.71293562771499364e-01
25 58 -9.93696219850875861e-01
26 58 -1.01342255844543727e+00
27 58 -1.03047896588873700e+00
28 58 -1.04489155692340407e+00
29 58 -1.05670475889064819e+00
30 58 -1.06597966143957934e+00
31 58 -1.07279219185234176e+00
32 58 -1.07723117678812508e+00
33 58 -1.07939634846215404e+00
34 58 -1.07939634846215404e+00
35 58 -1.07939634846215404e+00
36 58 -1.07723117678812508e+00
37 58 -1.07279219185234154e+00
38 58 -1.06597966143957890e+00
39 58 -1.05670475889064797e+00
40 58 -1.04489155692340407e+00
41 58 -1.03047896588873744e+00
42 58 -1.01342255844543705e+00
43 58 -9.93696219850875861e-01
44 58 -9.71293562771499364e-01
45 58 -9.46229048079616164e-01
46 58 -9.18538758727145521e-01
47 58 -8.88280782482413156e-01
48 58 -8.55535170867818939e-01
49 58 -8.20403455596994902e-01
50 58 -7.83007719515372624e-01
51 58 -7.43489235655801717e-01
52 58 -7.02006704572921914e-01
53 58 -6.58734135620051342e-01
54 58 -6.13858431332016230e-01
55 58 -5.67576744759854201e-01
56 58 -5.20093686855493176e-01
57 58 -4.71618464468029297e-01
58 58 -4.22362029109022430e-01
59 58 -3.72534312568759629e-01
60 58 -3.22341618159271259e-01
61 58 -2.71984226455405487e-01
62 58 -2.21654262659235574e-01
63 58 -1.71533859934580396e-01
64 58 -1.21793640039289927e-01
65 58 -7.25915200384369408e-02
66 58 -2.40718424059575622e-02
67 58 -1.32187928315551829e-16
68 58 2.40718424059573333e-02
69 58 7.25915200384366910e-02
70 58 1.21793640039289788e-01
71 58 1.71533859934580313e-01
72 58 2.21654262659235518e-01
73 58 2.71984226455405431e-01
74 58 3.22341618159271093e-01
75 58 3.72534312568759574e-01
76 58 4.22362029109022374e-01
77 58 4.71618464468029130e-01
78 58 5.20093686855493065e-01
79 58 5.67576744759853646e-01
80 58 6.13858431332016119e-01
81 58 6.58734135620051231e-01
82 58 7.02006704572921914e-01
83 58 7.43489235655801384e-01
84 58 7.83007719515372624e-01
85 58 8.20403455596994902e-01
86 58 8.55535170867818606e-01
87 58 8.88280782482413156e-01
88 58 9.18538758727145188e-01
89 58 9.46229048079615498e-01
90 58 9.71293562771499364e-01
91 58 9.93696219850875861e-01
92 58 1.01342255844543727e+00
93 58 1.03047896588873700e+00
94 58 1.04489155692340407e+00
95 58 1.05670475889064819e+00
96 58 1.06597966143957934e+00
97 58 1.07279219185234176e+00
98 58 1.07723117678812508e+00
99 58 1.07939634846215404e+00
100 58 1.07939634846215404e+00
101 58 1.07939634846215404e+00
102 58 1.07723117678812508e+00
103 58 1.07279219185234154e+00
104 58 1.06597966143957890e+00
105 58 1.05670475889064797e+00
106 58 1.04489155692340407e+00
107 58 1.03047896588873744e+00
108 58 1.01342255844543705e+00
109 58 9.93696219850875861e-01
110 58 9.71293562771499364e-01
111 58 9.46229048079616164e-01
112 58 9.18538758727145965e-01
113 58 8.88280782482413267e-01
114 58 8.55535170867818939e-01
115 58 8.20403455596994902e-01
116 58 7.83007719515372624e-01
117 58 7.43489235655801717e-01
118 58 7.02006704572921914e-01
119 58 6.58734135620051453e-01
120 58 6.13858431332016452e-01
121 58 5.67576744759854313e-01
122 58 5.20093686855493509e-01
123 58 4.71618464468029353e-01
124 58 4.22362029109022596e-01
125 58 3.72534312568759740e-01
126 58 3.22341618159271426e-01
127 58 2.71984226455405598e-01
128 58 2.21654262659235740e-01
129 58 1.71533859934580701e-01
130 58 1.21793640039290010e-01
131 58 7.25915200384370379e-02
132 58 2.40718424059576976e-02
133 58 2.64375856631103659e-16
1 59 0.00000000000000000e+00
2 59 -2.36642801797909107e-02
3 59 -7.13624673964023959e-02
4 59 -1.19731542496849405e-01
5 59 -1.68629606880789401e-01
6 59 -2.17901417189196173e-01
7 59 -2.67379240474402424e-01
8 59 -3.16884027283277248e-01
9 59 -3.66226905300408301e-01
10 59 -4.15210984916855097e-01
11 59 -4.63633455757924640e-01
12 59 -5.11287940404713481e-01
13 59 -5.57967058982024255e-01
14 59 -6.03465146738110025e-01
15 59 -6.47581057004899097e-01
16 59 -6.90120974744914961e-01
17 59 -7.30901161884607964e-01
18 59 -7.69750555236485279e-01
19 59 -8.06513141217274687e-01
20 59 -8.41050038698776148e-01
21 59 -8.73241231829660181e-01
22 59 -9.02986907937592398e-01
23 59 -9.30208370858692568e-01
24 59 -9.54848516313135720e-01
25 59 -9.76871872272251807e-01
26 59 -9.96264222701880420e-01
27 59 -1.01303184679113700e+00
28 59 -1.02720041713192223e+00
29 59 -1.03881360886269447e+00
30 59 -1.04793147731898872e+00
31 59 -1.05462866425226043e+00
32 59 -1.05899249239066040e+00
33 59 -1.06112100537556131e+00
34 59 -1.06112100537556131e+00
35 59 -1.06112100537556131e+00
36 59 -1.05899249239066040e+00
37 59 -1.05462866425226043e+00
38 59 -1.04793147731898828e+00
39 59 -1.03881360886269425e+00
40 59 -1.02720041713192201e+00
41 59 -1.01303184679113722e+00
42 59 -9.96264222701880198e-01
43 59 -9.76871872272251807e-01
44 59 -9.54848516313135720e-01
45 59 -9.30208370858693123e-01
46 59 -9.02986907937592620e-01
47 59 -8.73241231829660181e-01
48 59 -8.41050038698776481e-01
49 59 -8.06513141217274687e-01
50 59 -7.69750555236485279e-01
51 59 -7.30901161884608408e-01
52 59 -6.90120974744914961e-01
53 59 -6.47581057004899208e-01
54 59 -6.03465146738110136e-01
55 59 -5.57967058982024811e-01
56 59 -5.11287940404713592e-01
57 59 -4.63633455757924806e-01
58 59 -4.15210984916855153e-01
59 59 -3.66226905300408301e-01
60 59 -3.16884027283277359e-01
61 59 -2.67379240474402480e-01
62 59 -2.17901417189196200e-01
63 59 -1.68629606880789457e-01
64 59 -1.19731542496849502e-01
65 59 -7.13624673964025347e-02
66 59 -2.36642801797910286e-02
67 59 -1.29949844274120270e-16
68 59 2.36642801797907996e-02
69 59 7.13624673964022849e-02
70 59 1.19731542496849336e-01
71 59 1.68629606880789373e-01
72 59 2.17901417189196117e-01
73 59 2.67379240474402424e-01
74 59 3.16884027283277248e-01
75 59 3.66226905300408301e-01
76 59 4.15210984916855097e-01
77 59 4.63633455757924640e-01
78 59 5.11287940404713481e-01
79 59 5.57967058982024255e-01
80 59 6.03465146738110025e-01
81 59 6.47581057004899097e-01
82 59 6.90120974744914961e-01
83 59 7.30901161884607964e-01
84 59 7.69750555236485279e-01
85 59 8.06513141217274687e-01
86 59 8.41050038698776148e-01
87 59 8.73241231829660181e-01
88 59 9.02986907937592398e-01
89 59 9.30208370858692568e-01
90 59 9.54848516313135720e-01
91 59 9.76871872272251807e-01
92 59 9.96264222701880420e-01
93 59 1.01303184679113700e+00
94 59 1.02720041713192223e+00
95 59 1.03881360886269447e+00
96 59 1.04793147731898872e+00
97 59 1.05462866425226043e+00
98 59 1.05899249239066040e+00
99 59 1.06112100537556131e+00
100 59 1.06112100537556131e+00
101 59 1.06112100537556131e+00
102 59 1.05899249239066040e+00
103 59 1.05462866425226043e+00
104 59 1.04793147731898828e+00
105 59 1.03881360886269425e+00
106 59 1.02720041713192201e+00
107 59 1.01303184679113722e+00
108 59 9.96264222701880198e-01
109 59 9.76871872272251807e-01
110 59 9.54848516313135720e-01
111 59 9.30208370858693123e-01
112 59 9.02986907937593064e-01
113 59 8.73241231829660403e-01
114 59 8.41050038698776481e-01
115 59 8.06513141217274687e-01
116 59 7.69750555236485279e-01
117 59 7.30901161884608408e-01
118 59 6.90120974744914961e-01
119 59 6.47581057004899208e-01
120 59 6.03465146738110247e-01
121 59 5.57967058982024811e-01
122 59 5.11287940404713925e-01
123 59 4.63633455757924862e-01
124 59 4.15210984916855319e-01
125 59 3.66226905300408467e-01
126 59 3.16884027283277581e-01
127 59 2.67379240474402591e-01
128 59 2.17901417189196339e-01
129 59 1.68629606880789762e-01
130 59 1.19731542496849572e-01
131 59 7.13624673964026318e-02
132 59 2.36642801797911570e-02
133 59 2.59899688548240540e-16
1 60 0.00000000000000000e+00
2 60 -2.33118809063691639e-02
3 60 -7.02997652364798914e-02
4 60 -1.17948546848514108e-01
5 60 -1.66118440240997284e-01
6 60 -2.14656513878736854e-01
7 60 -2.63397532628004305e-01
8 60 -3.12165113370613700e-01
9 60 -3.60773196404349350e-01
10 60 -4.09027824123889883e-01
11 60 -4.56729206327906756e-01
12 60 -5.03674038889898257e-01
13 60 -5.49658030155258936e-01
14 60 -5.94478578051881090e-01
15 60 -6.37937531309784256e-01
16 60 -6.79843961109786399e-01
17 60 -7.20016865534397921e-01
18 60 -7.58287728802703564e-01
19 60 -7.94502860625145191e-01
20 60 -8.28525448037367052e-01
21 60 -8.60237262417504533e-01
22 60 -8.89539977464790410e-01
23 60 -9.16356068928065093e-01
24 60 -9.40629282902269548e-01
25 60 -9.62324675594413925e-01
26 60 -9.81428242669999173e-01
27 60 -9.97946169810894235e-01
28 60 -1.01190374730272814e+00
29 60 -1.02334399989075275e+00
30 60 -1.03232608858976138e+00
31 60 -1.03892354361522421e+00
32 60 -1.04322238731912509e+00
33 60 -1.04531920331499251e+00
34 60 -1.04531920331499251e+00
35 60 -1.04531920331499251e+00
36 60 -1.04322238731912509e+00
37 60 -1.03892354361522421e+00
38 60 -1.03232608858976094e+00
39 60 -1.02334399989075275e+00
40 60 -1.01190374730272792e+00
41 60 -9.97946169810894457e-01
42 60 -9.81428242669998840e-01
43 60 -9.62324675594413925e-01
44 60 -9.40629282902269548e-01
45 60 -9.16356068928065537e-01
46 60 -8.89539977464790521e-01
47 60 -8.60237262417504533e-01
48 60 -8.28525448037367274e-01
49 60 -7.94502860625145191e-01
50 60 -7.58287728802703564e-01
51 60 -7.20016865534398365e-01
52 60 -6.79843961109786399e-01
53 60 -6.37937531309784367e-01
54 60 -5.94478578051881201e-01
55 60 -5.49658030155259492e-01
56 60 -5.03674038889898368e-01
57 60 -4.56729206327906923e-01
58 60 -4.09027824123889994e-01
59 60 -3.60773196404349350e-01
60 60 -3.12165113370613811e-01
61 60 -2.63397532628004361e-01
62 60 -2.14656513878736854e-01
63 60 -1.66118440240997339e-01
64 60 -1.17948546848514219e-01
65 60 -7.02997652364800302e-02
66 60 -2.33118809063692818e-02
67 60 -1.28014681642696688e-16
68 60 2.33118809063690528e-02
69 60 7.02997652364797804e-02
70 60 1.17948546848514052e-01
71 60 1.66118440240997256e-01
72 60 2.14656513878736771e-01
73 60 2.63397532628004305e-01
74 60 3.12165113370613700e-01
75 60 3.60773196404349350e-01
76 60 4.09027824123889883e-01
77 60 4.56729206327906756e-01
78 60 5.03674038889898257e-01
79 60 5.49658030155258936e-01
80 60 5.94478578051881090e-01
81 60 6.37937531309784256e-01
82 60 6.79843961109786399e-01
83 60 7.20016865534397921e-01
84 60 7.58287728802703564e-01
85 60 7.94502860625145191e-01
86 60 8.28525448037367052e-01
87 60 8.60237262417504533e-01
88 60 8.89539977464790410e-01
89 60 9.16356068928065093e-01
90 60 9.40629282902269548e-01
91 60 9.62324675594413925e-01
92 60 9.81428242669999173e-01
93 60 9.97946169810894235e-01
94 60 1.01190374730272814e+00
95 60 1.02334399989075275e+00
96 60 1.03232608858976138e+00
97 60 1.03892354361522421e+00
98 60 1.04322238731912509e+00
99 60 1.04531920331499251e+00
100 60 1.04531920331499251e+00
101 60 1.04531920331499251e+00
102 60 1.04322238731912509e+00
103 60 1.03892354361522421e+00
104 60 1.03232608858976094e+00
105 60 1.02334399989075275e+00
106 60 1.01190374730272792e+00
107 60 9.97946169810894457e-01
108 60 9.81428242669998840e-01
109 60 9.62324675594413925e-01
110 60 9.40629282902269548e-01
111 60 9.16356068928065537e-01
112 60 8.89539977464790965e-01
113 60 8.60237262417504756e-01
114 60 8.28525448037367274e-01
115 60 7.94502860625145191e-01
116 60 7.58287728802703564e-01
117 60 7.20016865534398365e-01
118 60 6.79843961109786399e-01
119 60 6.37937531309784367e-01
120 60 5.94478578051881312e-01
121 60 5.49658030155259492e-01
122 60 5.03674038889898701e-01
123 60 4.56729206327906923e-01
124 60 4.09027824123890105e-01
125 60 3.60773196404349461e-01
126 60 3.12165113370614089e-01
127 60 2.63397532628004472e-01
128 60 2.14656513878736965e-01
129 60 1.66118440240997617e-01
130 60 1.17948546848514274e-01
131 60 7.02997652364801273e-02
132 60 2.33118809063694067e-02
133 60 2.56029363285393376e-16
1 61 0.00000000000000000e+00
2 61 -2.30141050338341473e-02
3 61 -6.94017864755048092e-02
4 61 -1.16441923183391569e-01
5 61 -1.63996515215487859e-01
6 61 -2.11914584517811588e-01
7 61 -2.60033006598684835e-01
8 61 -3.08177651381498385e-01
9 61 -3.56164835810108216e-01
10 61 -4.03803079809658461e-01
11 61 -4.50895145212342086e-01
12 61 -4.97240324810537981e-01
13 61 -5.42636936482776888e-01
14 61 -5.86884966108092598e-01
15 61 -6.29788793515027145e-01
16 61 -6.71159928726461130e-01
17 61 -7.10819681865024422e-01
18 61 -7.48601689697419026e-01
19 61 -7.84354225107297021e-01
20 61 -8.17942222719868606e-01
21 61 -8.49248964114491023e-01
22 61 -8.78177378967987310e-01
23 61 -9.04650933290414239e-01
24 61 -9.28614091739737080e-01
25 61 -9.50032356879847439e-01
26 61 -9.68891903261550724e-01
27 61 -9.85198837553494355e-01
28 61 -9.98978126994149562e-01
29 61 -1.01027224674930216e+00
30 61 -1.01913960213655996e+00
31 61 -1.02565278412825900e+00
32 61 -1.02989671626410750e+00
33 61 -1.03196674844037561e+00
34 61 -1.03196674844037561e+00
35 61 -1.03196674844037561e+00
36 61 -1.02989671626410750e+00
37 61 -1.02565278412825900e+00
38 61 -1.01913960213655952e+00
39 61 -1.01027224674930216e+00
40 61 -9.98978126994149562e-01
41 61 -9.85198837553494577e-01
42 61 -9.68891903261550502e-01
43 61 -9.50032356879847328e-01
44 61 -9.28614091739737080e-01
45 61 -9.04650933290414572e-01
46 61 -8.78177378967987421e-01
47 61 -8.49248964114491023e-01
48 61 -8.17942222719868717e-01
49 61 -7.84354225107297021e-01
50 61 -7.48601689697419026e-01
51 61 -7.10819681865024866e-01
52 61 -6.71159928726461130e-01
53 61 -6.29788793515027145e-01
54 61 -5.86884966108092820e-01
55 61 -5.42636936482777332e-01
56 61 -4.97240324810538148e-01
57 61 -4.50895145212342308e-01
58 61 -4.03803079809658516e-01
59 61 -3.56164835810108160e-01
60 61 -3.08177651381498552e-01
61 61 -2.60033006598684835e-01
62 61 -2.11914584517811588e-01
63 61 -1.63996515215487942e-01
64 61 -1.16441923183391680e-01
65 61 -6.94017864755049479e-02
66 61 -2.30141050338342618e-02
67 61 -1.26379477530400791e-16
68 61 2.30141050338340362e-02
69 61 6.94017864755046981e-02
70 61 1.16441923183391499e-01
71 61 1.63996515215487804e-01
72 61 2.11914584517811477e-01
73 61 2.60033006598684835e-01
74 61 3.08177651381498385e-01
75 61 3.56164835810108216e-01
76 61 4.03803079809658461e-01
77 61 4.50895145212342086e-01
78 61 4.97240324810537981e-01
79 61 5.42636936482776888e-01
80 61 5.86884966108092598e-01
81 61 6.29788793515027145e-01
82 61 6.71159928726461130e-01
83 61 7.10819681865024422e-01
84 61 7.48601689697419026e-01
85 61 7.84354225107297021e-01
86 61 8.17942222719868606e-01
87 61 8.49248964114491023e-01
88 61 8.78177378967987310e-01
89 61 9.04650933290414239e-01
90 61 9.28614091739737080e-01
91 61 9.50032356879847439e-01
92 61 9.68891903261550724e-01
93 61 9.85198837553494355e-01
94 61 9.98978126994149562e-01
95 61 1.01027224674930216e+00
96 61 1.01913960213655996e+00
97 61 1.02565278412825900e+00
98 61 1.02989671626410750e+00
99 61 1.03196674844037561e+00
100 61 1.03196674844037561e+00
101 61 1.03196674844037561e+00
102 61 1.02989671626410750e+00
103 61 1.02565278412825900e+00
104 61 1.01913960213655952e+00
105 61 1.01027224674930216e+00
106 61 9.98978126994149562e-01
107 61 9.85198837553494577e-01
108 61 9.68891903261550502e-01
109 61 9.50032356879847328e-01
110 61 9.28614091739737080e-01
111 61 9.04650933290414572e-01
112 61 8.78177378967987754e-01
113 61 8.49248964114491134e-01
114 61 8.17942222719868717e-01
115 61 7.84354225107297021e-01
116 61 7.48601689697419026e-01
117 61 7.10819681865024866e-01
118 61 6.71159928726461130e-01
119 61 6.29788793515027145e-01
120 61 5.86884966108092820e-01
121 61 5.42636936482777332e-01
122 61 4.97240324810538370e-01
123 61 4.50895145212342363e-01
124 61 4.03803079809658683e-01
125 61 3.56164835810108327e-01
126 61 3.08177651381498774e-01
127 61 2.60033006598684890e-01
128 61 2.11914584517811672e-01
129 61 1.63996515215488192e-01
130 61 1.16441923183391735e-01
131 61 6.94017864755050451e-02
132 61 2.30141050338343832e-02
133 61 2.52758955060801582e-16
1 62 0.00000000000000000e+00
2 62 -2.27700346571220492e-02
3 62 -6.86657630609655012e-02
4 62 -1.15207027278698790e-01
5 62 -1.62257290892436012e-01
6 62 -2.09667177008459799e-01
7 62 -2.57275291111386251e-01
8 62 -3.04909349817898578e-01
9 62 -3.52387618076897335e-01
10 62 -3.99520646507917854e-01
11 62 -4.46113288703568867e-01
12 62 -4.91966966006685713e-01
13 62 -5.36882135185462017e-01
14 62 -5.80660903319029975e-01
15 62 -6.23109724837088597e-01
16 62 -6.64042108746170534e-01
17 62 -7.03281260220032678e-01
18 62 -7.40662580349341071e-01
19 62 -7.76035951122007517e-01
20 62 -8.09267739565538990e-01
21 62 -8.40242465087522539e-01
22 62 -8.68864086819991499e-01
23 62 -8.95056882435230738e-01
24 62 -9.18765905557486162e-01
25 62 -9.39957024604642477e-01
26 62 -9.58616560749874114e-01
27 62 -9.74750555899070226e-01
28 62 -9.88383712506853418e-01
29 62 -9.99558055279185398e-01
30 62 -1.00833137013057939e+00
31 62 -1.01477547818783798e+00
32 62 -1.01897440235515546e+00
33 62 -1.02102248131915130e+00
34 62 -1.02102248131915130e+00
35 62 -1.02102248131915130e+00
36 62 -1.01897440235515546e+00
37 62 -1.01477547818783820e+00
38 62 -1.00833137013057894e+00
39 62 -9.99558055279185509e-01
40 62 -9.88383712506853529e-01
41 62 -9.74750555899070559e-01
42 62 -9.58616560749874003e-01
43 62 -9.39957024604642366e-01
44 62 -9.18765905557486162e-01
45 62 -8.95056882435231072e-01
46 62 -8.68864086819991499e-01
47 62 -8.40242465087522539e-01
48 62 -8.09267739565539101e-01
49 62 -7.76035951122007517e-01
50 62 -7.40662580349341071e-01
51 62 -7.03281260220033122e-01
52 62 -6.64042108746170534e-01
53 62 -6.23109724837088708e-01
54 62 -5.80660903319030197e-01
55 62 -5.36882135185462461e-01
56 62 -4.91966966006685769e-01
57 62 -4.46113288703569033e-01
58 62 -3.99520646507917909e-01
59 62 -3.52387618076897391e-01
60 62 -3.04909349817898689e-01
61 62 -2.57275291111386251e-01
62 62 -2.09667177008459799e-01
63 62 -1.62257290892436096e-01
64 62 -1.15207027278698887e-01
65 62 -6.86657630609656261e-02
66 62 -2.27700346571221637e-02
67 62 -1.25039191360498660e-16
68 62 2.27700346571219417e-02
69 62 6.86657630609653902e-02
70 62 1.15207027278698748e-01
71 62 1.62257290892435957e-01
72 62 2.09667177008459715e-01
73 62 2.57275291111386251e-01
74 62 3.04909349817898578e-01
75 62 3.52387618076897335e-01
76 62 3.99520646507917854e-01
77 62 4.46113288703568867e-01
78 62 4.91966966006685713e-01
79 62 5.36882135185462017e-01
80 62 5.80660903319029975e-01
81 62 6.23109724837088597e-01
82 62 6.64042108746170534e-01
83 62 7.03281260220032678e-01
84 62 7.40662580349341071e-01
85 62 7.76035951122007517e-01
86 62 8.09267739565538990e-01
87 62 8.40242465087522539e-01
88 62 8.68864086819991499e-01
89 62 8.95056882435230738e-01
90 62 9.18765905557486162e-01
91 62 9.39957024604642477e-01
92 62 9.58616560749874114e-01
93 62 9.74750555899070226e-01
94 62 9.88383712506853418e-01
95 62 9.99558055279185398e-01
96 62 1.00833137013057939e+00
97 62 1.01477547818783798e+00
98 62 1.01897440235515546e+00
99 62 1.02102248131915130e+00
100 62 1.02102248131915130e+00
101 62 1.02102248131915130e+00
102 62 1.01897440235515546e+00
103 62 1.01477547818783820e+00
104 62 1.00833137013057894e+00
105 62 9.99558055279185509e-01
106 62 9.88383712506853529e-01
107 62 9.74750555899070559e-01
108 62 9.58616560749874003e-01
109 62 9.39957024604642366e-01
110 62 9.18765905557486162e-01
111 62 8.95056882435231072e-01
112 62 8.68864086819991832e-01
113 62 8.40242465087522539e-01
114 62 8.09267739565539101e-01
115 62 7.76035951122007517e-01
116 62 7.40662580349341071e-01
117 62 7.03281260220033122e-01
118 62 6.64042108746170534e-01
119 62 6.23109724837088708e-01
120 62 5.80660903319030197e-01
121 62 5.36882135185462461e-01
122 62 4.91966966006685935e-01
123 62 4.46113288703569144e-01
124 62 3.99520646507918076e-01
125 62 3.52387618076897446e-01
126 62 3.04909349817898911e-01
127 62 2.57275291111386362e-01
128 62 2.09667177008459910e-01
129 62 1.62257290892436318e-01
130 62 1.15207027278698956e-01
131 62 6.86657630609657232e-02
132 62 2.27700346571222852e-02
133 62 2.50078382720997320e-16
1 63 0.00000000000000000e+00
2 63 -2.25784076143132999e-02
3 63 -6.80878887926246873e-02
4 63 -1.14237473113294880e-01
5 63 -1.60891773215538159e-01
6 63 -2.07902669325041589e-01
7 63 -2.55110125183190595e-01
8 63 -3.02343307301486897e-01
9 63 -3.49422010066574307e-01
10 63 -3.96158378457640348e-01
11 63 -4.42358908371731696e-01
12 63 -4.87826692341095713e-01
13 63 -5.32363866440962896e-01
14 63 -5.75774203168888499e-01
15 63 -6.17865785786756105e-01
16 63 -6.58453692763689258e-01
17 63 -6.97362617135463547e-01
18 63 -7.34429345216909946e-01
19 63 -7.69505022352416357e-01
20 63 -8.02457140191902951e-01
21 63 -8.33171189999379669e-01
22 63 -8.61551939163336056e-01
23 63 -8.87524302616647276e-01
24 63 -9.11033796398819873e-01
25 63 -9.32046576170785457e-01
26 63 -9.50549078223379973e-01
27 63 -9.66547293615290570e-01
28 63 -9.80065716911322715e-01
29 63 -9.91146019147790991e-01
30 63 -9.99845499927084380e-01
31 63 -1.00623537594696821e+00
32 63 -1.01039896299542398e+00
33 63 -1.01242980582775743e+00
34 63 -1.01242980582775743e+00
35 63 -1.01242980582775743e+00
36 63 -1.01039896299542398e+00
37 63 -1.00623537594696844e+00
38 63 -9.99845499927084158e-01
39 63 -9.91146019147791102e-01
40 63 -9.80065716911322937e-01
41 63 -9.66547293615290903e-01
42 63 -9.50549078223379973e-01
43 63 -9.32046576170785457e-01
44 63 -9.11033796398819873e-01
45 63 -8.87524302616647609e-01
46 63 -8.61551939163336056e-01
47 63 -8.33171189999379669e-01
48 63 -8.02457140191903062e-01
49 63 -7.69505022352416357e-01
50 63 -7.34429345216910057e-01
51 63 -6.97362617135463769e-01
52 63 -6.58453692763689258e-01
53 63 -6.17865785786756216e-01
54 63 -5.75774203168888721e-01
55 63 -5.32363866440963229e-01
56 63 -4.87826692341095769e-01
57 63 -4.42358908371731807e-01
58 63 -3.96158378457640348e-01
59 63 -3.49422010066574307e-01
60 63 -3.02343307301487008e-01
61 63 -2.55110125183190595e-01
62 63 -2.07902669325041589e-01
63 63 -1.60891773215538242e-01
64 63 -1.14237473113294977e-01
65 63 -6.80878887926248122e-02
66 63 -2.25784076143134144e-02
67 63 -1.23986892106833930e-16
68 63 2.25784076143131889e-02
69 63 6.80878887926245902e-02
70 63 1.14237473113294824e-01
71 63 1.60891773215538103e-01
72 63 2.07902669325041534e-01
73 63 2.55110125183190595e-01
74 63 3.02343307301486897e-01
75 63 3.49422010066574307e-01
76 63 3.96158378457640348e-01
77 63 4.42358908371731696e-01
78 63 4.87826692341095713e-01
79 63 5.32363866440962896e-01
80 63 5.75774203168888499e-01
81 63 6.17865785786756105e-01
82 63 6.58453692763689258e-01
83 63 6.97362617135463547e-01
84 63 7.34429345216909946e-01
85 63 7.69505022352416357e-01
86 63 8.02457140191902951e-01
87 63 8.33171189999379669e-01
88 63 8.61551939163336056e-01
89 63 8.87524302616647276e-01
90 63 9.11033796398819873e-01
91 63 9.32046576170785457e-01
92 63 9.50549078223379973e-01
93 63 9.66547293615290570e-01
94 63 9.80065716911322715e-01
95 63 9.91146019147790991e-01
96 63 9.99845499927084380e-01
97 63 1.00623537594696821e+00
98 63 1.01039896299542398e+00
99 63 1.01242980582775743e+00
100 63 1.01242980582775743e+00
101 63 1.01242980582775743e+00
102 63 1.01039896299542398e+00
103 63 1.00623537594696844e+00
104 63 9.99845499927084158e-01
105 63 9.91146019147791102e-01
106 63 9.80065716911322937e-01
107 63 9.66547293615290903e-01
108 63 9.50549078223379973e-01
109 63 9.32046576170785457e-01
110 63 9.11033796398819873e-01
111 63 8.87524302616647609e-01
112 63 8.61551939163336389e-01
113 63 8.33171189999379669e-01
114 63 8.02457140191903062e-01
115 63 7.69505022352416357e-01
116 63 7.34429345216910057e-01
117 63 6.97362617135463880e-01
118 63 6.58453692763689258e-01
119 63 6.17865785786756216e-01
120 63 5.75774203168888721e-01
121 63 5.32363866440963229e-01
122 63 4.87826692341095935e-01
123 63 4.42358908371731863e-01
124 63 3.96158378457640570e-01
125 63 3.49422010066574362e-01
126 63 3.02343307301487174e-01
127 63 2.55110125183190706e-01
128 63 2.07902669325041756e-01
129 63 1.60891773215538464e-01
130 63 1.14237473113295060e-01
131 63 6.80878887926249232e-02
132 63 2.25784076143135358e-02
133 63 2.47973784213667861e-16
1 64 0.00000000000000000e+00
2 64 -2.24376551859017705e-02
3 64 -6.76634330091751696e-02
4 64 -1.13525323610506226e-01
5 64 -1.59888783625733444e-01
6 64 -2.06606616650264474e-01
7 64 -2.53519784081848221e-01
8 64 -3.00458517397628466e-01
9 64 -3.47243734375150881e-01
10 64 -3.93688751070448595e-01
11 64 -4.39601269673450590e-01
12 64 -4.84785610225657082e-01
13 64 -5.29045142274046309e-01
14 64 -5.72184861586563787e-01
15 64 -6.14014047822438735e-01
16 64 -6.54348932240441550e-01
17 64 -6.93015300729367123e-01
18 64 -7.29850957068295059e-01
19 64 -7.64707974552539249e-01
20 64 -7.97454670881065475e-01
21 64 -8.27977251158422800e-01
22 64 -8.56181076447445233e-01
23 64 -8.81991529756777859e-01
24 64 -9.05354466775644129e-01
25 64 -9.26236254148539495e-01
26 64 -9.44623412721643518e-01
27 64 -9.60521896205745240e-01
28 64 -9.73956046468013703e-01
29 64 -9.84967274770041756e-01
30 64 -9.93612523511960055e-01
31 64 -9.99962565430944972e-01
32 64 -1.00410019692939101e+00
33 64 -1.00611837961025330e+00
34 64 -1.00611837961025352e+00
35 64 -1.00611837961025330e+00
36 64 -1.00410019692939101e+00
37 64 -9.99962565430945083e-01
38 64 -9.93612523511959944e-01
39 64 -9.84967274770041867e-01
40 64 -9.73956046468013814e-01
41 64 -9.60521896205745573e-01
42 64 -9.44623412721643518e-01
43 64 -9.26236254148539495e-01
44 64 -9.05354466775644018e-01
45 64 -8.81991529756778192e-01
46 64 -8.56181076447445233e-01
47 64 -8.27977251158422911e-01
48 64 -7.97454670881065697e-01
49 64 -7.64707974552539249e-01
50 64 -7.29850957068295170e-01
51 64 -6.93015300729367234e-01
52 64 -6.54348932240441550e-01
53 64 -6.14014047822438735e-01
54 64 -5.72184861586563898e-01
55 64 -5.29045142274046531e-01
56 64 -4.84785610225657138e-01
57 64 -4.39601269673450701e-01
58 64 -3.93688751070448595e-01
59 64 -3.47243734375150881e-01
60 64 -3.00458517397628633e-01
61 64 -2.53519784081848221e-01
62 64 -2.06606616650264474e-01
63 64 -1.59888783625733499e-01
64 64 -1.13525323610506323e-01
65 64 -6.76634330091752806e-02
66 64 -2.24376551859018815e-02
67 64 -1.23213965315301847e-16
68 64 2.24376551859016629e-02
69 64 6.76634330091750724e-02
70 64 1.13525323610506157e-01
71 64 1.59888783625733388e-01
72 64 2.06606616650264419e-01
73 64 2.53519784081848221e-01
74 64 3.00458517397628466e-01
75 64 3.47243734375150881e-01
76 64 3.93688751070448595e-01
77 64 4.39601269673450590e-01
78 64 4.84785610225657082e-01
79 64 5.29045142274046309e-01
80 64 5.72184861586563787e-01
81 64 6.14014047822438735e-01
82 64 6.54348932240441550e-01
83 64 6.93015300729367123e-01
84 64 7.29850957068295059e-01
85 64 7.64707974552539249e-01
86 64 7.97454670881065475e-01
87 64 8.27977251158422800e-01
88 64 8.56181076447445233e-01
89 64 8.81991529756777859e-01
90 64 9.05354466775644129e-01
91 64 9.26236254148539495e-01
92 64 9.44623412721643518e-01
93 64 9.60521896205745240e-01
94 64 9.73956046468013703e-01
95 64 9.84967274770041756e-01
96 64 9.93612523511960055e-01
97 64 9.99962565430944972e-01
98 64 1.00410019692939101e+00
99 64 1.00611837961025330e+00
100 64 1.00611837961025352e+00
101 64 1.00611837961025330e+00
102 64 1.00410019692939101e+00
103 64 9.99962565430945083e-01
104 64 9.93612523511959944e-01
105 64 9.84967274770041867e-01
106 64 9.73956046468013814e-01
107 64 9.60521896205745573e-01
108 64 9.44623412721643518e-01
109 64 9.26236254148539495e-01
110 64 9.05354466775644018e-01
111 64 8.81991529756778192e-01
112 64 8.56181076447445455e-01
113 64 8.27977251158422911e-01
114 64 7.97454670881065697e-01
115 64 7.64707974552539249e-01
116 64 7.29850957068295170e-01
117 64 6.93015300729367456e-01
118 64 6.54348932240441550e-01
119 64 6.14014047822438735e-01
120 64 5.72184861586563898e-01
121 64 5.29045142274046531e-01
122 64 4.84785610225657249e-01
123 64 4.39601269673450756e-01
124 64 3.93688751070448817e-01
125 64 3.47243734375150992e-01
126 64 3.00458517397628799e-01
127 64 2.53519784081848387e-01
128 64 2.06606616650264641e-01
129 64 1.59888783625733721e-01
130 64 1.13525323610506393e-01
131 64 6.76634330091754055e-02
132 64 2.24376551859020099e-02
133 64 2.46427930630603694e-16
1 65 0.00000000000000000e+00
2 65 -2.23459421407426265e-02
3 65 -6.73868613515853643e-02
4 65 -1.13061293254181877e-01
5 65 -1.59235244425152384e-01
6 65 -2.05762120119498210e-01
7 65 -2.52483531799085448e-01
8 65 -2.99230404863309263e-01
9 65 -3.45824389081352601e-01
10 65 -3.92079563572627632e-01
11 65 -4.37804416536902219e-01
12 65 -4.82804067849916085e-01
13 65 -5.26882690777996432e-01
14 65 -5.69846078161322378e-01
15 65 -6.11504289221117880e-01
16 65 -6.51674306363753897e-01
17 65 -6.90182627571447105e-01
18 65 -7.26867719594037509e-01
19 65 -7.61582260371506670e-01
20 65 -7.94195105849116900e-01
21 65 -8.24592926263638337e-01
22 65 -8.52681469510889412e-01
23 65 -8.78386423593572774e-01
24 65 -9.01653865513681541e-01
25 65 -9.22450299390747408e-01
26 65 -9.40762301166468196e-01
27 65 -9.56595800216070935e-01
28 65 -9.69975038910286913e-01
29 65 -9.80941259243783725e-01
30 65 -9.89551170866840302e-01
31 65 -9.95875257235815603e-01
32 65 -9.99995976326020997e-01
33 65 -1.00200590976346571e+00
34 65 -1.00200590976346571e+00
35 65 -1.00200590976346571e+00
36 65 -9.99995976326020997e-01
37 65 -9.95875257235815714e-01
38 65 -9.89551170866840302e-01
39 65 -9.80941259243783836e-01
40 65 -9.69975038910287024e-01
41 65 -9.56595800216071157e-01
42 65 -9.40762301166468196e-01
43 65 -9.22450299390747408e-01
44 65 -9.01653865513681430e-01
45 65 -8.78386423593572996e-01
46 65 -8.52681469510889412e-01
47 65 -8.24592926263638448e-01
48 65 -7.94195105849117011e-01
49 65 -7.61582260371506670e-01
50 65 -7.26867719594037620e-01
51 65 -6.90182627571447216e-01
52 65 -6.51674306363754008e-01
53 65 -6.11504289221117880e-01
54 65 -5.69846078161322489e-01
55 65 -5.26882690777996543e-01
56 65 -4.82804067849916141e-01
57 65 -4.37804416536902385e-01
58 65 -3.92079563572627632e-01
59 65 -3.45824389081352601e-01
60 65 -2.99230404863309429e-01
61 65 -2.52483531799085448e-01
62 65 -2.05762120119498210e-01
63 65 -1.59235244425152467e-01
64 65 -1.13061293254181960e-01
65 65 -6.73868613515854753e-02
66 65 -2.23459421407427375e-02
67 65 -1.22710333011855988e-16
68 65 2.23459421407425224e-02
69 65 6.73868613515852810e-02
70 65 1.13061293254181794e-01
71 65 1.59235244425152356e-01
72 65 2.05762120119498154e-01
73 65 2.52483531799085448e-01
74 65 2.99230404863309263e-01
75 65 3.45824389081352601e-01
76 65 3.92079563572627632e-01
77 65 4.37804416536902219e-01
78 65 4.82804067849916085e-01
79 65 5.26882690777996432e-01
80 65 5.69846078161322378e-01
81 65 6.11504289221117880e-01
82 65 6.51674306363753897e-01
83 65 6.90182627571447105e-01
84 65 7.26867719594037509e-01
85 65 7.61582260371506670e-01
86 65 7.94195105849116900e-01
87 65 8.24592926263638337e-01
88 65 8.52681469510889412e-01
89 65 8.78386423593572774e-01
90 65 9.01653865513681541e-01
91 65 9.22450299390747408e-01
92 65 9.40762301166468196e-01
93 65 9.56595800216070935e-01
94 65 9.69975038910286913e-01
95 65 9.80941259243783725e-01
96 65 9.89551170866840302e-01
97 65 9.95875257235815603e-01
98 65 9.99995976326020997e-01
99 65 1.00200590976346571e+00
100 65 1.00200590976346571e+00
101 65 1.00200590976346571e+00
102 65 9.99995976326020997e-01
103 65 9.95875257235815714e-01
104 65 9.89551170866840302e-01
105 65 9.80941259243783836e-01
106 65 9.69975038910287024e-01
107 65 9.56595800216071157e-01
108 65 9.40762301166468196e-01
109 65 9.22450299390747408e-01
110 65 9.01653865513681430e-01
111 65 8.78386423593572996e-01
112 65 8.52681469510889412e-01
113 65 8.24592926263638448e-01
114 65 7.94195105849117011e-01
115 65 7.61582260371506670e-01
116 65 7.26867719594037620e-01
117 65 6.90182627571447216e-01
118 65 6.51674306363754008e-01
119 65 6.11504289221117880e-01
120 65 5.69846078161322489e-01
121 65 5.26882690777996543e-01
122 65 4.82804067849916196e-01
123 65 4.37804416536902385e-01
124 65 3.92079563572627798e-01
125 65 3.45824389081352712e-01
126 65 2.99230404863309540e-01
127 65 2.52483531799085614e-01
128 65 2.05762120119498404e-01
129 65 1.59235244425152661e-01
130 65 1.13061293254182044e-01
131 65 6.73868613515856002e-02
132 65 2.23459421407428659e-02
133 65 2.45420666023711976e-16
1 66 0.00000000000000000e+00
2 66 -2.23012079300187217e-02
3 66 -6.72519599884323638e-02
4 66 -1.12834956513251719e-01
5 66 -1.58916472321746688e-01
6 66 -2.05350206136080127e-01
7 66 -2.51978086495205311e-01
8 66 -2.98631377267970288e-01
9 66 -3.45132085261840638e-01
10 66 -3.91294661790150766e-01
11 66 -4.36927978439020037e-01
12 66 -4.81837545213567864e-01
13 66 -5.25827927404512785e-01
14 66 -5.68705306634210150e-01
15 66 -6.10280122365216338e-01
16 66 -6.50369723385751941e-01
17 66 -6.88800955010706595e-01
18 66 -7.25412607362388107e-01
19 66 -7.60057653303947367e-01
20 66 -7.92605211317161995e-01
21 66 -8.22942178512991451e-01
22 66 -8.50974491469989491e-01
23 66 -8.76627986955611282e-01
24 66 -8.99848849919983595e-01
25 66 -9.20603651537845513e-01
26 66 -9.38878994624438135e-01
27 66 -9.54680796685007271e-01
28 66 -9.68033251559624053e-01
29 66 -9.78977518680848480e-01
30 66 -9.87570194172242566e-01
31 66 -9.93881620389746590e-01
32 66 -9.97994090236534293e-01
33 66 -1.00000000000000000e+00
34 66 -1.00000000000000000e+00
35 66 -1.00000000000000000e+00
36 66 -9.97994090236534293e-01
37 66 -9.93881620389746701e-01
38 66 -9.87570194172242566e-01
39 66 -9.78977518680848591e-01
40 66 -9.68033251559624164e-01
41 66 -9.54680796685007382e-01
42 66 -9.38878994624438135e-01
43 66 -9.20603651537845513e-01
44 66 -8.99848849919983484e-01
45 66 -8.76627986955611282e-01
46 66 -8.50974491469989602e-01
47 66 -8.22942178512991562e-01
48 66 -7.92605211317161995e-01
49 66 -7.60057653303947478e-01
50 66 -7.25412607362388329e-01
51 66 -6.88800955010706706e-01
52 66 -6.50369723385751941e-01
53 66 -6.10280122365216338e-01
54 66 -5.68705306634210150e-01
55 66 -5.25827927404512896e-01
56 66 -4.81837545213567919e-01
57 66 -4.36927978439020148e-01
58 66 -3.91294661790150822e-01
59 66 -3.45132085261840638e-01
60 66 -2.98631377267970399e-01
61 66 -2.51978086495205311e-01
62 66 -2.05350206136080154e-01
63 66 -1.58916472321746771e-01
64 66 -1.12834956513251788e-01
65 66 -6.72519599884324748e-02
66 66 -2.23012079300188328e-02
67 66 -1.22464679914735321e-16
68 66 2.23012079300186176e-02
69 66 6.72519599884322805e-02
70 66 1.12834956513251622e-01
71 66 1.58916472321746632e-01
72 66 2.05350206136080099e-01
73 66 2.51978086495205256e-01
74 66 2.98631377267970288e-01
75 66 3.45132085261840638e-01
76 66 3.91294661790150766e-01
77 66 4.36927978439020037e-01
78 66 4.81837545213567864e-01
79 66 5.25827927404512785e-01
80 66 5.68705306634210150e-01
81 66 6.10280122365216338e-01
82 66 6.50369723385751941e-01
83 66 6.88800955010706595e-01
84 66 7.25412607362388107e-01
85 66 7.60057653303947367e-01
86 66 7.92605211317161995e-01
87 66 8.22942178512991451e-01
88 66 8.50974491469989491e-01
89 66 8.76627986955611282e-01
90 66 8.99848849919983595e-01
91 66 9.20603651537845513e-01
92 66 9.38878994624438135e-01
93 66 9.54680796685007271e-01
94 66 9.68033251559624053e-01
95 66 9.78977518680848480e-01
96 66 9.87570194172242566e-01
97 66 9.93881620389746590e-01
98 66 9.97994090236534293e-01
99 66 1.00000000000000000e+00
100 66 1.00000000000000000e+00
101 66 1.00000000000000000e+00
102 66 9.97994090236534293e-01
103 66 9.93881620389746701e-01
104 66 9.87570194172242566e-01
105 66 9.78977518680848591e-01
106 66 9.68033251559624164e-01
107 66 9.54680796685007382e-01
108 66 9.38878994624438135e-01
109 66 9.20603651537845513e-01
110 66 8.99848849919983484e-01
111 66 8.76627986955611282e-01
112 66 8.50974491469989602e-01
113 66 8.22942178512991562e-01
114 66 7.92605211317161995e-01
115 66 7.60057653303947478e-01
116 66 7.25412607362388329e-01
117 66 6.88800955010706706e-01
118 66 6.50369723385751941e-01
119 66 6.10280122365216338e-01
120 66 5.68705306634210150e-01
121 66 5.25827927404512896e-01
122 66 4.81837545213567919e-01
123 66 4.36927978439020148e-01
124 66 3.91294661790150933e-01
125 66 3.45132085261840693e-01
126 66 2.98631377267970510e-01
127 66 2.51978086495205478e-01
128 66 2.05350206136080349e-01
129 66 1.58916472321746938e-01
130 66 1.12834956513251886e-01
131 66 6.72519599884325997e-02
132 66 2.23012079300189611e-02
133 66 2.44929359829470641e-16
1 67 0.00000000000000000e+00
2 67 -2.23012079300187252e-02
3 67 -6.72519599884323638e-02
4 67 -1.12834956513251705e-01
5 67 -1.58916472321746716e-01
6 67 -2.05350206136080154e-01
7 67 -2.51978086495205311e-01
8 67 -2.98631377267970344e-01
9 67 -3.45132085261840693e-01
10 67 -3.91294661790150822e-01
11 67 -4.36927978439020093e-01
12 67 -4.81837545213567864e-01
13 67 -5.25827927404512785e-01
14 67 -5.68705306634210150e-01
15 67 -6.10280122365216449e-01
16 67 -6.50369723385751941e-01
17 67 -6.88800955010706595e-01
18 67 -7.25412607362388107e-01
19 67 -7.60057653303947367e-01
20 67 -7.92605211317161884e-01
21 67 -8.22942178512991340e-01
22 67 -8.50974491469989491e-01
23 67 -8.76627986955611171e-01
24 67 -8.99848849919983595e-01
25 67 -9.20603651537845513e-01
26 67 -9.38878994624438246e-01
27 67 -9.54680796685007160e-01
28 67 -9.68033251559624053e-01
29 67 -9.78977518680848591e-01
30 67 -9.87570194172242566e-01
31 67 -9.93881620389746590e-01
32 67 -9.97994090236534293e-01
33 67 -1.00000000000000000e+00
34 67 -1.00000000000000000e+00
35 67 -1.00000000000000000e+00
36 67 -9.97994090236534293e-01
37 67 -9.93881620389746590e-01
38 67 -9.87570194172242566e-01
39 67 -9.78977518680848702e-01
40 67 -9.68033251559624164e-01
41 67 -9.54680796685007271e-01
42 67 -9.38878994624438246e-01
43 67 -9.20603651537845513e-01
44 67 -8.99848849919983595e-01
45 67 -8.76627986955611171e-01
46 67 -8.50974491469989602e-01
47 67 -8.22942178512991451e-01
48 67 -7.92605211317161995e-01
49 67 -7.60057653303947478e-01
50 67 -7.25412607362388218e-01
51 67 -6.88800955010706706e-01
52 67 -6.50369723385751941e-01
53 67 -6.10280122365216449e-01
54 67 -5.68705306634210150e-01
55 67 -5.25827927404512896e-01
56 67 -4.81837545213567919e-01
57 67 -4.36927978439020093e-01
58 67 -3.91294661790150877e-01
59 67 -3.45132085261840693e-01
60 67 -2.98631377267970399e-01
61 67 -2.51978086495205311e-01
62 67 -2.05350206136080182e-01
63 67 -1.58916472321746771e-01
64 67 -1.12834956513251775e-01
65 67 -6.72519599884324748e-02
66 67 -2.23012079300188328e-02
67 67 -1.22464679914735321e-16
68 67 2.23012079300186211e-02
69 67 6.72519599884322944e-02
70 67 1.12834956513251636e-01
71 67 1.58916472321746660e-01
72 67 2.05350206136080099e-01
73 67 2.51978086495205256e-01
74 67 2.98631377267970344e-01
75 67 3.45132085261840693e-01
76 67 3.91294661790150822e-01
77 67 4.36927978439020093e-01
78 67 4.81837545213567864e-01
79 67 5.25827927404512785e-01
80 67 5.68705306634210150e-01
81 67 6.10280122365216449e-01
82 67 6.50369723385751941e-01
83 67 6.88800955010706595e-01
84 67 7.25412607362388107e-01
85 67 7.60057653303947367e-01
86 67 7.92605211317161884e-01
87 67 8.22942178512991340e-01
88 67 8.50974491469989491e-01
89 67 8.76627986955611171e-01
90 67 8.99848849919983595e-01
91 67 9.20603651537845513e-01
92 67 9.38878994624438246e-01
93 67 9.54680796685007160e-01
94 67 9.68033251559624053e-01
95 67 9.78977518680848591e-01
96 67 9.87570194172242566e-01
97 67 9.93881620389746590e-01
98 67 9.97994090236534293e-01
99 67 1.00000000000000000e+00
100 67 1.00000000000000000e+00
101 67 1.00000000000000000e+00
102 67 9.97994090236534293e-01
103 67 9.93881620389746590e-01
104 67 9.87570194172242566e-01
105 67 9.78977518680848702e-01
106 67 9.68033251559624164e-01
107 67 9.54680796685007271e-01
108 67 9.38878994624438246e-01
109 67 9.20603651537845513e-01
110 67 8.99848849919983595e-01
111 67 8.76627986955611171e-01
112 67 8.50974491469989602e-01
113 67 8.22942178512991451e-01
114 67 7.92605211317161995e-01
115 67 7.60057653303947478e-01
116 67 7.25412607362388218e-01
117 67 6.88800955010706706e-01
118 67 6.50369723385751941e-01
119 67 6.10280122365216449e-01
120 67 5.68705306634210150e-01
121 67 5.25827927404512896e-01
122 67 4.81837545213567919e-01
123 67 4.36927978439020093e-01
124 67 3.91294661790150933e-01
125 67 3.45132085261840749e-01
126 67 2.98631377267970510e-01
127 67 2.51978086495205478e-01
128 67 2.05350206136080349e-01
129 67 1.58916472321746910e-01
130 67 1.12834956513251886e-01
131 67 6.72519599884325858e-02
132 67 2.23012079300189577e-02
133 67 2.44929359829470641e-16
1 68 0.00000000000000000e+00
2 68 -2.23012079300187252e-02
3 68 -6.72519599884323638e-02
4 68 -1.12834956513251691e-01
5 68 -1.58916472321746743e-01
6 68 -2.05350206136080154e-01
7 68 -2.51978086495205311e-01
8 68 -2.98631377267970399e-01
9 68 -3.45132085261840693e-01
10 68 -3.91294661790150822e-01
11 68 -4.36927978439020148e-01
12 68 -4.81837545213567808e-01
13 68 -5.25827927404512674e-01
14 68 -5.68705306634210150e-01
15 68 -6.10280122365216449e-01
16 68 -6.50369723385751830e-01
17 68 -6.88800955010706484e-01
18 68 -7.25412607362388107e-01
19 68 -7.60057653303947367e-01
20 68 -7.92605211317161773e-01
21 68 -8.22942178512991340e-01
22 68 -8.50974491469989491e-01
23 68 -8.76627986955611282e-01
24 68 -8.99848849919983595e-01
25 68 -9.20603651537845513e-01
26 68 -9.38878994624438357e-01
27 68 -9.54680796685007160e-01
28 68 -9.68033251559624053e-01
29 68 -9.78977518680848702e-01
30 68 -9.87570194172242788e-01
31 68 -9.93881620389746590e-01
32 68 -9.97994090236534293e-01
33 68 -1.00000000000000000e+00
34 68 -1.00000000000000000e+00
35 68 -1.00000000000000000e+00
36 68 -9.97994090236534404e-01
37 68 -9.93881620389746590e-01
38 68 -9.87570194172242788e-01
39 68 -9.78977518680848591e-01
40 68 -9.68033251559624164e-01
41 68 -9.54680796685007271e-01
42 68 -9.38878994624438246e-01
43 68 -9.20603651537845513e-01
44 68 -8.99848849919983707e-01
45 68 -8.76627986955611282e-01
46 68 -8.50974491469989491e-01
47 68 -8.22942178512991340e-01
48 68 -7.92605211317161995e-01
49 68 -7.60057653303947367e-01
50 68 -7.25412607362388218e-01
51 68 -6.88800955010706817e-01
52 68 -6.50369723385751941e-01
53 68 -6.10280122365216449e-01
54 68 -5.68705306634210150e-01
55 68 -5.25827927404512896e-01
56 68 -4.81837545213567919e-01
57 68 -4.36927978439020093e-01
58 68 -3.91294661790150877e-01
59 68 -3.45132085261840638e-01
60 68 -2.98631377267970344e-01
61 68 -2.51978086495205311e-01
62 68 -2.05350206136080210e-01
63 68 -1.58916472321746799e-01
64 68 -1.12834956513251775e-01
65 68 -6.72519599884324748e-02
66 68 -2.23012079300188328e-02
67 68 -1.22464679914735321e-16
68 68 2.23012079300186211e-02
69 68 6.72519599884322944e-02
70 68 1.12834956513251608e-01
71 68 1.58916472321746688e-01
72 68 2.05350206136080099e-01
73 68 2.51978086495205256e-01
74 68 2.98631377267970399e-01
75 68 3.45132085261840693e-01
76 68 3.91294661790150822e-01
77 68 4.36927978439020148e-01
78 68 4.81837545213567808e-01
79 68 5.25827927404512674e-01
80 68 5.68705306634210150e-01
81 68 6.10280122365216449e-01
82 68 6.50369723385751830e-01
83 68 6.88800955010706484e-01
84 68 7.25412607362388107e-01
85 68 7.60057653303947367e-01
86 68 7.92605211317161773e-01
87 68 8.22942178512991340e-01
88 68 8.50974491469989491e-01
89 68 8.76627986955611282e-01
90 68 8.99848849919983595e-01
91 68 9.20603651537845513e-01
92 68 9.38878994624438357e-01
93 68 9.54680796685007160e-01
94 68 9.68033251559624053e-01
95 68 9.78977518680848702e-01
96 68 9.87570194172242788e-01
97 68 9.93881620389746590e-01
98 68 9.97994090236534293e-01
99 68 1.00000000000000000e+00
100 68 1.00000000000000000e+00
101 68 1.00000000000000000e+00
102 68 9.97994090236534404e-01
103 68 9.93881620389746590e-01
104 68 9.87570194172242788e-01
105 68 9.78977518680848591e-01
106 68 9.68033251559624164e-01
107 68 9.54680796685007271e-01
108 68 9.38878994624438246e-01
109 68 9.20603651537845513e-01
110 68 8.99848849919983707e-01
111 68 8.76627986955611282e-01
112 68 8.50974491469989491e-01
113 68 8.22942178512991340e-01
114 68 7.92605211317161995e-01
115 68 7.60057653303947367e-01
116 68 7.25412607362388218e-01
117 68 6.88800955010706817e-01
118 68 6.50369723385751941e-01
119 68 6.10280122365216449e-01
120 68 5.68705306634210150e-01
121 68 5.25827927404512896e-01
122 68 4.81837545213567919e-01
123 68 4.36927978439020093e-01
124 68 3.91294661790150933e-01
125 68 3.45132085261840749e-01
126 68 2.98631377267970510e-01
127 68 2.51978086495205533e-01
128 68 2.05350206136080321e-01
129 68 1.58916472321746910e-01
130 68 1.12834956513251886e-01
131 68 6.72519599884325858e-02
132 68 2.23012079300189577e-02
133 68 2.44929359829470641e-16
1 69 0.00000000000000000e+00
2 69 -2.23459421407426299e-02
3 69 -6.73868613515853782e-02
4 69 -1.13061293254181822e-01
5 69 -1.59235244425152439e-01
6 69 -2.05762120119498182e-01
7 69 -2.52483531799085448e-01
8 69 -2.99230404863309429e-01
9 69 -3.45824389081352657e-01
10 69 -3.92079563572627687e-01
11 69 -4.37804416536902330e-01
12 69 -4.82804067849915974e-01
13 69 -5.26882690777996432e-01
14 69 -5.69846078161322489e-01
15 69 -6.11504289221117991e-01
16 69 -6.51674306363754008e-01
17 69 -6.90182627571446883e-01
18 69 -7.26867719594037398e-01
19 69 -7.61582260371506337e-01
20 69 -7.94195105849116678e-01
21 69 -8.24592926263638226e-01
22 69 -8.52681469510889412e-01
23 69 -8.78386423593572885e-01
24 69 -9.01653865513681652e-01
25 69 -9.22450299390747408e-01
26 69 -9.40762301166468307e-01
27 69 -9.56595800216071157e-01
28 69 -9.69975038910287024e-01
29 69 -9.80941259243784280e-01
30 69 -9.89551170866840413e-01
31 69 -9.95875257235815492e-01
32 69 -9.99995976326020553e-01
33 69 -1.00200590976346571e+00
34 69 -1.00200590976346571e+00
35 69 -1.00200590976346571e+00
36 69 -9.99995976326021108e-01
37 69 -9.95875257235815492e-01
38 69 -9.89551170866840413e-01
39 69 -9.80941259243783725e-01
40 69 -9.69975038910287024e-01
41 69 -9.56595800216070935e-01
42 69 -9.40762301166468196e-01
43 69 -9.22450299390747408e-01
44 69 -9.01653865513681763e-01
45 69 -8.78386423593572885e-01
46 69 -8.52681469510889634e-01
47 69 -8.24592926263638226e-01
48 69 -7.94195105849117122e-01
49 69 -7.61582260371506670e-01
50 69 -7.26867719594037620e-01
51 69 -6.90182627571447327e-01
52 69 -6.51674306363753897e-01
53 69 -6.11504289221117991e-01
54 69 -5.69846078161322489e-01
55 69 -5.26882690777996432e-01
56 69 -4.82804067849916252e-01
57 69 -4.37804416536902274e-01
58 69 -3.92079563572627687e-01
59 69 -3.45824389081352657e-01
60 69 -2.99230404863309485e-01
61 69 -2.52483531799085448e-01
62 69 -2.05762120119498210e-01
63 69 -1.59235244425152495e-01
64 69 -1.13061293254181947e-01
65 69 -6.73868613515854475e-02
66 69 -2.23459421407427375e-02
67 69 -1.22710333011855988e-16
68 69 2.23459421407425259e-02
69 69 6.73868613515853088e-02
70 69 1.13061293254181766e-01
71 69 1.59235244425152411e-01
72 69 2.05762120119498126e-01
73 69 2.52483531799085448e-01
74 69 2.99230404863309429e-01
75 69 3.45824389081352657e-01
76 69 3.92079563572627687e-01
77 69 4.37804416536902330e-01
78 69 4.82804067849915974e-01
79 69 5.26882690777996432e-01
80 69 5.69846078161322489e-01
81 69 6.11504289221117991e-01
82 69 6.51674306363754008e-01
83 69 6.90182627571446883e-01
84 69 7.26867719594037398e-01
85 69 7.61582260371506337e-01
86 69 7.94195105849116678e-01
87 69 8.24592926263638226e-01
88 69 8.52681469510889412e-01
89 69 8.78386423593572885e-01
90 69 9.01653865513681652e-01
91 69 9.22450299390747408e-01
92 69 9.40762301166468307e-01
93 69 9.56595800216071157e-01
94 69 9.69975038910287024e-01
95 69 9.80941259243784280e-01
96 69 9.89551170866840413e-01
97 69 9.95875257235815492e-01
98 69 9.99995976326020553e-01
99 69 1.00200590976346571e+00
100 69 1.00200590976346571e+00
101 69 1.00200590976346571e+00
102 69 9.99995976326021108e-01
103 69 9.95875257235815492e-01
104 69 9.89551170866840413e-01
105 69 9.80941259243783725e-01
106 69 9.69975038910287024e-01
107 69 9.56595800216070935e-01
108 69 9.40762301166468196e-01
109 69 9.22450299390747408e-01
110 69 9.01653865513681763e-01
111 69 8.78386423593572885e-01
112 69 8.52681469510889634e-01
113 69 8.24592926263638226e-01
114 69 7.94195105849117122e-01
115 69 7.61582260371506670e-01
116 69 7.26867719594037620e-01
117 69 6.90182627571447327e-01
118 69 6.51674306363754008e-01
119 69 6.11504289221117991e-01
120 69 5.69846078161322489e-01
121 69 5.26882690777996432e-01
122 69 4.82804067849916252e-01
123 69 4.37804416536902274e-01
124 69 3.92079563572627743e-01
125 69 3.45824389081352768e-01
126 69 2.99230404863309651e-01
127 69 2.52483531799085725e-01
128 69 2.05762120119498348e-01
129 69 1.59235244425152633e-01
130 69 1.13061293254182044e-01
131 69 6.73868613515855724e-02
132 69 2.23459421407428589e-02
133 69 2.45420666023711976e-16
1 70 0.00000000000000000e+00
2 70 -2.24376551859017705e-02
3 70 -6.76634330091751973e-02
4 70 -1.13525323610506185e-01
5 70 -1.59888783625733472e-01
6 70 -2.06606616650264419e-01
7 70 -2.53519784081848221e-01
8 70 -3.00458517397628633e-01
9 70 -3.47243734375150992e-01
10 70 -3.93688751070448706e-01
11 70 -4.39601269673450701e-01
12 70 -4.84785610225656971e-01
13 70 -5.29045142274046420e-01
14 70 -5.72184861586563898e-01
15 70 -6.14014047822438735e-01
16 70 -6.54348932240441661e-01
17 70 -6.93015300729366901e-01
18 70 -7.29850957068294948e-01
19 70 -7.64707974552539027e-01
20 70 -7.97454670881065253e-01
21 70 -8.27977251158422689e-01
22 70 -8.56181076447445233e-01
23 70 -8.81991529756777970e-01
24 70 -9.05354466775644129e-01
25 70 -9.26236254148539606e-01
26 70 -9.44623412721643740e-01
27 70 -9.60521896205745462e-01
28 70 -9.73956046468013925e-01
29 70 -9.84967274770042200e-01
30 70 -9.93612523511960055e-01
31 70 -9.99962565430944861e-01
32 70 -1.00410019692939056e+00
33 70 -1.00611837961025352e+00
34 70 -1.00611837961025352e+00
35 70 -1.00611837961025352e+00
36 70 -1.00410019692939101e+00
37 70 -9.99962565430944972e-01
38 70 -9.93612523511960055e-01
39 70 -9.84967274770041978e-01
40 70 -9.73956046468013925e-01
41 70 -9.60521896205745351e-01
42 70 -9.44623412721643518e-01
43 70 -9.26236254148539606e-01
44 70 -9.05354466775644240e-01
45 70 -8.81991529756777970e-01
46 70 -8.56181076447445566e-01
47 70 -8.27977251158422800e-01
48 70 -7.97454670881065808e-01
49 70 -7.64707974552539249e-01
50 70 -7.29850957068294948e-01
51 70 -6.93015300729367345e-01
52 70 -6.54348932240441439e-01
53 70 -6.14014047822438735e-01
54 70 -5.72184861586563898e-01
55 70 -5.29045142274046420e-01
56 70 -4.84785610225657249e-01
57 70 -4.39601269673450645e-01
58 70 -3.93688751070448706e-01
59 70 -3.47243734375150992e-01
60 70 -3.00458517397628633e-01
61 70 -2.53519784081848221e-01
62 70 -2.06606616650264446e-01
63 70 -1.59888783625733555e-01
64 70 -1.13525323610506268e-01
65 70 -6.76634330091752528e-02
66 70 -2.24376551859018815e-02
67 70 -1.23213965315301847e-16
68 70 2.24376551859016733e-02
69 70 6.76634330091751002e-02
70 70 1.13525323610506115e-01
71 70 1.59888783625733444e-01
72 70 2.06606616650264391e-01
73 70 2.53519784081848221e-01
74 70 3.00458517397628633e-01
75 70 3.47243734375150992e-01
76 70 3.93688751070448706e-01
77 70 4.39601269673450701e-01
78 70 4.84785610225656971e-01
79 70 5.29045142274046420e-01
80 70 5.72184861586563898e-01
81 70 6.14014047822438735e-01
82 70 6.54348932240441661e-01
83 70 6.93015300729366901e-01
84 70 7.29850957068294948e-01
85 70 7.64707974552539027e-01
86 70 7.97454670881065253e-01
87 70 8.27977251158422689e-01
88 70 8.56181076447445233e-01
89 70 8.81991529756777970e-01
90 70 9.05354466775644129e-01
91 70 9.26236254148539606e-01
92 70 9.44623412721643740e-01
93 70 9.60521896205745462e-01
94 70 9.73956046468013925e-01
95 70 9.84967274770042200e-01
96 70 9.93612523511960055e-01
97 70 9.99962565430944861e-01
98 70 1.00410019692939056e+00
99 70 1.00611837961025352e+00
100 70 1.00611837961025352e+00
101 70 1.00611837961025352e+00
102 70 1.00410019692939101e+00
103 70 9.99962565430944972e-01
104 70 9.93612523511960055e-01
105 70 9.84967274770041978e-01
106 70 9.73956046468013925e-01
107 70 9.60521896205745351e-01
108 70 9.44623412721643518e-01
109 70 9.26236254148539606e-01
110 70 9.05354466775644240e-01
111 70 8.81991529756777970e-01
112 70 8.56181076447445566e-01
113 70 8.27977251158422800e-01
114 70 7.97454670881065808e-01
115 70 7.64707974552539249e-01
116 70 7.29850957068294948e-01
117 70 6.93015300729367345e-01
118 70 6.54348932240441661e-01
119 70 6.14014047822438735e-01
120 70 5.72184861586563898e-01
121 70 5.29045142274046420e-01
122 70 4.84785610225657249e-01
123 70 4.39601269673450645e-01
124 70 3.93688751070448817e-01
125 70 3.47243734375151047e-01
126 70 3.00458517397628799e-01
127 70 2.53519784081848498e-01
128 70 2.06606616650264641e-01
129 70 1.59888783625733666e-01
130 70 1.13525323610506393e-01
131 70 6.76634330091753777e-02
132 70 2.24376551859020064e-02
133 70 2.46427930630603694e-16
1 71 0.00000000000000000e+00
2 71 -2.25784076143132964e-02
3 71 -6.80878887926247151e-02
4 71 -1.14237473113294838e-01
5 71 -1.60891773215538214e-01
6 71 -2.07902669325041506e-01
7 71 -2.55110125183190595e-01
8 71 -3.02343307301487008e-01
9 71 -3.49422010066574418e-01
10 71 -3.96158378457640348e-01
11 71 -4.42358908371731807e-01
12 71 -4.87826692341095658e-01
13 71 -5.32363866440963007e-01
14 71 -5.75774203168888721e-01
15 71 -6.17865785786756105e-01
16 71 -6.58453692763689369e-01
17 71 -6.97362617135463214e-01
18 71 -7.34429345216909724e-01
19 71 -7.69505022352416135e-01
20 71 -8.02457140191902618e-01
21 71 -8.33171189999379447e-01
22 71 -8.61551939163336167e-01
23 71 -8.87524302616647276e-01
24 71 -9.11033796398819873e-01
25 71 -9.32046576170785457e-01
26 71 -9.50549078223380084e-01
27 71 -9.66547293615290792e-01
28 71 -9.80065716911323048e-01
29 71 -9.91146019147791546e-01
30 71 -9.99845499927084269e-01
31 71 -1.00623537594696799e+00
32 71 -1.01039896299542331e+00
33 71 -1.01242980582775743e+00
34 71 -1.01242980582775766e+00
35 71 -1.01242980582775743e+00
36 71 -1.01039896299542376e+00
37 71 -1.00623537594696821e+00
38 71 -9.99845499927084269e-01
39 71 -9.91146019147791324e-01
40 71 -9.80065716911323048e-01
41 71 -9.66547293615290570e-01
42 71 -9.50549078223380084e-01
43 71 -9.32046576170785457e-01
44 71 -9.11033796398820206e-01
45 71 -8.87524302616647276e-01
46 71 -8.61551939163336500e-01
47 71 -8.33171189999379558e-01
48 71 -8.02457140191903395e-01
49 71 -7.69505022352416468e-01
50 71 -7.34429345216909724e-01
51 71 -6.97362617135463769e-01
52 71 -6.58453692763689147e-01
53 71 -6.17865785786756216e-01
54 71 -5.75774203168888721e-01
55 71 -5.32363866440963007e-01
56 71 -4.87826692341095880e-01
57 71 -4.42358908371731752e-01
58 71 -3.96158378457640348e-01
59 71 -3.49422010066574362e-01
60 71 -3.02343307301487063e-01
61 71 -2.55110125183190595e-01
62 71 -2.07902669325041534e-01
63 71 -1.60891773215538270e-01
64 71 -1.14237473113294921e-01
65 71 -6.80878887926247706e-02
66 71 -2.25784076143134074e-02
67 71 -1.23986892106833930e-16
68 71 2.25784076143131993e-02
69 71 6.80878887926246040e-02
70 71 1.14237473113294782e-01
71 71 1.60891773215538159e-01
72 71 2.07902669325041478e-01
73 71 2.55110125183190539e-01
74 71 3.02343307301487008e-01
75 71 3.49422010066574418e-01
76 71 3.96158378457640348e-01
77 71 4.42358908371731807e-01
78 71 4.87826692341095658e-01
79 71 5.32363866440963007e-01
80 71 5.75774203168888721e-01
81 71 6.17865785786756105e-01
82 71 6.58453692763689369e-01
83 71 6.97362617135463214e-01
84 71 7.34429345216909724e-01
85 71 7.69505022352416135e-01
86 71 8.02457140191902618e-01
87 71 8.33171189999379447e-01
88 71 8.61551939163336167e-01
89 71 8.87524302616647276e-01
90 71 9.11033796398819873e-01
91 71 9.32046576170785457e-01
92 71 9.50549078223380084e-01
93 71 9.66547293615290792e-01
94 71 9.80065716911323048e-01
95 71 9.91146019147791546e-01
96 71 9.99845499927084269e-01
97 71 1.00623537594696799e+00
98 71 1.01039896299542331e+00
99 71 1.01242980582775743e+00
100 71 1.01242980582775766e+00
101 71 1.01242980582775743e+00
102 71 1.01039896299542376e+00
103 71 1.00623537594696821e+00
104 71 9.99845499927084269e-01
105 71 9.91146019147791324e-01
106 71 9.80065716911323048e-01
107 71 9.66547293615290570e-01
108 71 9.50549078223380084e-01
109 71 9.32046576170785457e-01
110 71 9.11033796398820206e-01
111 71 8.87524302616647276e-01
112 71 8.61551939163336500e-01
113 71 8.33171189999379558e-01
114 71 8.02457140191903395e-01
115 71 7.69505022352416468e-01
116 71 7.34429345216909724e-01
117 71 6.97362617135463769e-01
118 71 6.58453692763689258e-01
119 71 6.17865785786756216e-01
120 71 5.75774203168888721e-01
121 71 5.32363866440963007e-01
122 71 4.87826692341095880e-01
123 71 4.42358908371731752e-01
124 71 3.96158378457640625e-01
125 71 3.49422010066574529e-01
126 71 3.02343307301487174e-01
127 71 2.55110125183190817e-01
128 71 2.07902669325041756e-01
129 71 1.60891773215538353e-01
130 71 1.14237473113295046e-01
131 71 6.80878887926248955e-02
132 71 2.25784076143135358e-02
133 71 2.47973784213667861e-16
1 72 0.00000000000000000e+00
2 72 -2.27700346571220492e-02
3 72 -6.86657630609655151e-02
4 72 -1.15207027278698748e-01
5 72 -1.62257290892436068e-01
6 72 -2.09667177008459688e-01
7 72 -2.57275291111386306e-01
8 72 -3.04909349817898689e-01
9 72 -3.52387618076897446e-01
10 72 -3.99520646507917854e-01
11 72 -4.46113288703569089e-01
12 72 -4.91966966006685658e-01
13 72 -5.36882135185462128e-01
14 72 -5.80660903319030197e-01
15 72 -6.23109724837088597e-01
16 72 -6.64042108746170645e-01
17 72 -7.03281260220032456e-01
18 72 -7.40662580349340738e-01
19 72 -7.76035951122007295e-01
20 72 -8.09267739565538657e-01
21 72 -8.40242465087522317e-01
22 72 -8.68864086819991721e-01
23 72 -8.95056882435230627e-01
24 72 -9.18765905557486273e-01
25 72 -9.39957024604642477e-01
26 72 -9.58616560749874114e-01
27 72 -9.74750555899070559e-01
28 72 -9.88383712506853751e-01
29 72 -9.99558055279186175e-01
30 72 -1.00833137013057916e+00
31 72 -1.01477547818783775e+00
32 72 -1.01897440235515480e+00
33 72 -1.02102248131915130e+00
34 72 -1.02102248131915152e+00
35 72 -1.02102248131915130e+00
36 72 -1.01897440235515502e+00
37 72 -1.01477547818783798e+00
38 72 -1.00833137013057916e+00
39 72 -9.99558055279185731e-01
40 72 -9.88383712506853751e-01
41 72 -9.74750555899070226e-01
42 72 -9.58616560749874114e-01
43 72 -9.39957024604642477e-01
44 72 -9.18765905557486606e-01
45 72 -8.95056882435230627e-01
46 72 -8.68864086819992054e-01
47 72 -8.40242465087522539e-01
48 72 -8.09267739565539435e-01
49 72 -7.76035951122007850e-01
50 72 -7.40662580349340738e-01
51 72 -7.03281260220033122e-01
52 72 -6.64042108746170423e-01
53 72 -6.23109724837088708e-01
54 72 -5.80660903319030197e-01
55 72 -5.36882135185462239e-01
56 72 -4.91966966006685880e-01
57 72 -4.46113288703569033e-01
58 72 -3.99520646507917854e-01
59 72 -3.52387618076897446e-01
60 72 -3.04909349817898689e-01
61 72 -2.57275291111386306e-01
62 72 -2.09667177008459743e-01
63 72 -1.62257290892436096e-01
64 72 -1.15207027278698831e-01
65 72 -6.86657630609655845e-02
66 72 -2.27700346571221637e-02
67 72 -1.25039191360498685e-16
68 72 2.27700346571219521e-02
69 72 6.86657630609654041e-02
70 72 1.15207027278698693e-01
71 72 1.62257290892436040e-01
72 72 2.09667177008459660e-01
73 72 2.57275291111386251e-01
74 72 3.04909349817898689e-01
75 72 3.52387618076897446e-01
76 72 3.99520646507917854e-01
77 72 4.46113288703569089e-01
78 72 4.91966966006685658e-01
79 72 5.36882135185462128e-01
80 72 5.80660903319030197e-01
81 72 6.23109724837088597e-01
82 72 6.64042108746170645e-01
83 72 7.03281260220032456e-01
84 72 7.40662580349340738e-01
85 72 7.76035951122007295e-01
86 72 8.09267739565538657e-01
87 72 8.40242465087522317e-01
88 72 8.68864086819991721e-01
89 72 8.95056882435230627e-01
90 72 9.18765905557486273e-01
91 72 9.39957024604642477e-01
92 72 9.58616560749874114e-01
93 72 9.74750555899070559e-01
94 72 9.88383712506853751e-01
95 72 9.99558055279186175e-01
96 72 1.00833137013057916e+00
97 72 1.01477547818783775e+00
98 72 1.01897440235515480e+00
99 72 1.02102248131915130e+00
100 72 1.02102248131915152e+00
101 72 1.02102248131915130e+00
102 72 1.01897440235515502e+00
103 72 1.01477547818783798e+00
104 72 1.00833137013057916e+00
105 72 9.99558055279185731e-01
106 72 9.88383712506853751e-01
107 72 9.74750555899070226e-01
108 72 9.58616560749874114e-01
109 72 9.39957024604642477e-01
110 72 9.18765905557486606e-01
111 72 8.95056882435230627e-01
112 72 8.68864086819992054e-01
113 72 8.40242465087522539e-01
114 72 8.09267739565539435e-01
115 72 7.76035951122007850e-01
116 72 7.40662580349340738e-01
117 72 7.03281260220033122e-01
118 72 6.64042108746170645e-01
119 72 6.23109724837088708e-01
120 72 5.80660903319030197e-01
121 72 5.36882135185462239e-01
122 72 4.91966966006685880e-01
123 72 4.46113288703569033e-01
124 72 3.99520646507918131e-01
125 72 3.52387618076897557e-01
126 72 3.04909349817898911e-01
127 72 2.57275291111386528e-01
128 72 2.09667177008459937e-01
129 72 1.62257290892436207e-01
130 72 1.15207027278698956e-01
131 72 6.86657630609657232e-02
132 72 2.27700346571222921e-02
133 72 2.50078382720997369e-16
1 73 0.00000000000000000e+00
2 73 -2.30141050338341473e-02
3 73 -6.94017864755048092e-02
4 73 -1.16441923183391527e-01
5 73 -1.63996515215487970e-01
6 73 -2.11914584517811477e-01
7 73 -2.60033006598684835e-01
8 73 -3.08177651381498552e-01
9 73 -3.56164835810108271e-01
10 73 -4.03803079809658461e-01
11 73 -4.50895145212342363e-01
12 73 -4.97240324810538092e-01
13 73 -5.42636936482776888e-01
14 73 -5.86884966108092820e-01
15 73 -6.29788793515027145e-01
16 73 -6.71159928726461241e-01
17 73 -7.10819681865024089e-01
18 73 -7.48601689697418582e-01
19 73 -7.84354225107296910e-01
20 73 -8.17942222719868384e-01
21 73 -8.49248964114490912e-01
22 73 -8.78177378967987532e-01
23 73 -9.04650933290414239e-01
24 73 -9.28614091739737191e-01
25 73 -9.50032356879847439e-01
26 73 -9.68891903261550502e-01
27 73 -9.85198837553494577e-01
28 73 -9.98978126994149673e-01
29 73 -1.01027224674930283e+00
30 73 -1.01913960213655974e+00
31 73 -1.02565278412825855e+00
32 73 -1.02989671626410706e+00
33 73 -1.03196674844037584e+00
34 73 -1.03196674844037606e+00
35 73 -1.03196674844037584e+00
36 73 -1.02989671626410706e+00
37 73 -1.02565278412825878e+00
38 73 -1.01913960213655974e+00
39 73 -1.01027224674930260e+00
40 73 -9.98978126994149673e-01
41 73 -9.85198837553494355e-01
42 73 -9.68891903261550724e-01
43 73 -9.50032356879847439e-01
44 73 -9.28614091739737635e-01
45 73 -9.04650933290414239e-01
46 73 -8.78177378967987865e-01
47 73 -8.49248964114491356e-01
48 73 -8.17942222719869050e-01
49 73 -7.84354225107297354e-01
50 73 -7.48601689697418582e-01
51 73 -7.10819681865024866e-01
52 73 -6.71159928726460908e-01
53 73 -6.29788793515027145e-01
54 73 -5.86884966108092820e-01
55 73 -5.42636936482777110e-01
56 73 -4.97240324810538203e-01
57 73 -4.50895145212342363e-01
58 73 -4.03803079809658461e-01
59 73 -3.56164835810108327e-01
60 73 -3.08177651381498552e-01
61 73 -2.60033006598684835e-01
62 73 -2.11914584517811533e-01
63 73 -1.63996515215487998e-01
64 73 -1.16441923183391596e-01
65 73 -6.94017864755048924e-02
66 73 -2.30141050338342583e-02
67 73 -1.26379477530400791e-16
68 73 2.30141050338340467e-02
69 73 6.94017864755047120e-02
70 73 1.16441923183391485e-01
71 73 1.63996515215487915e-01
72 73 2.11914584517811450e-01
73 73 2.60033006598684724e-01
74 73 3.08177651381498552e-01
75 73 3.56164835810108271e-01
76 73 4.03803079809658461e-01
77 73 4.50895145212342363e-01
78 73 4.97240324810538092e-01
79 73 5.42636936482776888e-01
80 73 5.86884966108092820e-01
81 73 6.29788793515027145e-01
82 73 6.71159928726461241e-01
83 73 7.10819681865024089e-01
84 73 7.48601689697418582e-01
85 73 7.84354225107296910e-01
86 73 8.17942222719868384e-01
87 73 8.49248964114490912e-01
88 73 8.78177378967987532e-01
89 73 9.04650933290414239e-01
90 73 9.28614091739737191e-01
91 73 9.50032356879847439e-01
92 73 9.68891903261550502e-01
93 73 9.85198837553494577e-01
94 73 9.98978126994149673e-01
95 73 1.01027224674930283e+00
96 73 1.01913960213655974e+00
97 73 1.02565278412825855e+00
98 73 1.02989671626410706e+00
99 73 1.03196674844037584e+00
100 73 1.03196674844037606e+00
101 73 1.03196674844037584e+00
102 73 1.02989671626410706e+00
103 73 1.02565278412825878e+00
104 73 1.01913960213655974e+00
105 73 1.01027224674930260e+00
106 73 9.98978126994149673e-01
107 73 9.85198837553494355e-01
108 73 9.68891903261550724e-01
109 73 9.50032356879847439e-01
110 73 9.28614091739737635e-01
111 73 9.04650933290414239e-01
112 73 8.78177378967987865e-01
113 73 8.49248964114491356e-01
114 73 8.17942222719869050e-01
115 73 7.84354225107297354e-01
116 73 7.48601689697418582e-01
117 73 7.10819681865024866e-01
118 73 6.71159928726461352e-01
119 73 6.29788793515027145e-01
120 73 5.86884966108092820e-01
121 73 5.42636936482777110e-01
122 73 4.97240324810538203e-01
123 73 4.50895145212342363e-01
124 73 4.03803079809658738e-01
125 73 3.56164835810108327e-01
126 73 3.08177651381498774e-01
127 73 2.60033006598685001e-01
128 73 2.11914584517811755e-01
129 73 1.63996515215488081e-01
130 73 1.16441923183391749e-01
131 73 6.94017864755050451e-02
132 73 2.30141050338343867e-02
133 73 2.52758955060801582e-16
1 74 0.00000000000000000e+00
2 74 -2.33118809063691673e-02
3 74 -7.02997652364798914e-02
4 74 -1.17948546848514094e-01
5 74 -1.66118440240997395e-01
6 74 -2.14656513878736771e-01
7 74 -2.63397532628004361e-01
8 74 -3.12165113370613811e-01
9 74 -3.60773196404349406e-01
10 74 -4.09027824123889994e-01
11 74 -4.56729206327906923e-01
12 74 -5.03674038889898368e-01
13 74 -5.49658030155258825e-01
14 74 -5.94478578051881201e-01
15 74 -6.37937531309784256e-01
16 74 -6.79843961109786510e-01
17 74 -7.20016865534397477e-01
18 74 -7.58287728802703120e-01
19 74 -7.94502860625145080e-01
20 74 -8.28525448037367052e-01
21 74 -8.60237262417504422e-01
22 74 -8.89539977464790521e-01
23 74 -9.16356068928065204e-01
24 74 -9.40629282902269548e-01
25 74 -9.62324675594413925e-01
26 74 -9.81428242669999062e-01
27 74 -9.97946169810894346e-01
28 74 -1.01190374730272836e+00
29 74 -1.02334399989075320e+00
30 74 -1.03232608858976094e+00
31 74 -1.03892354361522377e+00
32 74 -1.04322238731912464e+00
33 74 -1.04531920331499251e+00
34 74 -1.04531920331499295e+00
35 74 -1.04531920331499251e+00
36 74 -1.04322238731912464e+00
37 74 -1.03892354361522377e+00
38 74 -1.03232608858976094e+00
39 74 -1.02334399989075298e+00
40 74 -1.01190374730272836e+00
41 74 -9.97946169810894235e-01
42 74 -9.81428242669999285e-01
43 74 -9.62324675594414147e-01
44 74 -9.40629282902269992e-01
45 74 -9.16356068928065204e-01
46 74 -8.89539977464790854e-01
47 74 -8.60237262417504867e-01
48 74 -8.28525448037367496e-01
49 74 -7.94502860625145413e-01
50 74 -7.58287728802703120e-01
51 74 -7.20016865534398254e-01
52 74 -6.79843961109786177e-01
53 74 -6.37937531309784367e-01
54 74 -5.94478578051881201e-01
55 74 -5.49658030155259048e-01
56 74 -5.03674038889898479e-01
57 74 -4.56729206327906923e-01
58 74 -4.09027824123889994e-01
59 74 -3.60773196404349406e-01
60 74 -3.12165113370613756e-01
61 74 -2.63397532628004361e-01
62 74 -2.14656513878736799e-01
63 74 -1.66118440240997423e-01
64 74 -1.17948546848514149e-01
65 74 -7.02997652364799747e-02
66 74 -2.33118809063692818e-02
67 74 -1.28014681642696688e-16
68 74 2.33118809063690667e-02
69 74 7.02997652364797943e-02
70 74 1.17948546848514052e-01
71 74 1.66118440240997312e-01
72 74 2.14656513878736716e-01
73 74 2.63397532628004249e-01
74 74 3.12165113370613811e-01
75 74 3.60773196404349406e-01
76 74 4.09027824123889994e-01
77 74 4.56729206327906923e-01
78 74 5.03674038889898368e-01
79 74 5.49658030155258825e-01
80 74 5.94478578051881201e-01
81 74 6.37937531309784256e-01
82 74 6.79843961109786510e-01
83 74 7.20016865534397477e-01
84 74 7.58287728802703120e-01
85 74 7.94502860625145080e-01
86 74 8.28525448037367052e-01
87 74 8.60237262417504422e-01
88 74 8.89539977464790521e-01
89 74 9.16356068928065204e-01
90 74 9.40629282902269548e-01
91 74 9.62324675594413925e-01
92 74 9.81428242669999062e-01
93 74 9.97946169810894346e-01
94 74 1.01190374730272836e+00
95 74 1.02334399989075320e+00
96 74 1.03232608858976094e+00
97 74 1.03892354361522377e+00
98 74 1.04322238731912464e+00
99 74 1.04531920331499251e+00
100 74 1.04531920331499295e+00
101 74 1.04531920331499251e+00
102 74 1.04322238731912464e+00
103 74 1.03892354361522377e+00
104 74 1.03232608858976094e+00
105 74 1.02334399989075298e+00
106 74 1.01190374730272836e+00
107 74 9.97946169810894235e-01
108 74 9.81428242669999285e-01
109 74 9.62324675594414147e-01
110 74 9.40629282902269992e-01
111 74 9.16356068928065204e-01
112 74 8.89539977464790854e-01
113 74 8.60237262417504867e-01
114 74 8.28525448037367496e-01
115 74 7.94502860625145413e-01
116 74 7.58287728802703120e-01
117 74 7.20016865534398254e-01
118 74 6.79843961109786621e-01
119 74 6.37937531309784367e-01
120 74 5.94478578051881201e-01
121 74 5.49658030155259048e-01
122 74 5.03674038889898479e-01
123 74 4.56729206327906923e-01
124 74 4.09027824123890160e-01
125 74 3.60773196404349406e-01
126 74 3.12165113370614034e-01
127 74 2.63397532628004472e-01
128 74 2.14656513878737021e-01
129 74 1.66118440240997450e-01
130 74 1.17948546848514302e-01
131 74 7.02997652364801273e-02
132 74 2.33118809063694067e-02
133 74 2.56029363285393376e-16
1 75 0.00000000000000000e+00
2 75 -2.36642801797909107e-02
3 75 -7.13624673964023820e-02
4 75 -1.19731542496849405e-01
5 75 -1.68629606880789484e-01
6 75 -2.17901417189196117e-01
7 75 -2.67379240474402480e-01
8 75 -3.16884027283277303e-01
9 75 -3.66226905300408356e-01
10 75 -4.15210984916855264e-01
11 75 -4.63633455757924806e-01
12 75 -5.11287940404713481e-01
13 75 -5.57967058982024033e-01
14 75 -6.03465146738110136e-01
15 75 -6.47581057004899097e-01
16 75 -6.90120974744915072e-01
17 75 -7.30901161884607520e-01
18 75 -7.69750555236484724e-01
19 75 -8.06513141217274576e-01
20 75 -8.41050038698776148e-01
21 75 -8.73241231829660181e-01
22 75 -9.02986907937592509e-01
23 75 -9.30208370858692679e-01
24 75 -9.54848516313135720e-01
25 75 -9.76871872272252029e-01
26 75 -9.96264222701880198e-01
27 75 -1.01303184679113722e+00
28 75 -1.02720041713192223e+00
29 75 -1.03881360886269469e+00
30 75 -1.04793147731898828e+00
31 75 -1.05462866425225998e+00
32 75 -1.05899249239065996e+00
33 75 -1.06112100537556131e+00
34 75 -1.06112100537556175e+00
35 75 -1.06112100537556131e+00
36 75 -1.05899249239065996e+00
37 75 -1.05462866425225998e+00
38 75 -1.04793147731898828e+00
39 75 -1.03881360886269469e+00
40 75 -1.02720041713192223e+00
41 75 -1.01303184679113678e+00
42 75 -9.96264222701880309e-01
43 75 -9.76871872272252140e-01
44 75 -9.54848516313136053e-01
45 75 -9.30208370858692679e-01
46 75 -9.02986907937592842e-01
47 75 -8.73241231829660514e-01
48 75 -8.41050038698776592e-01
49 75 -8.06513141217275020e-01
50 75 -7.69750555236484724e-01
51 75 -7.30901161884608297e-01
52 75 -6.90120974744914850e-01
53 75 -6.47581057004899319e-01
54 75 -6.03465146738110136e-01
55 75 -5.57967058982024366e-01
56 75 -5.11287940404713592e-01
57 75 -4.63633455757924862e-01
58 75 -4.15210984916855264e-01
59 75 -3.66226905300408412e-01
60 75 -3.16884027283277359e-01
61 75 -2.67379240474402480e-01
62 75 -2.17901417189196117e-01
63 75 -1.68629606880789512e-01
64 75 -1.19731542496849461e-01
65 75 -7.13624673964024792e-02
66 75 -2.36642801797910286e-02
67 75 -1.29949844274120245e-16
68 75 2.36642801797908135e-02
69 75 7.13624673964022849e-02
70 75 1.19731542496849364e-01
71 75 1.68629606880789429e-01
72 75 2.17901417189196117e-01
73 75 2.67379240474402369e-01
74 75 3.16884027283277303e-01
75 75 3.66226905300408356e-01
76 75 4.15210984916855264e-01
77 75 4.63633455757924806e-01
78 75 5.11287940404713481e-01
79 75 5.57967058982024033e-01
80 75 6.03465146738110136e-01
81 75 6.47581057004899097e-01
82 75 6.90120974744915072e-01
83 75 7.30901161884607520e-01
84 75 7.69750555236484724e-01
85 75 8.06513141217274576e-01
86 75 8.41050038698776148e-01
87 75 8.73241231829660181e-01
88 75 9.02986907937592509e-01
89 75 9.30208370858692679e-01
90 75 9.54848516313135720e-01
91 75 9.76871872272252029e-01
92 75 9.96264222701880198e-01
93 75 1.01303184679113722e+00
94 75 1.02720041713192223e+00
95 75 1.03881360886269469e+00
96 75 1.04793147731898828e+00
97 75 1.05462866425225998e+00
98 75 1.05899249239065996e+00
99 75 1.06112100537556131e+00
100 75 1.06112100537556175e+00
101 75 1.06112100537556131e+00
102 75 1.05899249239065996e+00
103 75 1.05462866425225998e+00
104 75 1.04793147731898828e+00
105 75 1.03881360886269469e+00
106 75 1.02720041713192223e+00
107 75 1.01303184679113678e+00
108 75 9.96264222701880309e-01
109 75 9.76871872272252140e-01
110 75 9.54848516313136053e-01
111 75 9.30208370858692679e-01
112 75 9.02986907937592842e-01
113 75 8.73241231829660514e-01
114 75 8.41050038698776592e-01
115 75 8.06513141217275020e-01
116 75 7.69750555236484724e-01
117 75 7.30901161884608297e-01
118 75 6.90120974744915294e-01
119 75 6.47581057004899319e-01
120 75 6.03465146738110136e-01
121 75 5.57967058982024366e-01
122 75 5.11287940404713592e-01
123 75 4.63633455757924862e-01
124 75 4.15210984916855430e-01
125 75 3.66226905300408412e-01
126 75 3.16884027283277581e-01
127 75 2.67379240474402591e-01
128 75 2.17901417189196339e-01
129 75 1.68629606880789540e-01
130 75 1.19731542496849599e-01
131 75 7.13624673964026457e-02
132 75 2.36642801797911570e-02
133 75 2.59899688548240491e-16
1 76 0.00000000000000000e+00
2 76 -2.40718424059574443e-02
3 76 -7.25915200384367743e-02
4 76 -1.21793640039289858e-01
5 76 -1.71533859934580396e-01
6 76 -2.21654262659235490e-01
7 76 -2.71984226455405431e-01
8 76 -3.22341618159271093e-01
9 76 -3.72534312568759685e-01
10 76 -4.22362029109022430e-01
11 76 -4.71618464468029297e-01
12 76 -5.20093686855493065e-01
13 76 -5.67576744759853424e-01
14 76 -6.13858431332016230e-01
15 76 -6.58734135620051231e-01
16 76 -7.02006704572922025e-01
17 76 -7.43489235655800940e-01
18 76 -7.83007719515372180e-01
19 76 -8.20403455596994791e-01
20 76 -8.55535170867818606e-01
21 76 -8.88280782482413156e-01
22 76 -9.18538758727145410e-01
23 76 -9.46229048079615720e-01
24 76 -9.71293562771499253e-01
25 76 -9.93696219850876195e-01
26 76 -1.01342255844543705e+00
27 76 -1.03047896588873722e+00
28 76 -1.04489155692340407e+00
29 76 -1.05670475889064841e+00
30 76 -1.06597966143957890e+00
31 76 -1.07279219185234131e+00
32 76 -1.07723117678812463e+00
33 76 -1.07939634846215404e+00
34 76 -1.07939634846215449e+00
35 76 -1.07939634846215404e+00
36 76 -1.07723117678812463e+00
37 76 -1.07279219185234131e+00
38 76 -1.06597966143957890e+00
39 76 -1.05670475889064841e+00
40 76 -1.04489155692340407e+00
41 76 -1.03047896588873700e+00
42 76 -1.01342255844543727e+00
43 76 -9.93696219850876195e-01
44 76 -9.71293562771499808e-01
45 76 -9.46229048079615720e-01
46 76 -9.18538758727145632e-01
47 76 -8.88280782482413489e-01
48 76 -8.55535170867819050e-01
49 76 -8.20403455596995124e-01
50 76 -7.83007719515372180e-01
51 76 -7.43489235655801717e-01
52 76 -7.02006704572921914e-01
53 76 -6.58734135620051342e-01
54 76 -6.13858431332016230e-01
55 76 -5.67576744759853868e-01
56 76 -5.20093686855493176e-01
57 76 -4.71618464468029297e-01
58 76 -4.22362029109022596e-01
59 76 -3.72534312568759685e-01
60 76 -3.22341618159271148e-01
61 76 -2.71984226455405487e-01
62 76 -2.21654262659235490e-01
63 76 -1.71533859934580452e-01
64 76 -1.21793640039289899e-01
65 76 -7.25915200384368853e-02
66 76 -2.40718424059575657e-02
67 76 -1.32187928315551805e-16
68 76 2.40718424059573437e-02
69 76 7.25915200384366910e-02
70 76 1.21793640039289788e-01
71 76 1.71533859934580341e-01
72 76 2.21654262659235490e-01
73 76 2.71984226455405376e-01
74 76 3.22341618159271093e-01
75 76 3.72534312568759685e-01
76 76 4.22362029109022430e-01
77 76 4.71618464468029297e-01
78 76 5.20093686855493065e-01
79 76 5.67576744759853424e-01
80 76 6.13858431332016230e-01
81 76 6.58734135620051231e-01
82 76 7.02006704572922025e-01
83 76 7.43489235655800940e-01
84 76 7.83007719515372180e-01
85 76 8.20403455596994791e-01
86 76 8.55535170867818606e-01
87 76 8.88280782482413156e-01
88 76 9.18538758727145410e-01
89 76 9.46229048079615720e-01
90 76 9.71293562771499253e-01
91 76 9.93696219850876195e-01
92 76 1.01342255844543705e+00
93 76 1.03047896588873722e+00
94 76 1.04489155692340407e+00
95 76 1.05670475889064841e+00
96 76 1.06597966143957890e+00
97 76 1.07279219185234131e+00
98 76 1.07723117678812463e+00
99 76 1.07939634846215404e+00
100 76 1.07939634846215449e+00
101 76 1.07939634846215404e+00
102 76 1.07723117678812463e+00
103 76 1.07279219185234131e+00
104 76 1.06597966143957890e+00
105 76 1.05670475889064841e+00
106 76 1.04489155692340407e+00
107 76 1.03047896588873700e+00
108 76 1.01342255844543727e+00
109 76 9.93696219850876195e-01
110 76 9.71293562771499808e-01
111 76 9.46229048079615720e-01
112 76 9.18538758727145632e-01
113 76 8.88280782482413489e-01
114 76 8.55535170867819050e-01
115 76 8.20403455596995124e-01
116 76 7.83007719515372180e-01
117 76 7.43489235655801717e-01
118 76 7.02006704572922469e-01
119 76 6.58734135620051453e-01
120 76 6.13858431332016230e-01
121 76 5.67576744759853868e-01
122 76 5.20093686855493176e-01
123 76 4.71618464468029297e-01
124 76 4.22362029109022763e-01
125 76 3.72534312568759685e-01
126 76 3.22341618159271426e-01
127 76 2.71984226455405598e-01
128 76 2.21654262659235768e-01
129 76 1.71533859934580452e-01
130 76 1.21793640039290052e-01
131 76 7.25915200384370657e-02
132 76 2.40718424059576976e-02
133 76 2.64375856631103609e-16
1 77 0.00000000000000000e+00
2 77 -2.45346995523836736e-02
3 77 -7.39873211264090863e-02
4 77 -1.24135507177282486e-01
5 77 -1.74832139791428670e-01
6 77 -2.25916265449776887e-01
7 77 -2.77213981652661867e-01
8 77 -3.28539653151336764e-01
9 77 -3.79697460530328157e-01
10 77 -4.30483272188605437e-01
11 77 -4.80686817981824610e-01
12 77 -5.30094129518438373e-01
13 77 -5.78490199078265599e-01
14 77 -6.25661797150234622e-01
15 77 -6.71400378491065819e-01
16 77 -7.15504999160057054e-01
17 77 -7.57785162831242087e-01
18 77 -7.98063514272274621e-01
19 77 -8.36178301409455926e-01
20 77 -8.71985534789989858e-01
21 77 -9.05360784140421315e-01
22 77 -9.36200565479466063e-01
23 77 -9.64423288041545090e-01
24 77 -9.89969747137649736e-01
25 77 -1.01280316600722364e+00
26 77 -1.03290880572204502e+00
27 77 -1.05029317643231690e+00
28 77 -1.06498289501901811e+00
29 77 -1.07702324307921615e+00
30 77 -1.08647648490333726e+00
31 77 -1.09342000771516967e+00
32 77 -1.09794434614678260e+00
33 77 -1.10015115008001607e+00
34 77 -1.10015115008001652e+00
35 77 -1.10015115008001607e+00
36 77 -1.09794434614678260e+00
37 77 -1.09342000771516967e+00
38 77 -1.08647648490333726e+00
39 77 -1.07702324307921615e+00
40 77 -1.06498289501901811e+00
41 77 -1.05029317643231668e+00
42 77 -1.03290880572204524e+00
43 77 -1.01280316600722342e+00
44 77 -9.89969747137650180e-01
45 77 -9.64423288041545090e-01
46 77 -9.36200565479466285e-01
47 77 -9.05360784140421759e-01
48 77 -8.71985534789990191e-01
49 77 -8.36178301409456259e-01
50 77 -7.98063514272274621e-01
51 77 -7.57785162831242753e-01
52 77 -7.15504999160056832e-01
53 77 -6.71400378491065930e-01
54 77 -6.25661797150234622e-01
55 77 -5.78490199078266154e-01
56 77 -5.30094129518438373e-01
57 77 -4.80686817981824610e-01
58 77 -4.30483272188605604e-01
59 77 -3.79697460530328157e-01
60 77 -3.28539653151336764e-01
61 77 -2.77213981652661923e-01
62 77 -2.25916265449776887e-01
63 77 -1.74832139791428753e-01
64 77 -1.24135507177282514e-01
65 77 -7.39873211264091835e-02
66 77 -2.45346995523837950e-02
67 77 -1.34729658452377113e-16
68 77 2.45346995523835730e-02
69 77 7.39873211264090030e-02
70 77 1.24135507177282403e-01
71 77 1.74832139791428615e-01
72 77 2.25916265449776887e-01
73 77 2.77213981652661812e-01
74 77 3.28539653151336764e-01
75 77 3.79697460530328157e-01
76 77 4.30483272188605437e-01
77 77 4.80686817981824610e-01
78 77 5.30094129518438373e-01
79 77 5.78490199078265599e-01
80 77 6.25661797150234622e-01
81 77 6.71400378491065819e-01
82 77 7.15504999160057054e-01
83 77 7.57785162831242087e-01
84 77 7.98063514272274621e-01
85 77 8.36178301409455926e-01
86 77 8.71985534789989858e-01
87 77 9.05360784140421315e-01
88 77 9.36200565479466063e-01
89 77 9.64423288041545090e-01
90 77 9.89969747137649736e-01
91 77 1.01280316600722364e+00
92 77 1.03290880572204502e+00
93 77 1.05029317643231690e+00
94 77 1.06498289501901811e+00
95 77 1.07702324307921615e+00
96 77 1.08647648490333726e+00
97 77 1.09342000771516967e+00
98 77 1.09794434614678260e+00
99 77 1.10015115008001607e+00
100 77 1.10015115008001652e+00
101 77 1.10015115008001607e+00
102 77 1.09794434614678260e+00
103 77 1.09342000771516967e+00
104 77 1.08647648490333726e+00
105 77 1.07702324307921615e+00
106 77 1.06498289501901811e+00
107 77 1.05029317643231668e+00
108 77 1.03290880572204524e+00
109 77 1.01280316600722342e+00
110 77 9.89969747137650180e-01
111 77 9.64423288041545090e-01
112 77 9.36200565479466285e-01
113 77 9.05360784140421759e-01
114 77 8.71985534789990191e-01
115 77 8.36178301409456259e-01
116 77 7.98063514272274621e-01
117 77 7.57785162831242753e-01
118 77 7.15504999160057498e-01
119 77 6.71400378491066041e-01
120 77 6.25661797150234622e-01
121 77 5.78490199078266154e-01
122 77 5.30094129518438373e-01
123 77 4.80686817981824610e-01
124 77 4.30483272188605659e-01
125 77 3.79697460530328212e-01
126 77 3.28539653151337041e-01
127 77 2.77213981652662034e-01
128 77 2.25916265449777165e-01
129 77 1.74832139791428753e-01
130 77 1.24135507177282667e-01
131 77 7.39873211264093777e-02
132 77 2.45346995523839338e-02
133 77 2.69459316904754225e-16
1 78 0.00000000000000000e+00
2 78 -2.50525528456666154e-02
3 78 -7.55489696733859240e-02
4 78 -1.26755632240067639e-01
5 78 -1.78522317417993431e-01
6 78 -2.30684674446168442e-01
7 78 -2.83065130269191778e-01
8 78 -3.35474131439738088e-01
9 78 -3.87711725386801431e-01
10 78 -4.39569471908725029e-01
11 78 -4.90832662694457300e-01
12 78 -5.41282813126932272e-01
13 78 -5.90700377323365666e-01
14 78 -6.38867625142698903e-01
15 78 -6.85571609582388830e-01
16 78 -7.30607145382974443e-01
17 78 -7.73779715417274527e-01
18 78 -8.14908221020464674e-01
19 78 -8.53827496021849375e-01
20 78 -8.90390511786833039e-01
21 78 -9.24470211695273658e-01
22 78 -9.55960927532067184e-01
23 78 -9.84779346397374966e-01
24 78 -1.01086501397028994e+00
25 78 -1.03418037724408474e+00
26 78 -1.05471038619634694e+00
27 78 -1.07246168838685718e+00
28 78 -1.08746146249844000e+00
29 78 -1.09975594588570535e+00
30 78 -1.10940871704990962e+00
31 78 -1.11649879662504836e+00
32 78 -1.12111863015541879e+00
33 78 -1.12337201304438850e+00
34 78 -1.12337201304438872e+00
35 78 -1.12337201304438850e+00
36 78 -1.12111863015541857e+00
37 78 -1.11649879662504836e+00
38 78 -1.10940871704990962e+00
39 78 -1.09975594588570535e+00
40 78 -1.08746146249843978e+00
41 78 -1.07246168838685718e+00
42 78 -1.05471038619634694e+00
43 78 -1.03418037724408451e+00
44 78 -1.01086501397029016e+00
45 78 -9.84779346397375077e-01
46 78 -9.55960927532067295e-01
47 78 -9.24470211695274102e-01
48 78 -8.90390511786833261e-01
49 78 -8.53827496021849819e-01
50 78 -8.14908221020464674e-01
51 78 -7.73779715417275193e-01
52 78 -7.30607145382974221e-01
53 78 -6.85571609582389052e-01
54 78 -6.38867625142698903e-01
55 78 -5.90700377323366332e-01
56 78 -5.41282813126932272e-01
57 78 -4.90832662694457356e-01
58 78 -4.39569471908725140e-01
59 78 -3.87711725386801487e-01
60 78 -3.35474131439738088e-01
61 78 -2.83065130269191889e-01
62 78 -2.30684674446168470e-01
63 78 -1.78522317417993487e-01
64 78 -1.26755632240067667e-01
65 78 -7.55489696733860350e-02
66 78 -2.50525528456667368e-02
67 78 -1.37573394002652910e-16
68 78 2.50525528456665078e-02
69 78 7.55489696733858546e-02
70 78 1.26755632240067556e-01
71 78 1.78522317417993376e-01
72 78 2.30684674446168442e-01
73 78 2.83065130269191723e-01
74 78 3.35474131439738088e-01
75 78 3.87711725386801431e-01
76 78 4.39569471908725029e-01
77 78 4.90832662694457300e-01
78 78 5.41282813126932272e-01
79 78 5.90700377323365666e-01
80 78 6.38867625142698903e-01
81 78 6.85571609582388830e-01
82 78 7.30607145382974443e-01
83 78 7.73779715417274527e-01
84 78 8.14908221020464674e-01
85 78 8.53827496021849375e-01
86 78 8.90390511786833039e-01
87 78 9.24470211695273658e-01
88 78 9.55960927532067184e-01
89 78 9.84779346397374966e-01
90 78 1.01086501397028994e+00
91 78 1.03418037724408474e+00
92 78 1.05471038619634694e+00
93 78 1.07246168838685718e+00
94 78 1.08746146249844000e+00
95 78 1.09975594588570535e+00
96 78 1.10940871704990962e+00
97 78 1.11649879662504836e+00
98 78 1.12111863015541879e+00
99 78 1.12337201304438850e+00
100 78 1.12337201304438872e+00
101 78 1.12337201304438850e+00
102 78 1.12111863015541857e+00
103 78 1.11649879662504836e+00
104 78 1.10940871704990962e+00
105 78 1.09975594588570535e+00
106 78 1.08746146249843978e+00
107 78 1.07246168838685718e+00
108 78 1.05471038619634694e+00
109 78 1.03418037724408451e+00
110 78 1.01086501397029016e+00
111 78 9.84779346397375077e-01
112 78 9.55960927532067295e-01
113 78 9.24470211695274213e-01
114 78 8.90390511786833261e-01
115 78 8.53827496021849819e-01
116 78 8.14908221020464674e-01
117 78 7.73779715417275193e-01
118 78 7.30607145382974776e-01
119 78 6.85571609582389163e-01
120 78 6.38867625142698903e-01
121 78 5.90700377323366332e-01
122 78 5.41282813126932272e-01
123 78 4.90832662694457356e-01
124 78 4.39569471908725196e-01
125 78 3.87711725386801542e-01
126 78 3.35474131439738366e-01
127 78 2.83065130269191945e-01
128 78 2.30684674446168719e-01
129 78 1.78522317417993487e-01
130 78 1.26755632240067806e-01
131 78 7.55489696733862293e-02
132 78 2.50525528456668790e-02
133 78 2.75146788005305820e-16
1 79 0.00000000000000000e+00
2 79 -2.56246567826232570e-02
3 79 -7.72742175253483821e-02
4 79 -1.29650243287600664e-01
5 79 -1.82599080423290261e-01
6 79 -2.35952625032251839e-01
7 79 -2.89529248973572073e-01
8 79 -3.43135070128346931e-01
9 79 -3.96565569778009219e-01
10 79 -4.49607547748506531e-01
11 79 -5.02041392616884408e-01
12 79 -5.53643630417871457e-01
13 79 -6.04189701685251102e-01
14 79 -6.53456904159088747e-01
15 79 -7.01227427946449433e-01
16 79 -7.47291402145835781e-01
17 79 -7.91449867607133539e-01
18 79 -8.33517590068648784e-01
19 79 -8.73325631599694230e-01
20 79 -9.10723605997238006e-01
21 79 -9.45581555156684517e-01
22 79 -9.77791397807371676e-01
23 79 -1.00726791850331021e+00
24 79 -1.03394928237945405e+00
25 79 -1.05779707886285768e+00
26 79 -1.07879591424649002e+00
27 79 -1.09695258789482586e+00
28 79 -1.11229489914725654e+00
29 79 -1.12487014124170948e+00
30 79 -1.13474334456784165e+00
31 79 -1.14199533428695887e+00
32 79 -1.14672066704397890e+00
33 79 -1.14902550853001006e+00
34 79 -1.14902550853001051e+00
35 79 -1.14902550853001006e+00
36 79 -1.14672066704397846e+00
37 79 -1.14199533428695910e+00
38 79 -1.13474334456784165e+00
39 79 -1.12487014124170948e+00
40 79 -1.11229489914725610e+00
41 79 -1.09695258789482586e+00
42 79 -1.07879591424649002e+00
43 79 -1.05779707886285723e+00
44 79 -1.03394928237945427e+00
45 79 -1.00726791850331043e+00
46 79 -9.77791397807371898e-01
47 79 -9.45581555156684739e-01
48 79 -9.10723605997238339e-01
49 79 -8.73325631599694785e-01
50 79 -8.33517590068648784e-01
51 79 -7.91449867607134316e-01
52 79 -7.47291402145835448e-01
53 79 -7.01227427946449766e-01
54 79 -6.53456904159088747e-01
55 79 -6.04189701685251768e-01
56 79 -5.53643630417871457e-01
57 79 -5.02041392616884519e-01
58 79 -4.49607547748506642e-01
59 79 -3.96565569778009275e-01
60 79 -3.43135070128346931e-01
61 79 -2.89529248973572240e-01
62 79 -2.35952625032251839e-01
63 79 -1.82599080423290344e-01
64 79 -1.29650243287600664e-01
65 79 -7.72742175253484931e-02
66 79 -2.56246567826233854e-02
67 79 -1.40715041115993686e-16
68 79 2.56246567826231460e-02
69 79 7.72742175253483127e-02
70 79 1.29650243287600581e-01
71 79 1.82599080423290233e-01
72 79 2.35952625032251839e-01
73 79 2.89529248973572018e-01
74 79 3.43135070128346931e-01
75 79 3.96565569778009219e-01
76 79 4.49607547748506531e-01
77 79 5.02041392616884408e-01
78 79 5.53643630417871457e-01
79 79 6.04189701685251102e-01
80 79 6.53456904159088747e-01
81 79 7.01227427946449433e-01
82 79 7.47291402145835781e-01
83 79 7.91449867607133539e-01
84 79 8.33517590068648784e-01
85 79 8.73325631599694230e-01
86 79 9.10723605997238006e-01
87 79 9.45581555156684517e-01
88 79 9.77791397807371676e-01
89 79 1.00726791850331021e+00
90 79 1.03394928237945405e+00
91 79 1.05779707886285768e+00
92 79 1.07879591424649002e+00
93 79 1.09695258789482586e+00
94 79 1.11229489914725654e+00
95 79 1.12487014124170948e+00
96 79 1.13474334456784165e+00
97 79 1.14199533428695887e+00
98 79 1.14672066704397890e+00
99 79 1.14902550853001006e+00
100 79 1.14902550853001051e+00
101 79 1.14902550853001006e+00
102 79 1.14672066704397846e+00
103 79 1.14199533428695910e+00
104 79 1.13474334456784165e+00
105 79 1.12487014124170948e+00
106 79 1.11229489914725610e+00
107 79 1.09695258789482586e+00
108 79 1.07879591424649002e+00
109 79 1.05779707886285723e+00
110 79 1.03394928237945427e+00
111 79 1.00726791850331043e+00
112 79 9.77791397807371898e-01
113 79 9.45581555156684961e-01
114 79 9.10723605997238339e-01
115 79 8.73325631599694785e-01
116 79 8.33517590068648784e-01
117 79 7.91449867607134316e-01
118 79 7.47291402145836114e-01
119 79 7.01227427946449988e-01
120 79 6.53456904159088747e-01
121 79 6.04189701685251768e-01
122 79 5.53643630417871457e-01
123 79 5.02041392616884519e-01
124 79 4.49607547748506642e-01
125 79 3.96565569778009386e-01
126 79 3.43135070128347208e-01
127 79 2.89529248973572240e-01
128 79 2.35952625032252089e-01
129 79 1.82599080423290344e-01
130 79 1.29650243287600803e-01
131 79 7.72742175253486874e-02
132 79 2.56246567826235241e-02
133 79 2.81430082231987372e-16
1 80 0.00000000000000000e+00
2 80 -2.62498112226366327e-02
3 80 -7.91594455147156401e-02
4 80 -1.32813268101069443e-01
5 80 -1.87053876709435601e-01
6 80 -2.41709066276442536e-01
7 80 -2.96592777552511233e-01
8 80 -3.51506398354702099e-01
9 80 -4.06240420403570501e-01
10 80 -4.60576442166210742e-01
11 80 -5.14289494448155526e-01
12 80 -5.67150651279729856e-01
13 80 -6.18929874707784156e-01
14 80 -6.69399029294964532e-01
15 80 -7.18334991328026251e-01
16 80 -7.65522769769541589e-01
17 80 -8.10758551543072969e-01
18 80 -8.53852583301183410e-01
19 80 -8.94631805602472130e-01
20 80 -9.32942163332228236e-01
21 80 -9.68650527850274612e-01
22 80 -1.00164618107068093e+00
23 80 -1.03184182858051310e+00
24 80 -1.05917412695440594e+00
25 80 -1.08360372853212183e+00
26 80 -1.10511486405255410e+00
27 80 -1.12371449876153640e+00
28 80 -1.13943111020775656e+00
29 80 -1.15231314542323671e+00
30 80 -1.16242722131788145e+00
31 80 -1.16985613491193274e+00
32 80 -1.17469674971072413e+00
33 80 -1.17705782148700822e+00
34 80 -1.17705782148700866e+00
35 80 -1.17705782148700822e+00
36 80 -1.17469674971072369e+00
37 80 -1.16985613491193297e+00
38 80 -1.16242722131788145e+00
39 80 -1.15231314542323671e+00
40 80 -1.13943111020775611e+00
41 80 -1.12371449876153640e+00
42 80 -1.10511486405255432e+00
43 80 -1.08360372853212139e+00
44 80 -1.05917412695440616e+00
45 80 -1.03184182858051332e+00
46 80 -1.00164618107068093e+00
47 80 -9.68650527850274834e-01
48 80 -9.32942163332228680e-01
49 80 -8.94631805602472685e-01
50 80 -8.53852583301183410e-01
51 80 -8.10758551543073525e-01
52 80 -7.65522769769541256e-01
53 80 -7.18334991328026695e-01
54 80 -6.69399029294964532e-01
55 80 -6.18929874707784822e-01
56 80 -5.67150651279729967e-01
57 80 -5.14289494448155637e-01
58 80 -4.60576442166210909e-01
59 80 -4.06240420403570612e-01
60 80 -3.51506398354702099e-01
61 80 -2.96592777552511400e-01
62 80 -2.41709066276442536e-01
63 80 -1.87053876709435740e-01
64 80 -1.32813268101069443e-01
65 80 -7.91594455147157511e-02
66 80 -2.62498112226367576e-02
67 80 -1.44148009349542151e-16
68 80 2.62498112226365182e-02
69 80 7.91594455147155845e-02
70 80 1.32813268101069332e-01
71 80 1.87053876709435546e-01
72 80 2.41709066276442508e-01
73 80 2.96592777552511233e-01
74 80 3.51506398354702099e-01
75 80 4.06240420403570501e-01
76 80 4.60576442166210742e-01
77 80 5.14289494448155526e-01
78 80 5.67150651279729856e-01
79 80 6.18929874707784156e-01
80 80 6.69399029294964532e-01
81 80 7.18334991328026251e-01
82 80 7.65522769769541589e-01
83 80 8.10758551543072969e-01
84 80 8.53852583301183410e-01
85 80 8.94631805602472130e-01
86 80 9.32942163332228236e-01
87 80 9.68650527850274612e-01
88 80 1.00164618107068093e+00
89 80 1.03184182858051310e+00
90 80 1.05917412695440594e+00
91 80 1.08360372853212183e+00
92 80 1.10511486405255410e+00
93 80 1.12371449876153640e+00
94 80 1.13943111020775656e+00
95 80 1.15231314542323671e+00
96 80 1.16242722131788145e+00
97 80 1.16985613491193274e+00
98 80 1.17469674971072413e+00
99 80 1.17705782148700822e+00
100 80 1.17705782148700866e+00
101 80 1.17705782148700822e+00
102 80 1.17469674971072369e+00
103 80 1.16985613491193297e+00
104 80 1.16242722131788145e+00
105 80 1.15231314542323671e+00
106 80 1.13943111020775611e+00
107 80 1.12371449876153640e+00
108 80 1.10511486405255432e+00
109 80 1.08360372853212139e+00
110 80 1.05917412695440616e+00
111 80 1.03184182858051332e+00
112 80 1.00164618107068093e+00
113 80 9.68650527850275278e-01
114 80 9.32942163332228680e-01
115 80 8.94631805602472685e-01
116 80 8.53852583301183410e-01
117 80 8.10758551543073525e-01
118 80 7.65522769769541700e-01
119 80 7.18334991328026917e-01
120 80 6.69399029294964532e-01
121 80 6.18929874707784822e-01
122 80 5.67150651279729967e-01
123 80 5.14289494448155637e-01
124 80 4.60576442166210909e-01
125 80 4.06240420403570723e-01
126 80 3.51506398354702376e-01
127 80 2.96592777552511400e-01
128 80 2.41709066276442786e-01
129 80 1.87053876709435740e-01
130 80 1.32813268101069581e-01
131 80 7.91594455147159592e-02
132 80 2.62498112226369103e-02
133 80 2.88296018699084302e-16
1 81 0.00000000000000000e+00
2 81 -2.69263622360369839e-02
3 81 -8.11996660187399577e-02
4 81 -1.36236338475354796e-01
5 81 -1.91874920517137393e-01
6 81 -2.47938768743649618e-01
7 81 -3.04237028496584183e-01
8 81 -3.60565968650525925e-01
9 81 -4.16710681152387241e-01
10 81 -4.72447135484841740e-01
11 81 -5.27544564197000132e-01
12 81 -5.81768141082592893e-01
13 81 -6.34881899292105922e-01
14 81 -6.86651823526420735e-01
15 81 -7.36849039380486626e-01
16 81 -7.85253014733055865e-01
17 81 -8.31654683519688742e-01
18 81 -8.75859401774177315e-01
19 81 -9.17689649697693066e-01
20 81 -9.56987401627200529e-01
21 81 -9.93616097723887814e-01
22 81 -1.02746216630289378e+00
23 81 -1.05843606306373150e+00
24 81 -1.08647281199563328e+00
25 81 -1.11153205130918642e+00
26 81 -1.13359760531332898e+00
27 81 -1.15267661877305794e+00
28 81 -1.16879830320479305e+00
29 81 -1.18201235429291218e+00
30 81 -1.19238710590206365e+00
31 81 -1.20000748902623422e+00
32 81 -1.20497286368786138e+00
33 81 -1.20739478868283778e+00
34 81 -1.20739478868283800e+00
35 81 -1.20739478868283778e+00
36 81 -1.20497286368786116e+00
37 81 -1.20000748902623444e+00
38 81 -1.19238710590206365e+00
39 81 -1.18201235429291218e+00
40 81 -1.16879830320479283e+00
41 81 -1.15267661877305794e+00
42 81 -1.13359760531332920e+00
43 81 -1.11153205130918598e+00
44 81 -1.08647281199563350e+00
45 81 -1.05843606306373172e+00
46 81 -1.02746216630289378e+00
47 81 -9.93616097723887925e-01
48 81 -9.56987401627200862e-01
49 81 -9.17689649697693843e-01
50 81 -8.75859401774177315e-01
51 81 -8.31654683519689519e-01
52 81 -7.85253014733055532e-01
53 81 -7.36849039380486959e-01
54 81 -6.86651823526420735e-01
55 81 -6.34881899292106588e-01
56 81 -5.81768141082592893e-01
57 81 -5.27544564197000243e-01
58 81 -4.72447135484841907e-01
59 81 -4.16710681152387241e-01
60 81 -3.60565968650525925e-01
61 81 -3.04237028496584350e-01
62 81 -2.47938768743649618e-01
63 81 -1.91874920517137532e-01
64 81 -1.36236338475354796e-01
65 81 -8.11996660187400687e-02
66 81 -2.69263622360371123e-02
67 81 -1.47863216326763230e-16
68 81 2.69263622360368660e-02
69 81 8.11996660187398883e-02
70 81 1.36236338475354685e-01
71 81 1.91874920517137310e-01
72 81 2.47938768743649590e-01
73 81 3.04237028496584183e-01
74 81 3.60565968650525925e-01
75 81 4.16710681152387241e-01
76 81 4.72447135484841740e-01
77 81 5.27544564197000132e-01
78 81 5.81768141082592893e-01
79 81 6.34881899292105922e-01
80 81 6.86651823526420735e-01
81 81 7.36849039380486626e-01
82 81 7.85253014733055865e-01
83 81 8.31654683519688742e-01
84 81 8.75859401774177315e-01
85 81 9.17689649697693066e-01
86 81 9.56987401627200529e-01
87 81 9.93616097723887814e-01
88 81 1.02746216630289378e+00
89 81 1.05843606306373150e+00
90 81 1.08647281199563328e+00
91 81 1.11153205130918642e+00
92 81 1.13359760531332898e+00
93 81 1.15267661877305794e+00
94 81 1.16879830320479305e+00
95 81 1.18201235429291218e+00
96 81 1.19238710590206365e+00
97 81 1.20000748902623422e+00
98 81 1.20497286368786138e+00
99 81 1.20739478868283778e+00
100 81 1.20739478868283800e+00
101 81 1.20739478868283778e+00
102 81 1.20497286368786116e+00
103 81 1.20000748902623444e+00
104 81 1.19238710590206365e+00
105 81 1.18201235429291218e+00
106 81 1.16879830320479283e+00
107 81 1.15267661877305794e+00
108 81 1.13359760531332920e+00
109 81 1.11153205130918598e+00
110 81 1.08647281199563372e+00
111 81 1.05843606306373172e+00
112 81 1.02746216630289378e+00
113 81 9.93616097723888481e-01
114 81 9.56987401627200862e-01
115 81 9.17689649697693843e-01
116 81 8.75859401774177315e-01
117 81 8.31654683519689519e-01
118 81 7.85253014733055976e-01
119 81 7.36849039380487403e-01
120 81 6.86651823526420735e-01
121 81 6.34881899292106588e-01
122 81 5.81768141082593004e-01
123 81 5.27544564197000243e-01
124 81 4.72447135484841907e-01
125 81 4.16710681152387408e-01
126 81 3.60565968650526147e-01
127 81 3.04237028496584405e-01
128 81 2.47938768743649868e-01
129 81 1.91874920517137559e-01
130 81 1.36236338475354934e-01
131 81 8.11996660187402630e-02
132 81 2.69263622360372719e-02
133 81 2.95726432653526459e-16
1 82 0.00000000000000000e+00
2 82 -2.76522120949040315e-02
3 82 -8.33885530879658471e-02
4 82 -1.39908840768388387e-01
5 82 -1.97047263619284818e-01
6 82 -2.54622416490889236e-01
7 82 -3.12438299884845672e-01
8 82 -3.70285690726721350e-01
9 82 -4.27943887719668681e-01
10 82 -4.85182821189717839e-01
11 82 -5.41765502922840647e-01
12 82 -5.97450776538376416e-01
13 82 -6.51996314264272736e-01
14 82 -7.05161792486520667e-01
15 82 -7.56712167067480124e-01
16 82 -8.06420961034991834e-01
17 82 -8.54073472562457359e-01
18 82 -8.99469810695821992e-01
19 82 -9.42427670261990813e-01
20 82 -9.82784765724122100e-01
21 82 -1.02040085602056063e+00
22 82 -1.05515930793177892e+00
23 82 -1.08696816332517665e+00
24 82 -1.11576069464152838e+00
25 82 -1.14149545206479153e+00
26 82 -1.16415582385825656e+00
27 82 -1.18374914738726522e+00
28 82 -1.20030542161865061e+00
29 82 -1.21387568187580985e+00
30 82 -1.22453010408900620e+00
31 82 -1.23235590872413714e+00
32 82 -1.23745513423668041e+00
33 82 -1.23994234669605241e+00
34 82 -1.23994234669605241e+00
35 82 -1.23994234669605241e+00
36 82 -1.23745513423667997e+00
37 82 -1.23235590872413758e+00
38 82 -1.22453010408900620e+00
39 82 -1.21387568187580985e+00
40 82 -1.20030542161865039e+00
41 82 -1.18374914738726522e+00
42 82 -1.16415582385825678e+00
43 82 -1.14149545206479108e+00
44 82 -1.11576069464152861e+00
45 82 -1.08696816332517709e+00
46 82 -1.05515930793177892e+00
47 82 -1.02040085602056085e+00
48 82 -9.82784765724122322e-01
49 82 -9.42427670261991923e-01
50 82 -8.99469810695821992e-01
51 82 -8.54073472562458025e-01
52 82 -8.06420961034991501e-01
53 82 -7.56712167067480457e-01
54 82 -7.05161792486520667e-01
55 82 -6.51996314264273291e-01
56 82 -5.97450776538376416e-01
57 82 -5.41765502922840869e-01
58 82 -4.85182821189718005e-01
59 82 -4.27943887719668736e-01
60 82 -3.70285690726721350e-01
61 82 -3.12438299884845838e-01
62 82 -2.54622416490889236e-01
63 82 -1.97047263619284957e-01
64 82 -1.39908840768388415e-01
65 82 -8.33885530879659581e-02
66 82 -2.76522120949041599e-02
67 82 -1.51849142600857838e-16
68 82 2.76522120949039101e-02
69 82 8.33885530879657638e-02
70 82 1.39908840768388304e-01
71 82 1.97047263619284763e-01
72 82 2.54622416490889236e-01
73 82 3.12438299884845672e-01
74 82 3.70285690726721350e-01
75 82 4.27943887719668681e-01
76 82 4.85182821189717839e-01
77 82 5.41765502922840647e-01
78 82 5.97450776538376416e-01
79 82 6.51996314264272736e-01
80 82 7.05161792486520667e-01
81 82 7.56712167067480124e-01
82 82 8.06420961034991834e-01
83 82 8.54073472562457359e-01
84 82 8.99469810695821992e-01
85 82 9.42427670261990813e-01
86 82 9.82784765724122100e-01
87 82 1.02040085602056063e+00
88 82 1.05515930793177892e+00
89 82 1.08696816332517665e+00
90 82 1.11576069464152838e+00
91 82 1.14149545206479153e+00
92 82 1.16415582385825656e+00
93 82 1.18374914738726522e+00
94 82 1.20030542161865061e+00
95 82 1.21387568187580985e+00
96 82 1.22453010408900620e+00
97 82 1.23235590872413714e+00
98 82 1.23745513423668041e+00
99 82 1.23994234669605241e+00
100 82 1.23994234669605241e+00
101 82 1.23994234669605241e+00
102 82 1.23745513423667997e+00
103 82 1.23235590872413758e+00
104 82 1.22453010408900620e+00
105 82 1.21387568187580985e+00
106 82 1.20030542161865039e+00
107 82 1.18374914738726522e+00
108 82 1.16415582385825678e+00
109 82 1.14149545206479108e+00
110 82 1.11576069464152883e+00
111 82 1.08696816332517709e+00
112 82 1.05515930793177914e+00
113 82 1.02040085602056130e+00
114 82 9.82784765724122322e-01
115 82 9.42427670261991923e-01
116 82 8.99469810695821992e-01
117 82 8.54073472562458025e-01
118 82 8.06420961034992057e-01
119 82 7.56712167067481012e-01
120 82 7.05161792486520667e-01
121 82 6.51996314264273291e-01
122 82 5.97450776538376527e-01
123 82 5.41765502922840869e-01
124 82 4.85182821189718005e-01
125 82 4.27943887719668903e-01
126 82 3.70285690726721572e-01
127 82 3.12438299884845894e-01
128 82 2.54622416490889514e-01
129 82 1.97047263619285012e-01
130 82 1.39908840768388554e-01
131 82 8.33885530879661524e-02
132 82 2.76522120949043264e-02
133 82 3.03698285201715676e-16
1 83 0.00000000000000000e+00
2 83 -2.84248384681917952e-02
3 83 -8.57185003314249877e-02
4 83 -1.43818013020603819e-01
5 83 -2.02552932103742256e-01
6 83 -2.61736783816582386e-01
7 83 -3.21168092267738237e-01
8 83 -3.80631788511761271e-01
9 83 -4.39901004669471241e-01
10 83 -4.98739242724124454e-01
11 83 -5.56902892809013061e-01
12 83 -6.14144060428668648e-01
13 83 -6.70213646966556942e-01
14 83 -7.24864613962071247e-01
15 83 -7.77855349944043373e-01
16 83 -8.28953049980690193e-01
17 83 -8.77937013293393131e-01
18 83 -9.24601763804478116e-01
19 83 -9.68759902578939736e-01
20 83 -1.01024460968372454e+00
21 83 -1.04891172560239010e+00
22 83 -1.08464135828385166e+00
23 83 -1.11733898020691025e+00
24 83 -1.14693599938746549e+00
25 83 -1.17338980786628722e+00
26 83 -1.19668332976058500e+00
27 83 -1.21682410744794178e+00
28 83 -1.23384297809189047e+00
29 83 -1.24779240298626126e+00
30 83 -1.25874451883661820e+00
31 83 -1.26678898312301125e+00
32 83 -1.27203068534232977e+00
33 83 -1.27458739263761189e+00
34 83 -1.27458739263761145e+00
35 83 -1.27458739263761189e+00
36 83 -1.27203068534232933e+00
37 83 -1.26678898312301169e+00
38 83 -1.25874451883661820e+00
39 83 -1.24779240298626126e+00
40 83 -1.23384297809189047e+00
41 83 -1.21682410744794178e+00
42 83 -1.19668332976058522e+00
43 83 -1.17338980786628677e+00
44 83 -1.14693599938746549e+00
45 83 -1.11733898020691069e+00
46 83 -1.08464135828385166e+00
47 83 -1.04891172560239010e+00
48 83 -1.01024460968372454e+00
49 83 -9.68759902578940957e-01
50 83 -9.24601763804478116e-01
51 83 -8.77937013293393798e-01
52 83 -8.28953049980689971e-01
53 83 -7.77855349944043817e-01
54 83 -7.24864613962071358e-01
55 83 -6.70213646966557497e-01
56 83 -6.14144060428668648e-01
57 83 -5.56902892809013284e-01
58 83 -4.98739242724124621e-01
59 83 -4.39901004669471352e-01
60 83 -3.80631788511761271e-01
61 83 -3.21168092267738403e-01
62 83 -2.61736783816582386e-01
63 83 -2.02552932103742395e-01
64 83 -1.43818013020603847e-01
65 83 -8.57185003314250987e-02
66 83 -2.84248384681919271e-02
67 83 -1.56091937062722182e-16
68 83 2.84248384681916703e-02
69 83 8.57185003314248906e-02
70 83 1.43818013020603708e-01
71 83 2.02552932103742228e-01
72 83 2.61736783816582386e-01
73 83 3.21168092267738237e-01
74 83 3.80631788511761271e-01
75 83 4.39901004669471241e-01
76 83 4.98739242724124454e-01
77 83 5.56902892809013061e-01
78 83 6.14144060428668648e-01
79 83 6.70213646966556942e-01
80 83 7.24864613962071247e-01
81 83 7.77855349944043373e-01
82 83 8.28953049980690193e-01
83 83 8.77937013293393131e-01
84 83 9.24601763804478116e-01
85 83 9.68759902578939736e-01
86 83 1.01024460968372454e+00
87 83 1.04891172560239010e+00
88 83 1.08464135828385166e+00
89 83 1.11733898020691025e+00
90 83 1.14693599938746549e+00
91 83 1.17338980786628722e+00
92 83 1.19668332976058500e+00
93 83 1.21682410744794178e+00
94 83 1.23384297809189047e+00
95 83 1.24779240298626126e+00
96 83 1.25874451883661820e+00
97 83 1.26678898312301125e+00
98 83 1.27203068534232977e+00
99 83 1.27458739263761189e+00
100 83 1.27458739263761145e+00
101 83 1.27458739263761189e+00
102 83 1.27203068534232933e+00
103 83 1.26678898312301169e+00
104 83 1.25874451883661820e+00
105 83 1.24779240298626126e+00
106 83 1.23384297809189047e+00
107 83 1.21682410744794178e+00
108 83 1.19668332976058522e+00
109 83 1.17338980786628677e+00
110 83 1.14693599938746571e+00
111 83 1.11733898020691069e+00
112 83 1.08464135828385189e+00
113 83 1.04891172560239054e+00
114 83 1.01024460968372454e+00
115 83 9.68759902578940957e-01
116 83 9.24601763804478116e-01
117 83 8.77937013293393798e-01
118 83 8.28953049980690637e-01
119 83 7.77855349944044372e-01
120 83 7.24864613962071358e-01
121 83 6.70213646966557497e-01
122 83 6.14144060428668648e-01
123 83 5.56902892809013284e-01
124 83 4.98739242724124621e-01
125 83 4.39901004669471463e-01
126 83 3.80631788511761493e-01
127 83 3.21168092267738403e-01
128 83 2.61736783816582608e-01
129 83 2.02552932103742450e-01
130 83 1.43818013020604013e-01
131 83 8.57185003314253069e-02
132 83 2.84248384681921006e-02
133 83 3.12183874125444364e-16
1 84 0.00000000000000000e+00
2 84 -2.92413225399482044e-02
3 84 -8.81807057104906644e-02
4 84 -1.47949087221584091e-01
5 84 -2.08371126741341645e-01
6 84 -2.69254994173982687e-01
7 84 -3.30393426370742649e-01
8 84 -3.91565176677600046e-01
9 84 -4.52536860590488699e-01
10 84 -5.13065186848654209e-01
11 84 -5.72899548058345420e-01
12 84 -6.31784929124015404e-01
13 84 -6.89465076241496222e-01
14 84 -7.45685854939119430e-01
15 84 -8.00198713621220525e-01
16 84 -8.52764160193348664e-01
17 84 -9.03155154397751403e-01
18 84 -9.51160317996756821e-01
19 84 -9.96586869148938903e-01
20 84 -1.03926319613259954e+00
21 84 -1.07904099854764324e+00
22 84 -1.11579694052570000e+00
23 84 -1.14943377930708346e+00
24 84 -1.17988095264979642e+00
25 84 -1.20709462871007944e+00
26 84 -1.23105724111207127e+00
27 84 -1.25177654888299972e+00
28 84 -1.26928427496285923e+00
29 84 -1.28363438756031645e+00
30 84 -1.29490109545853516e+00
31 84 -1.30317663148744667e+00
32 84 -1.30856889802310250e+00
33 84 -1.31119904498929341e+00
34 84 -1.31119904498929318e+00
35 84 -1.31119904498929341e+00
36 84 -1.30856889802310206e+00
37 84 -1.30317663148744689e+00
38 84 -1.29490109545853516e+00
39 84 -1.28363438756031645e+00
40 84 -1.26928427496285923e+00
41 84 -1.25177654888299972e+00
42 84 -1.23105724111207127e+00
43 84 -1.20709462871007878e+00
44 84 -1.17988095264979642e+00
45 84 -1.14943377930708390e+00
46 84 -1.11579694052570000e+00
47 84 -1.07904099854764324e+00
48 84 -1.03926319613259954e+00
49 84 -9.96586869148940013e-01
50 84 -9.51160317996756821e-01
51 84 -9.03155154397751958e-01
52 84 -8.52764160193348553e-01
53 84 -8.00198713621220747e-01
54 84 -7.45685854939119430e-01
55 84 -6.89465076241496777e-01
56 84 -6.31784929124015404e-01
57 84 -5.72899548058345642e-01
58 84 -5.13065186848654431e-01
59 84 -4.52536860590488754e-01
60 84 -3.91565176677600046e-01
61 84 -3.30393426370742815e-01
62 84 -2.69254994173982687e-01
63 84 -2.08371126741341783e-01
64 84 -1.47949087221584119e-01
65 84 -8.81807057104907893e-02
66 84 -2.92413225399483397e-02
67 84 -1.60575571349120419e-16
68 84 2.92413225399480760e-02
69 84 8.81807057104905812e-02
70 84 1.47949087221583953e-01
71 84 2.08371126741341645e-01
72 84 2.69254994173982687e-01
73 84 3.30393426370742649e-01
74 84 3.91565176677600046e-01
75 84 4.52536860590488699e-01
76 84 5.13065186848654209e-01
77 84 5.72899548058345420e-01
78 84 6.31784929124015404e-01
79 84 6.89465076241496222e-01
80 84 7.45685854939119430e-01
81 84 8.00198713621220525e-01
82 84 8.52764160193348664e-01
83 84 9.03155154397751403e-01
84 84 9.51160317996756821e-01
85 84 9.96586869148938903e-01
86 84 1.03926319613259954e+00
87 84 1.07904099854764324e+00
88 84 1.11579694052570000e+00
89 84 1.14943377930708346e+00
90 84 1.17988095264979642e+00
91 84 1.20709462871007944e+00
92 84 1.23105724111207127e+00
93 84 1.25177654888299972e+00
94 84 1.26928427496285923e+00
95 84 1.28363438756031645e+00
96 84 1.29490109545853516e+00
97 84 1.30317663148744667e+00
98 84 1.30856889802310250e+00
99 84 1.31119904498929341e+00
100 84 1.31119904498929318e+00
101 84 1.31119904498929341e+00
102 84 1.30856889802310206e+00
103 84 1.30317663148744689e+00
104 84 1.29490109545853516e+00
105 84 1.28363438756031645e+00
106 84 1.26928427496285923e+00
107 84 1.25177654888299972e+00
108 84 1.23105724111207127e+00
109 84 1.20709462871007878e+00
110 84 1.17988095264979664e+00
111 84 1.14943377930708390e+00
112 84 1.11579694052570022e+00
113 84 1.07904099854764346e+00
114 84 1.03926319613259954e+00
115 84 9.96586869148940013e-01
116 84 9.51160317996756821e-01
117 84 9.03155154397751958e-01
118 84 8.52764160193348997e-01
119 84 8.00198713621221192e-01
120 84 7.45685854939119430e-01
121 84 6.89465076241496777e-01
122 84 6.31784929124015404e-01
123 84 5.72899548058345642e-01
124 84 5.13065186848654431e-01
125 84 4.52536860590488921e-01
126 84 3.91565176677600324e-01
127 84 3.30393426370742815e-01
128 84 2.69254994173982909e-01
129 84 2.08371126741341867e-01
130 84 1.47949087221584286e-01
131 84 8.81807057104909975e-02
132 84 2.92413225399485166e-02
133 84 3.21151142698240838e-16
1 85 0.00000000000000000e+00
2 85 -3.00983854274230293e-02
3 85 -9.07652813620382914e-02
4 85 -1.52285473570736574e-01
5 85 -2.14478482498159401e-01
6 85 -2.77146855510230605e-01
7 85 -3.40077254577252741e-01
8 85 -4.03041948307864661e-01
9 85 -4.65800711700390058e-01
10 85 -5.28103122629519750e-01
11 85 -5.89691228401158618e-01
12 85 -6.50302539429717608e-01
13 85 -7.09673291114448879e-01
14 85 -7.67541900304719693e-01
15 85 -8.23652530359943902e-01
16 85 -8.77758669674644221e-01
17 85 -9.29626623443257860e-01
18 85 -9.79038817933963079e-01
19 85 -1.02579682087138258e+00
20 85 -1.06972399059587575e+00
21 85 -1.11066768002402094e+00
22 85 -1.14850093831431121e+00
23 85 -1.18312367252269235e+00
24 85 -1.21446325222852036e+00
25 85 -1.24247456087710950e+00
26 85 -1.26713951722228768e+00
27 85 -1.28846610770829773e+00
28 85 -1.30648698507420513e+00
29 85 -1.32125769933636361e+00
30 85 -1.33285463433667006e+00
31 85 -1.34137272624843007e+00
32 85 -1.34692304006531871e+00
33 85 -1.34963027661424828e+00
34 85 -1.34963027661424806e+00
35 85 -1.34963027661424828e+00
36 85 -1.34692304006531827e+00
37 85 -1.34137272624843051e+00
38 85 -1.33285463433667006e+00
39 85 -1.32125769933636361e+00
40 85 -1.30648698507420513e+00
41 85 -1.28846610770829773e+00
42 85 -1.26713951722228768e+00
43 85 -1.24247456087710884e+00
44 85 -1.21446325222852036e+00
45 85 -1.18312367252269279e+00
46 85 -1.14850093831431121e+00
47 85 -1.11066768002402094e+00
48 85 -1.06972399059587553e+00
49 85 -1.02579682087138346e+00
50 85 -9.79038817933963079e-01
51 85 -9.29626623443258304e-01
52 85 -8.77758669674644221e-01
53 85 -8.23652530359944013e-01
54 85 -7.67541900304719693e-01
55 85 -7.09673291114449434e-01
56 85 -6.50302539429717608e-01
57 85 -5.89691228401158729e-01
58 85 -5.28103122629519972e-01
59 85 -4.65800711700390113e-01
60 85 -4.03041948307864661e-01
61 85 -3.40077254577252963e-01
62 85 -2.77146855510230605e-01
63 85 -2.14478482498159539e-01
64 85 -1.52285473570736601e-01
65 85 -9.07652813620384441e-02
66 85 -3.00983854274231716e-02
67 85 -1.65282039828799531e-16
68 85 3.00983854274228975e-02
69 85 9.07652813620382221e-02
70 85 1.52285473570736407e-01
71 85 2.14478482498159373e-01
72 85 2.77146855510230605e-01
73 85 3.40077254577252741e-01
74 85 4.03041948307864661e-01
75 85 4.65800711700390058e-01
76 85 5.28103122629519750e-01
77 85 5.89691228401158618e-01
78 85 6.50302539429717608e-01
79 85 7.09673291114448879e-01
80 85 7.67541900304719693e-01
81 85 8.23652530359943902e-01
82 85 8.77758669674644221e-01
83 85 9.29626623443257860e-01
84 85 9.79038817933963079e-01
85 85 1.02579682087138258e+00
86 85 1.06972399059587575e+00
87 85 1.11066768002402094e+00
88 85 1.14850093831431121e+00
89 85 1.18312367252269235e+00
90 85 1.21446325222852036e+00
91 85 1.24247456087710950e+00
92 85 1.26713951722228768e+00
93 85 1.28846610770829773e+00
94 85 1.30648698507420513e+00
95 85 1.32125769933636361e+00
96 85 1.33285463433667006e+00
97 85 1.34137272624843007e+00
98 85 1.34692304006531871e+00
99 85 1.34963027661424828e+00
100 85 1.34963027661424806e+00
101 85 1.34963027661424828e+00
102 85 1.34692304006531827e+00
103 85 1.34137272624843051e+00
104 85 1.33285463433667006e+00
105 85 1.32125769933636361e+00
106 85 1.30648698507420513e+00
107 85 1.28846610770829773e+00
108 85 1.26713951722228768e+00
109 85 1.24247456087710884e+00
110 85 1.21446325222852058e+00
111 85 1.18312367252269279e+00
112 85 1.14850093831431144e+00
113 85 1.11066768002402116e+00
114 85 1.06972399059587553e+00
115 85 1.02579682087138346e+00
116 85 9.79038817933963079e-01
117 85 9.29626623443258415e-01
118 85 8.77758669674644443e-01
119 85 8.23652530359944457e-01
120 85 7.67541900304719693e-01
121 85 7.09673291114449434e-01
122 85 6.50302539429717608e-01
123 85 5.89691228401158729e-01
124 85 5.28103122629519972e-01
125 85 4.65800711700390280e-01
126 85 4.03041948307864939e-01
127 85 3.40077254577252963e-01
128 85 2.77146855510230772e-01
129 85 2.14478482498159650e-01
130 85 1.52285473570736768e-01
131 85 9.07652813620386384e-02
132 85 3.00983854274233520e-02
133 85 3.30564079657599062e-16
1 86 0.00000000000000000e+00
2 86 -3.09924319556134815e-02
3 86 -9.34613856058235520e-02
4 86 -1.56808981958522303e-01
5 86 -2.20849380469129219e-01
6 86 -2.85379263343710832e-01
7 86 -3.50178955530763447e-01
8 86 -4.15013961074750692e-01
9 86 -4.79636919297922681e-01
10 86 -5.43789969502152304e-01
11 86 -6.07207496731487995e-01
12 86 -6.69619214374043703e-01
13 86 -7.30753522929550869e-01
14 86 -7.90341069145946706e-01
15 86 -8.48118416976328948e-01
16 86 -9.03831732401014998e-01
17 86 -9.57240378912201151e-01
18 86 -1.00812031993838769e+00
19 86 -1.05626722894494218e+00
20 86 -1.10149921728437783e+00
21 86 -1.14365910362357703e+00
22 86 -1.18261616615599618e+00
23 86 -1.21826733876317794e+00
24 86 -1.25053783360060011e+00
25 86 -1.27938119396530969e+00
26 86 -1.30477880152334280e+00
27 86 -1.32673887994936668e+00
28 86 -1.34529505190384224e+00
29 86 -1.36050451746835255e+00
30 86 -1.37244592940080801e+00
31 86 -1.38121704387149835e+00
32 86 -1.38693222496375390e+00
33 86 -1.38971987763478366e+00
34 86 -1.38971987763478366e+00
35 86 -1.38971987763478366e+00
36 86 -1.38693222496375346e+00
37 86 -1.38121704387149857e+00
38 86 -1.37244592940080823e+00
39 86 -1.36050451746835255e+00
40 86 -1.34529505190384224e+00
41 86 -1.32673887994936668e+00
42 86 -1.30477880152334280e+00
43 86 -1.27938119396530903e+00
44 86 -1.25053783360060011e+00
45 86 -1.21826733876317839e+00
46 86 -1.18261616615599618e+00
47 86 -1.14365910362357703e+00
48 86 -1.10149921728437761e+00
49 86 -1.05626722894494329e+00
50 86 -1.00812031993838769e+00
51 86 -9.57240378912201373e-01
52 86 -9.03831732401015109e-01
53 86 -8.48118416976329059e-01
54 86 -7.90341069145946706e-01
55 86 -7.30753522929551647e-01
56 86 -6.69619214374043703e-01
57 86 -6.07207496731488106e-01
58 86 -5.43789969502152415e-01
59 86 -4.79636919297922792e-01
60 86 -4.15013961074750692e-01
61 86 -3.50178955530763669e-01
62 86 -2.85379263343710832e-01
63 86 -2.20849380469129358e-01
64 86 -1.56808981958522331e-01
65 86 -9.34613856058237324e-02
66 86 -3.09924319556136307e-02
67 86 -1.70191599985688873e-16
68 86 3.09924319556133462e-02
69 86 9.34613856058234965e-02
70 86 1.56808981958522109e-01
71 86 2.20849380469129192e-01
72 86 2.85379263343710776e-01
73 86 3.50178955530763447e-01
74 86 4.15013961074750692e-01
75 86 4.79636919297922681e-01
76 86 5.43789969502152304e-01
77 86 6.07207496731487995e-01
78 86 6.69619214374043703e-01
79 86 7.30753522929550869e-01
80 86 7.90341069145946706e-01
81 86 8.48118416976328948e-01
82 86 9.03831732401014998e-01
83 86 9.57240378912201151e-01
84 86 1.00812031993838769e+00
85 86 1.05626722894494218e+00
86 86 1.10149921728437783e+00
87 86 1.14365910362357703e+00
88 86 1.18261616615599618e+00
89 86 1.21826733876317794e+00
90 86 1.25053783360060011e+00
91 86 1.27938119396530969e+00
92 86 1.30477880152334280e+00
93 86 1.32673887994936668e+00
94 86 1.34529505190384224e+00
95 86 1.36050451746835255e+00
96 86 1.37244592940080801e+00
97 86 1.38121704387149835e+00
98 86 1.38693222496375390e+00
99 86 1.38971987763478366e+00
100 86 1.38971987763478366e+00
101 86 1.38971987763478366e+00
102 86 1.38693222496375346e+00
103 86 1.38121704387149857e+00
104 86 1.37244592940080823e+00
105 86 1.36050451746835255e+00
106 86 1.34529505190384224e+00
107 86 1.32673887994936668e+00
108 86 1.30477880152334280e+00
109 86 1.27938119396530903e+00
110 86 1.25053783360060033e+00
111 86 1.21826733876317839e+00
112 86 1.18261616615599663e+00
113 86 1.14365910362357726e+00
114 86 1.10149921728437761e+00
115 86 1.05626722894494329e+00
116 86 1.00812031993838769e+00
117 86 9.57240378912201595e-01
118 86 9.03831732401015220e-01
119 86 8.48118416976329614e-01
120 86 7.90341069145946706e-01
121 86 7.30753522929551647e-01
122 86 6.69619214374043703e-01
123 86 6.07207496731488217e-01
124 86 5.43789969502152526e-01
125 86 4.79636919297922959e-01
126 86 4.15013961074750914e-01
127 86 3.50178955530763669e-01
128 86 2.85379263343710943e-01
129 86 2.20849380469129442e-01
130 86 1.56808981958522498e-01
131 86 9.34613856058239129e-02
132 86 3.09924319556138146e-02
133 86 3.40383199971377747e-16
1 87 0.00000000000000000e+00
2 87 -3.19196005658828677e-02
3 87 -9.62573734498916450e-02
4 87 -1.61500074483576866e-01
5 87 -2.27456303522527437e-01
6 87 -2.93916660324142542e-01
7 87 -3.60654898045053185e-01
8 87 -4.27429505556163214e-01
9 87 -4.93985722145541650e-01
10 87 -5.60057972962604289e-01
11 87 -6.25372696922811278e-01
12 87 -6.89651521528578337e-01
13 87 -7.52614722117610491e-01
14 87 -8.13984887474509367e-01
15 87 -8.73490700607958859e-01
16 87 -9.30870733807803274e-01
17 87 -9.85877151692112430e-01
18 87 -1.03827921541842771e+00
19 87 -1.08786648582599499e+00
20 87 -1.13445163289232442e+00
21 87 -1.17787277305252758e+00
22 87 -1.21799527383064787e+00
23 87 -1.25471298578550039e+00
24 87 -1.28794888372178140e+00
25 87 -1.31765512113928729e+00
26 87 -1.34381252271856644e+00
27 87 -1.36642955815347600e+00
28 87 -1.38554085595892063e+00
29 87 -1.40120532741230686e+00
30 87 -1.41350397824495300e+00
31 87 -1.42253748909763611e+00
32 87 -1.42842364536597111e+00
33 87 -1.43129469336578974e+00
34 87 -1.43129469336578996e+00
35 87 -1.43129469336578974e+00
36 87 -1.42842364536597088e+00
37 87 -1.42253748909763633e+00
38 87 -1.41350397824495322e+00
39 87 -1.40120532741230686e+00
40 87 -1.38554085595892063e+00
41 87 -1.36642955815347600e+00
42 87 -1.34381252271856622e+00
43 87 -1.31765512113928662e+00
44 87 -1.28794888372178140e+00
45 87 -1.25471298578550083e+00
46 87 -1.21799527383064787e+00
47 87 -1.17787277305252758e+00
48 87 -1.13445163289232420e+00
49 87 -1.08786648582599610e+00
50 87 -1.03827921541842771e+00
51 87 -9.85877151692112763e-01
52 87 -9.30870733807803274e-01
53 87 -8.73490700607958970e-01
54 87 -8.13984887474509367e-01
55 87 -7.52614722117611268e-01
56 87 -6.89651521528578337e-01
57 87 -6.25372696922811500e-01
58 87 -5.60057972962604400e-01
59 87 -4.93985722145541872e-01
60 87 -4.27429505556163269e-01
61 87 -3.60654898045053407e-01
62 87 -2.93916660324142542e-01
63 87 -2.27456303522527575e-01
64 87 -1.61500074483576894e-01
65 87 -9.62573734498918393e-02
66 87 -3.19196005658830204e-02
67 87 -1.75283046486700677e-16
68 87 3.19196005658827289e-02
69 87 9.62573734498915756e-02
70 87 1.61500074483576672e-01
71 87 2.27456303522527381e-01
72 87 2.93916660324142487e-01
73 87 3.60654898045053185e-01
74 87 4.27429505556163214e-01
75 87 4.93985722145541650e-01
76 87 5.60057972962604289e-01
77 87 6.25372696922811278e-01
78 87 6.89651521528578337e-01
79 87 7.52614722117610491e-01
80 87 8.13984887474509367e-01
81 87 8.73490700607958859e-01
82 87 9.30870733807803274e-01
83 87 9.85877151692112430e-01
84 87 1.03827921541842771e+00
85 87 1.08786648582599499e+00
86 87 1.13445163289232442e+00
87 87 1.17787277305252758e+00
88 87 1.21799527383064787e+00
89 87 1.25471298578550039e+00
90 87 1.28794888372178140e+00
91 87 1.31765512113928729e+00
92 87 1.34381252271856644e+00
93 87 1.36642955815347600e+00
94 87 1.38554085595892063e+00
95 87 1.40120532741230686e+00
96 87 1.41350397824495300e+00
97 87 1.42253748909763611e+00
98 87 1.42842364536597111e+00
99 87 1.43129469336578974e+00
100 87 1.43129469336578996e+00
101 87 1.43129469336578974e+00
102 87 1.42842364536597088e+00
103 87 1.42253748909763633e+00
104 87 1.41350397824495322e+00
105 87 1.40120532741230686e+00
106 87 1.38554085595892063e+00
107 87 1.36642955815347600e+00
108 87 1.34381252271856622e+00
109 87 1.31765512113928662e+00
110 87 1.28794888372178162e+00
111 87 1.25471298578550083e+00
112 87 1.21799527383064832e+00
113 87 1.17787277305252758e+00
114 87 1.13445163289232420e+00
115 87 1.08786648582599610e+00
116 87 1.03827921541842771e+00
117 87 9.85877151692112874e-01
118 87 9.30870733807803385e-01
119 87 8.73490700607959525e-01
120 87 8.13984887474509367e-01
121 87 7.52614722117611268e-01
122 87 6.89651521528578337e-01
123 87 6.25372696922811611e-01
124 87 5.60057972962604511e-01
125 87 4.93985722145541928e-01
126 87 4.27429505556163436e-01
127 87 3.60654898045053462e-01
128 87 2.93916660324142653e-01
129 87 2.27456303522527659e-01
130 87 1.61500074483577061e-01
131 87 9.62573734498920197e-02
132 87 3.19196005658832077e-02
133 87 3.50566092973401354e-16
1 88 0.00000000000000000e+00
2 88 -3.28758179155786145e-02
3 88 -9.91409612422560760e-02
4 88 -1.66338141704361953e-01
5 88 -2.34270225372112700e-01
6 88 -3.02721538987535788e-01
7 88 -3.71459058017281629e-01
8 88 -4.40234036369168802e-01
9 88 -5.08784081449649817e-01
10 88 -5.76835662566736795e-01
11 88 -6.44107023550406166e-01
12 88 -7.10311452681806954e-01
13 88 -7.75160845570499579e-01
14 88 -8.38369480577005777e-01
15 88 -8.99657912850958419e-01
16 88 -9.58756883076927635e-01
17 88 -1.01541113145388429e+00
18 88 -1.06938300688230847e+00
19 88 -1.12045576606314223e+00
20 88 -1.16843646711740479e+00
21 88 -1.21315837692474249e+00
22 88 -1.25448282981620562e+00
23 88 -1.29230049642556244e+00
24 88 -1.32653204410920766e+00
25 88 -1.35712819302651955e+00
26 88 -1.38406919342187562e+00
27 88 -1.40736376871624880e+00
28 88 -1.42704758479299953e+00
29 88 -1.44318131773813363e+00
30 88 -1.45584839997642224e+00
31 88 -1.46515252824451347e+00
32 88 -1.47121501644203989e+00
33 88 -1.47417207259548699e+00
34 88 -1.47417207259548722e+00
35 88 -1.47417207259548699e+00
36 88 -1.47121501644203945e+00
37 88 -1.46515252824451347e+00
38 88 -1.45584839997642224e+00
39 88 -1.44318131773813363e+00
40 88 -1.42704758479299953e+00
41 88 -1.40736376871624880e+00
42 88 -1.38406919342187540e+00
43 88 -1.35712819302651910e+00
44 88 -1.32653204410920766e+00
45 88 -1.29230049642556288e+00
46 88 -1.25448282981620562e+00
47 88 -1.21315837692474249e+00
48 88 -1.16843646711740434e+00
49 88 -1.12045576606314334e+00
50 88 -1.06938300688230847e+00
51 88 -1.01541113145388451e+00
52 88 -9.58756883076927635e-01
53 88 -8.99657912850958530e-01
54 88 -8.38369480577005777e-01
55 88 -7.75160845570500356e-01
56 88 -7.10311452681806954e-01
57 88 -6.44107023550406388e-01
58 88 -5.76835662566736906e-01
59 88 -5.08784081449650039e-01
60 88 -4.40234036369168913e-01
61 88 -3.71459058017281796e-01
62 88 -3.02721538987535788e-01
63 88 -2.34270225372112839e-01
64 88 -1.66338141704361980e-01
65 88 -9.91409612422562841e-02
66 88 -3.28758179155787741e-02
67 88 -1.80534011009648271e-16
68 88 3.28758179155784688e-02
69 88 9.91409612422560343e-02
70 88 1.66338141704361758e-01
71 88 2.34270225372112617e-01
72 88 3.02721538987535732e-01
73 88 3.71459058017281629e-01
74 88 4.40234036369168802e-01
75 88 5.08784081449649817e-01
76 88 5.76835662566736795e-01
77 88 6.44107023550406166e-01
78 88 7.10311452681806954e-01
79 88 7.75160845570499579e-01
80 88 8.38369480577005777e-01
81 88 8.99657912850958419e-01
82 88 9.58756883076927635e-01
83 88 1.01541113145388429e+00
84 88 1.06938300688230847e+00
85 88 1.12045576606314223e+00
86 88 1.16843646711740479e+00
87 88 1.21315837692474249e+00
88 88 1.25448282981620562e+00
89 88 1.29230049642556244e+00
90 88 1.32653204410920766e+00
91 88 1.35712819302651955e+00
92 88 1.38406919342187562e+00
93 88 1.40736376871624880e+00
94 88 1.42704758479299953e+00
95 88 1.44318131773813363e+00
96 88 1.45584839997642224e+00
97 88 1.46515252824451347e+00
98 88 1.47121501644203989e+00
99 88 1.47417207259548699e+00
100 88 1.47417207259548722e+00
101 88 1.47417207259548699e+00
102 88 1.47121501644203945e+00
103 88 1.46515252824451347e+00
104 88 1.45584839997642224e+00
105 88 1.44318131773813363e+00
106 88 1.42704758479299953e+00
107 88 1.40736376871624880e+00
108 88 1.38406919342187540e+00
109 88 1.35712819302651910e+00
110 88 1.32653204410920789e+00
111 88 1.29230049642556288e+00
112 88 1.25448282981620607e+00
113 88 1.21315837692474249e+00
114 88 1.16843646711740434e+00
115 88 1.12045576606314334e+00
116 88 1.06938300688230847e+00
117 88 1.01541113145388473e+00
118 88 9.58756883076927635e-01
119 88 8.99657912850958974e-01
120 88 8.38369480577005777e-01
121 88 7.75160845570500356e-01
122 88 7.10311452681806954e-01
123 88 6.44107023550406610e-01
124 88 5.76835662566736906e-01
125 88 5.08784081449650150e-01
126 88 4.40234036369169079e-01
127 88 3.71459058017281851e-01
128 88 3.02721538987535843e-01
129 88 2.34270225372112895e-01
130 88 1.66338141704362147e-01
131 88 9.91409612422564784e-02
132 88 3.28758179155789684e-02
133 88 3.61068022019296543e-16
1 89 0.00000000000000000e+00
2 89 -3.38568565757398701e-02
3 89 -1.02099400665237358e-01
4 89 -1.71301794565878546e-01
5 89 -2.41261021725983044e-01
6 89 -3.11754973038451233e-01
7 89 -3.82543670345948716e-01
8 89 -4.53370944789395047e-01
9 89 -5.23966573786675993e-01
10 89 -5.94048864288162060e-01
11 89 -6.63327652311855642e-01
12 89 -7.31507670449698444e-01
13 89 -7.98292217063696574e-01
14 89 -8.63387044369863244e-01
15 89 -9.26504368677340984e-01
16 89 -9.87366895774085873e-01
17 89 -1.04571174871829320e+00
18 89 -1.10129418472630980e+00
19 89 -1.15389099271913564e+00
20 89 -1.20330347328978138e+00
21 89 -1.24935991787857792e+00
22 89 -1.29191752293071538e+00
23 89 -1.33086369661101855e+00
24 89 -1.36611673893127006e+00
25 89 -1.39762589950404892e+00
26 89 -1.42537083922645480e+00
27 89 -1.44936054183277796e+00
28 89 -1.46963173750265064e+00
29 89 -1.48624691294124722e+00
30 89 -1.49929199025844495e+00
31 89 -1.50887376057801403e+00
32 89 -1.51511715789584933e+00
33 89 -1.51816245478643208e+00
34 89 -1.51816245478643230e+00
35 89 -1.51816245478643208e+00
36 89 -1.51511715789584889e+00
37 89 -1.50887376057801426e+00
38 89 -1.49929199025844495e+00
39 89 -1.48624691294124722e+00
40 89 -1.46963173750265064e+00
41 89 -1.44936054183277796e+00
42 89 -1.42537083922645458e+00
43 89 -1.39762589950404847e+00
44 89 -1.36611673893127006e+00
45 89 -1.33086369661101878e+00
46 89 -1.29191752293071538e+00
47 89 -1.24935991787857792e+00
48 89 -1.20330347328978093e+00
49 89 -1.15389099271913653e+00
50 89 -1.10129418472630980e+00
51 89 -1.04571174871829342e+00
52 89 -9.87366895774085984e-01
53 89 -9.26504368677341095e-01
54 89 -8.63387044369863355e-01
55 89 -7.98292217063697351e-01
56 89 -7.31507670449698444e-01
57 89 -6.63327652311855864e-01
58 89 -5.94048864288162171e-01
59 89 -5.23966573786676215e-01
60 89 -4.53370944789395214e-01
61 89 -3.82543670345948883e-01
62 89 -3.11754973038451288e-01
63 89 -2.41261021725983182e-01
64 89 -1.71301794565878573e-01
65 89 -1.02099400665237552e-01
66 89 -3.38568565757400367e-02
67 89 -1.85921279083989225e-16
68 89 3.38568565757397244e-02
69 89 1.02099400665237316e-01
70 89 1.71301794565878351e-01
71 89 2.41261021725982960e-01
72 89 3.11754973038451233e-01
73 89 3.82543670345948661e-01
74 89 4.53370944789395047e-01
75 89 5.23966573786675993e-01
76 89 5.94048864288162060e-01
77 89 6.63327652311855642e-01
78 89 7.31507670449698444e-01
79 89 7.98292217063696574e-01
80 89 8.63387044369863244e-01
81 89 9.26504368677340984e-01
82 89 9.87366895774085873e-01
83 89 1.04571174871829320e+00
84 89 1.10129418472630980e+00
85 89 1.15389099271913564e+00
86 89 1.20330347328978138e+00
87 89 1.24935991787857792e+00
88 89 1.29191752293071538e+00
89 89 1.33086369661101855e+00
90 89 1.36611673893127006e+00
91 89 1.39762589950404892e+00
92 89 1.42537083922645480e+00
93 89 1.44936054183277796e+00
94 89 1.46963173750265064e+00
95 89 1.48624691294124722e+00
96 89 1.49929199025844495e+00
97 89 1.50887376057801403e+00
98 89 1.51511715789584933e+00
99 89 1.51816245478643208e+00
100 89 1.51816245478643230e+00
101 89 1.51816245478643208e+00
102 89 1.51511715789584889e+00
103 89 1.50887376057801426e+00
104 89 1.49929199025844495e+00
105 89 1.48624691294124722e+00
106 89 1.46963173750265064e+00
107 89 1.44936054183277796e+00
108 89 1.42537083922645458e+00
109 89 1.39762589950404847e+00
110 89 1.36611673893127006e+00
111 89 1.33086369661101878e+00
112 89 1.29191752293071582e+00
113 89 1.24935991787857792e+00
114 89 1.20330347328978093e+00
115 89 1.15389099271913653e+00
116 89 1.10129418472630980e+00
117 89 1.04571174871829364e+00
118 89 9.87366895774085984e-01
119 89 9.26504368677341428e-01
120 89 8.63387044369863355e-01
121 89 7.98292217063697351e-01
122 89 7.31507670449698444e-01
123 89 6.63327652311856086e-01
124 89 5.94048864288162171e-01
125 89 5.23966573786676437e-01
126 89 4.53370944789395380e-01
127 89 3.82543670345948938e-01
128 89 3.11754973038451344e-01
129 89 2.41261021725983266e-01
130 89 1.71301794565878740e-01
131 89 1.02099400665237761e-01
132 89 3.38568565757402309e-02
133 89 3.71842558167978450e-16
1 90 0.00000000000000000e+00
2 90 -3.48583941624261151e-02
3 90 -1.05119657053057092e-01
4 90 -1.76369163579913613e-01
5 90 -2.48397891651292085e-01
6 90 -3.20977161833086666e-01
7 90 -3.93859897047127927e-01
8 90 -4.66782350567786108e-01
9 90 -5.39466306215781510e-01
10 90 -6.11621738030350914e-01
11 90 -6.82949898535231137e-01
12 90 -7.53146785860951407e-01
13 90 -8.21906921481391772e-01
14 90 -8.88927353313191948e-01
15 90 -9.53911784583880928e-01
16 90 -1.01657471829462231e+00
17 90 -1.07664550120171865e+00
18 90 -1.13387215065574987e+00
19 90 -1.18802485265269553e+00
20 90 -1.23889902995328405e+00
21 90 -1.28631789459609891e+00
22 90 -1.33013441867882376e+00
23 90 -1.37023267972763896e+00
24 90 -1.40652856094375167e+00
25 90 -1.43896981066568030e+00
26 90 -1.46753548812876122e+00
27 90 -1.49223484281988195e+00
28 90 -1.51310569145355012e+00
29 90 -1.53021236918722603e+00
30 90 -1.54364333983817659e+00
31 90 -1.55350855357490314e+00
32 90 -1.55993664013193145e+00
33 90 -1.56307202156097969e+00
34 90 -1.56307202156097991e+00
35 90 -1.56307202156097969e+00
36 90 -1.55993664013193079e+00
37 90 -1.55350855357490336e+00
38 90 -1.54364333983817614e+00
39 90 -1.53021236918722603e+00
40 90 -1.51310569145355012e+00
41 90 -1.49223484281988195e+00
42 90 -1.46753548812876100e+00
43 90 -1.43896981066567986e+00
44 90 -1.40652856094375167e+00
45 90 -1.37023267972763940e+00
46 90 -1.33013441867882376e+00
47 90 -1.28631789459609891e+00
48 90 -1.23889902995328360e+00
49 90 -1.18802485265269619e+00
50 90 -1.13387215065574987e+00
51 90 -1.07664550120171909e+00
52 90 -1.01657471829462276e+00
53 90 -9.53911784583880928e-01
54 90 -8.88927353313192170e-01
55 90 -8.21906921481392549e-01
56 90 -7.53146785860951407e-01
57 90 -6.82949898535231137e-01
58 90 -6.11621738030351025e-01
59 90 -5.39466306215781732e-01
60 90 -4.66782350567786330e-01
61 90 -3.93859897047128038e-01
62 90 -3.20977161833086722e-01
63 90 -2.48397891651292224e-01
64 90 -1.76369163579913668e-01
65 90 -1.05119657053057300e-01
66 90 -3.48583941624262955e-02
67 90 -1.91421114804143645e-16
68 90 3.48583941624259694e-02
69 90 1.05119657053057050e-01
70 90 1.76369163579913418e-01
71 90 2.48397891651292002e-01
72 90 3.20977161833086666e-01
73 90 3.93859897047127872e-01
74 90 4.66782350567786108e-01
75 90 5.39466306215781510e-01
76 90 6.11621738030350914e-01
77 90 6.82949898535231137e-01
78 90 7.53146785860951407e-01
79 90 8.21906921481391772e-01
80 90 8.88927353313191948e-01
81 90 9.53911784583880928e-01
82 90 1.01657471829462231e+00
83 90 1.07664550120171865e+00
84 90 1.13387215065574987e+00
85 90 1.18802485265269553e+00
86 90 1.23889902995328405e+00
87 90 1.28631789459609891e+00
88 90 1.33013441867882376e+00
89 90 1.37023267972763896e+00
90 90 1.40652856094375167e+00
91 90 1.43896981066568030e+00
92 90 1.46753548812876122e+00
93 90 1.49223484281988195e+00
94 90 1.51310569145355012e+00
95 90 1.53021236918722603e+00
96 90 1.54364333983817659e+00
97 90 1.55350855357490314e+00
98 90 1.55993664013193145e+00
99 90 1.56307202156097969e+00
100 90 1.56307202156097991e+00
101 90 1.56307202156097969e+00
102 90 1.55993664013193079e+00
103 90 1.55350855357490336e+00
104 90 1.54364333983817614e+00
105 90 1.53021236918722603e+00
106 90 1.51310569145355012e+00
107 90 1.49223484281988195e+00
108 90 1.46753548812876100e+00
109 90 1.43896981066567986e+00
110 90 1.40652856094375167e+00
111 90 1.37023267972763940e+00
112 90 1.33013441867882420e+00
113 90 1.28631789459609891e+00
114 90 1.23889902995328360e+00
115 90 1.18802485265269619e+00
116 90 1.13387215065574987e+00
117 90 1.07664550120171931e+00
118 90 1.01657471829462276e+00
119 90 9.53911784583881150e-01
120 90 8.88927353313192170e-01
121 90 8.21906921481392549e-01
122 90 7.53146785860951407e-01
123 90 6.82949898535231470e-01
124 90 6.11621738030351025e-01
125 90 5.39466306215781954e-01
126 90 4.66782350567786442e-01
127 90 3.93859897047128149e-01
128 90 3.20977161833086777e-01
129 90 2.48397891651292335e-01
130 90 1.76369163579913835e-01
131 90 1.05119657053057480e-01
132 90 3.48583941624264898e-02
133 90 3.82842229608287289e-16
1 91 0.00000000000000000e+00
2 91 -3.58760722455489373e-02
3 91 -1.08188587038466316e-01
4 91 -1.81518196879544208e-01
5 91 -2.55649777353471608e-01
6 91 -3.30347972813604951e-01
7 91 -4.05358492856739805e-01
8 91 -4.80409890767943382e-01
9 91 -5.55215827948219665e-01
10 91 -6.29477811234833040e-01
11 91 -7.02888371328089345e-01
12 91 -7.75134631134995922e-01
13 91 -8.45902193795460500e-01
14 91 -9.14879262650723279e-01
15 91 -9.81760890652283669e-01
16 91 -1.04625324582072188e+00
17 91 -1.10807777328976576e+00
18 91 -1.16697513386859963e+00
19 91 -1.22270880421731132e+00
20 91 -1.27506823453886398e+00
21 91 -1.32387147561189256e+00
22 91 -1.36896720710818443e+00
23 91 -1.41023612223964512e+00
24 91 -1.44759164844827115e+00
25 91 -1.48098000860441203e+00
26 91 -1.51037965058543033e+00
27 91 -1.53580009391360361e+00
28 91 -1.55728025934860459e+00
29 91 -1.57488636028931350e+00
30 91 -1.58870944322182384e+00
31 91 -1.59886266826963963e+00
32 91 -1.60547842046539535e+00
33 91 -1.60870533820984885e+00
34 91 -1.60870533820984907e+00
35 91 -1.60870533820984885e+00
36 91 -1.60547842046539491e+00
37 91 -1.59886266826963985e+00
38 91 -1.58870944322182339e+00
39 91 -1.57488636028931350e+00
40 91 -1.55728025934860481e+00
41 91 -1.53580009391360361e+00
42 91 -1.51037965058543011e+00
43 91 -1.48098000860441181e+00
44 91 -1.44759164844827115e+00
45 91 -1.41023612223964578e+00
46 91 -1.36896720710818443e+00
47 91 -1.32387147561189256e+00
48 91 -1.27506823453886375e+00
49 91 -1.22270880421731176e+00
50 91 -1.16697513386859963e+00
51 91 -1.10807777328976620e+00
52 91 -1.04625324582072232e+00
53 91 -9.81760890652283669e-01
54 91 -9.14879262650723279e-01
55 91 -8.45902193795461388e-01
56 91 -7.75134631134995922e-01
57 91 -7.02888371328089345e-01
58 91 -6.29477811234833151e-01
59 91 -5.55215827948219887e-01
60 91 -4.80409890767943604e-01
61 91 -4.05358492856739916e-01
62 91 -3.30347972813605006e-01
63 91 -2.55649777353471774e-01
64 91 -1.81518196879544264e-01
65 91 -1.08188587038466524e-01
66 91 -3.58760722455491177e-02
67 91 -1.97009584320995170e-16
68 91 3.58760722455487777e-02
69 91 1.08188587038466261e-01
70 91 1.81518196879544041e-01
71 91 2.55649777353471497e-01
72 91 3.30347972813604951e-01
73 91 4.05358492856739694e-01
74 91 4.80409890767943382e-01
75 91 5.55215827948219665e-01
76 91 6.29477811234833040e-01
77 91 7.02888371328089345e-01
78 91 7.75134631134995922e-01
79 91 8.45902193795460500e-01
80 91 9.14879262650723279e-01
81 91 9.81760890652283669e-01
82 91 1.04625324582072188e+00
83 91 1.10807777328976576e+00
84 91 1.16697513386859963e+00
85 91 1.22270880421731132e+00
86 91 1.27506823453886398e+00
87 91 1.32387147561189256e+00
88 91 1.36896720710818443e+00
89 91 1.41023612223964512e+00
90 91 1.44759164844827115e+00
91 91 1.48098000860441203e+00
92 91 1.51037965058543033e+00
93 91 1.53580009391360361e+00
94 91 1.55728025934860459e+00
95 91 1.57488636028931350e+00
96 91 1.58870944322182384e+00
97 91 1.59886266826963963e+00
98 91 1.60547842046539535e+00
99 91 1.60870533820984885e+00
100 91 1.60870533820984907e+00
101 91 1.60870533820984885e+00
102 91 1.60547842046539491e+00
103 91 1.59886266826963985e+00
104 91 1.58870944322182339e+00
105 91 1.57488636028931350e+00
106 91 1.55728025934860481e+00
107 91 1.53580009391360361e+00
108 91 1.51037965058543011e+00
109 91 1.48098000860441181e+00
110 91 1.44759164844827115e+00
111 91 1.41023612223964578e+00
112 91 1.36896720710818487e+00
113 91 1.32387147561189256e+00
114 91 1.27506823453886375e+00
115 91 1.22270880421731176e+00
116 91 1.16697513386859963e+00
117 91 1.10807777328976642e+00
118 91 1.04625324582072232e+00
119 91 9.81760890652283669e-01
120 91 9.14879262650723279e-01
121 91 8.45902193795461388e-01
122 91 7.75134631134995922e-01
123 91 7.02888371328089678e-01
124 91 6.29477811234833151e-01
125 91 5.55215827948220109e-01
126 91 4.80409890767943659e-01
127 91 4.05358492856739971e-01
128 91 3.30347972813605117e-01
129 91 2.55649777353471885e-01
130 91 1.81518196879544458e-01
131 91 1.08188587038466705e-01
132 91 3.58760722455493189e-02
133 91 3.94019168641990341e-16
1 92 0.00000000000000000e+00
2 92 -3.69055534632921831e-02
3 92 -1.11293110788111174e-01
4 92 -1.86726949194655739e-01
5 92 -2.62985771168633309e-01
6 92 -3.39827467419466067e-01
7 92 -4.16990450558031911e-01
8 92 -4.94195484574830757e-01
9 92 -5.71148014246494640e-01
10 92 -6.47540981004840144e-01
11 92 -7.23058092570140531e-01
12 92 -7.97377493690130335e-01
13 92 -8.70175765734994111e-01
14 92 -9.41132164890281175e-01
15 92 -1.00993299350467436e+00
16 92 -1.07627598794821266e+00
17 92 -1.13987460008822072e+00
18 92 -1.20046204887056684e+00
19 92 -1.25779502380388264e+00
20 92 -1.31165693326302968e+00
21 92 -1.36186060690587274e+00
22 92 -1.40825038219430754e+00
23 92 -1.45070352877434194e+00
24 92 -1.48913098984661429e+00
25 92 -1.52347744512076955e+00
26 92 -1.55372072402560368e+00
27 92 -1.57987061925068306e+00
28 92 -1.60196716840567466e+00
29 92 -1.62007848491491346e+00
30 92 -1.63429822788737811e+00
31 92 -1.64474280463096223e+00
32 92 -1.65154839903074047e+00
33 92 -1.65486791473815908e+00
34 92 -1.65486791473815908e+00
35 92 -1.65486791473815908e+00
36 92 -1.65154839903074024e+00
37 92 -1.64474280463096245e+00
38 92 -1.63429822788737766e+00
39 92 -1.62007848491491346e+00
40 92 -1.60196716840567510e+00
41 92 -1.57987061925068328e+00
42 92 -1.55372072402560346e+00
43 92 -1.52347744512076932e+00
44 92 -1.48913098984661429e+00
45 92 -1.45070352877434261e+00
46 92 -1.40825038219430754e+00
47 92 -1.36186060690587274e+00
48 92 -1.31165693326302968e+00
49 92 -1.25779502380388308e+00
50 92 -1.20046204887056684e+00
51 92 -1.13987460008822117e+00
52 92 -1.07627598794821311e+00
53 92 -1.00993299350467436e+00
54 92 -9.41132164890281175e-01
55 92 -8.70175765734994999e-01
56 92 -7.97377493690130335e-01
57 92 -7.23058092570140531e-01
58 92 -6.47540981004840255e-01
59 92 -5.71148014246494973e-01
60 92 -4.94195484574830979e-01
61 92 -4.16990450558032077e-01
62 92 -3.39827467419466123e-01
63 92 -2.62985771168633475e-01
64 92 -1.86726949194655795e-01
65 92 -1.11293110788111382e-01
66 92 -3.69055534632923704e-02
67 92 -2.02662869479574138e-16
68 92 3.69055534632920235e-02
69 92 1.11293110788111119e-01
70 92 1.86726949194655573e-01
71 92 2.62985771168633198e-01
72 92 3.39827467419466067e-01
73 92 4.16990450558031800e-01
74 92 4.94195484574830757e-01
75 92 5.71148014246494640e-01
76 92 6.47540981004840144e-01
77 92 7.23058092570140531e-01
78 92 7.97377493690130335e-01
79 92 8.70175765734994111e-01
80 92 9.41132164890281175e-01
81 92 1.00993299350467436e+00
82 92 1.07627598794821266e+00
83 92 1.13987460008822072e+00
84 92 1.20046204887056684e+00
85 92 1.25779502380388264e+00
86 92 1.31165693326302968e+00
87 92 1.36186060690587274e+00
88 92 1.40825038219430754e+00
89 92 1.45070352877434194e+00
90 92 1.48913098984661429e+00
91 92 1.52347744512076955e+00
92 92 1.55372072402560368e+00
93 92 1.57987061925068306e+00
94 92 1.60196716840567466e+00
95 92 1.62007848491491346e+00
96 92 1.63429822788737811e+00
97 92 1.64474280463096223e+00
98 92 1.65154839903074047e+00
99 92 1.65486791473815908e+00
100 92 1.65486791473815908e+00
101 92 1.65486791473815908e+00
102 92 1.65154839903074024e+00
103 92 1.64474280463096245e+00
104 92 1.63429822788737766e+00
105 92 1.62007848491491346e+00
106 92 1.60196716840567510e+00
107 92 1.57987061925068328e+00
108 92 1.55372072402560346e+00
109 92 1.52347744512076932e+00
110 92 1.48913098984661452e+00
111 92 1.45070352877434261e+00
112 92 1.40825038219430798e+00
113 92 1.36186060690587274e+00
114 92 1.31165693326302968e+00
115 92 1.25779502380388308e+00
116 92 1.20046204887056684e+00
117 92 1.13987460008822139e+00
118 92 1.07627598794821311e+00
119 92 1.00993299350467436e+00
120 92 9.41132164890281175e-01
121 92 8.70175765734994999e-01
122 92 7.97377493690130335e-01
123 92 7.23058092570140865e-01
124 92 6.47540981004840255e-01
125 92 5.71148014246495084e-01
126 92 4.94195484574830979e-01
127 92 4.16990450558032077e-01
128 92 3.39827467419466234e-01
129 92 2.62985771168633586e-01
130 92 1.86726949194656017e-01
131 92 1.11293110788111591e-01
132 92 3.69055534632925786e-02
133 92 4.05325738959148275e-16
1 93 0.00000000000000000e+00
2 93 -3.79425754211565672e-02
3 93 -1.14420374541548714e-01
4 93 -1.91973854558979501e-01
5 93 -2.70375499643482786e-01
6 93 -3.49376397391480964e-01
7 93 -4.28707609978999649e-01
8 93 -5.08082055046976011e-01
9 93 -5.87196900562571011e-01
10 93 -6.65736459812304227e-01
11 93 -7.43375552909885440e-01
12 93 -8.19783280680589810e-01
13 93 -8.94627136642253462e-01
14 93 -9.67577364288642938e-01
15 93 -1.03831145126924285e+00
16 93 -1.10651864054342775e+00
17 93 -1.17190433216307266e+00
18 93 -1.23419424870059724e+00
19 93 -1.29313824279867573e+00
20 93 -1.34851363674890901e+00
21 93 -1.40012800084474476e+00
22 93 -1.44782129853238573e+00
23 93 -1.49146735081501935e+00
24 93 -1.53097459845536354e+00
25 93 -1.56628616669902154e+00
26 93 -1.59737926199621305e+00
27 93 -1.62426395220468800e+00
28 93 -1.64698139996480553e+00
29 93 -1.66560163264365535e+00
30 93 -1.68022094111003151e+00
31 93 -1.69095900364118079e+00
32 93 -1.69795583080043788e+00
33 93 -1.70136862273202949e+00
34 93 -1.70136862273202949e+00
35 93 -1.70136862273202927e+00
36 93 -1.69795583080043744e+00
37 93 -1.69095900364118057e+00
38 93 -1.68022094111003106e+00
39 93 -1.66560163264365535e+00
40 93 -1.64698139996480597e+00
41 93 -1.62426395220468822e+00
42 93 -1.59737926199621283e+00
43 93 -1.56628616669902132e+00
44 93 -1.53097459845536354e+00
45 93 -1.49146735081501980e+00
46 93 -1.44782129853238573e+00
47 93 -1.40012800084474476e+00
48 93 -1.34851363674890878e+00
49 93 -1.29313824279867617e+00
50 93 -1.23419424870059724e+00
51 93 -1.17190433216307310e+00
52 93 -1.10651864054342819e+00
53 93 -1.03831145126924285e+00
54 93 -9.67577364288642938e-01
55 93 -8.94627136642254239e-01
56 93 -8.19783280680589810e-01
57 93 -7.43375552909885440e-01
58 93 -6.65736459812304338e-01
59 93 -5.87196900562571344e-01
60 93 -5.08082055046976233e-01
61 93 -4.28707609978999760e-01
62 93 -3.49376397391481019e-01
63 93 -2.70375499643483008e-01
64 93 -1.91973854558979584e-01
65 93 -1.14420374541548936e-01
66 93 -3.79425754211567615e-02
67 93 -2.08357563799852033e-16
68 93 3.79425754211564006e-02
69 93 1.14420374541548658e-01
70 93 1.91973854558979362e-01
71 93 2.70375499643482731e-01
72 93 3.49376397391480964e-01
73 93 4.28707609978999538e-01
74 93 5.08082055046976011e-01
75 93 5.87196900562571011e-01
76 93 6.65736459812304227e-01
77 93 7.43375552909885440e-01
78 93 8.19783280680589810e-01
79 93 8.94627136642253462e-01
80 93 9.67577364288642938e-01
81 93 1.03831145126924285e+00
82 93 1.10651864054342775e+00
83 93 1.17190433216307266e+00
84 93 1.23419424870059724e+00
85 93 1.29313824279867573e+00
86 93 1.34851363674890901e+00
87 93 1.40012800084474476e+00
88 93 1.44782129853238573e+00
89 93 1.49146735081501935e+00
90 93 1.53097459845536354e+00
91 93 1.56628616669902154e+00
92 93 1.59737926199621305e+00
93 93 1.62426395220468800e+00
94 93 1.64698139996480553e+00
95 93 1.66560163264365535e+00
96 93 1.68022094111003151e+00
97 93 1.69095900364118079e+00
98 93 1.69795583080043788e+00
99 93 1.70136862273202949e+00
100 93 1.70136862273202949e+00
101 93 1.70136862273202927e+00
102 93 1.69795583080043744e+00
103 93 1.69095900364118057e+00
104 93 1.68022094111003106e+00
105 93 1.66560163264365535e+00
106 93 1.64698139996480597e+00
107 93 1.62426395220468822e+00
108 93 1.59737926199621283e+00
109 93 1.56628616669902132e+00
110 93 1.53097459845536377e+00
111 93 1.49146735081501980e+00
112 93 1.44782129853238661e+00
113 93 1.40012800084474476e+00
114 93 1.34851363674890878e+00
115 93 1.29313824279867617e+00
116 93 1.23419424870059724e+00
117 93 1.17190433216307333e+00
118 93 1.10651864054342819e+00
119 93 1.03831145126924285e+00
120 93 9.67577364288642938e-01
121 93 8.94627136642254239e-01
122 93 8.19783280680589810e-01
123 93 7.43375552909885773e-01
124 93 6.65736459812304449e-01
125 93 5.87196900562571455e-01
126 93 5.08082055046976233e-01
127 93 4.28707609978999815e-01
128 93 3.49376397391481130e-01
129 93 2.70375499643483119e-01
130 93 1.91973854558979806e-01
131 93 1.14420374541549130e-01
132 93 3.79425754211569766e-02
133 93 4.16715127599704065e-16
1 94 0.00000000000000000e+00
2 94 -3.89830001592996259e-02
3 94 -1.17557899785927414e-01
4 94 -1.97237976594524522e-01
5 94 -2.77789476035291305e-01
6 94 -3.58956660268594741e-01
7 94 -4.40463216916625488e-01
8 94 -5.22014191524529880e-01
9 94 -6.03298448091302397e-01
10 94 -6.83991643446630881e-01
11 94 -7.63759680934757546e-01
12 94 -8.42262587782673711e-01
13 94 -9.19158739835896688e-01
14 94 -9.94109338323063252e-01
15 94 -1.06678302727078589e+00
16 94 -1.13686052835834617e+00
17 94 -1.20403916340174555e+00
18 94 -1.26803713400210438e+00
19 94 -1.32859743350233028e+00
20 94 -1.38549127814049755e+00
21 94 -1.43852096158808385e+00
22 94 -1.48752205892314082e+00
23 94 -1.53236493119000339e+00
24 94 -1.57295550850221888e+00
25 94 -1.60923535654068606e+00
26 94 -1.64118105673286818e+00
27 94 -1.66880295300760850e+00
28 94 -1.69214333672752182e+00
29 94 -1.71127415548267314e+00
30 94 -1.72629434053726527e+00
31 94 -1.73732685187093061e+00
32 94 -1.74451553928174397e+00
33 94 -1.74802191350479474e+00
34 94 -1.74802191350479452e+00
35 94 -1.74802191350479452e+00
36 94 -1.74451553928174352e+00
37 94 -1.73732685187093039e+00
38 94 -1.72629434053726483e+00
39 94 -1.71127415548267314e+00
40 94 -1.69214333672752248e+00
41 94 -1.66880295300760872e+00
42 94 -1.64118105673286818e+00
43 94 -1.60923535654068584e+00
44 94 -1.57295550850221888e+00
45 94 -1.53236493119000383e+00
46 94 -1.48752205892314104e+00
47 94 -1.43852096158808385e+00
48 94 -1.38549127814049733e+00
49 94 -1.32859743350233073e+00
50 94 -1.26803713400210438e+00
51 94 -1.20403916340174577e+00
52 94 -1.13686052835834639e+00
53 94 -1.06678302727078589e+00
54 94 -9.94109338323063252e-01
55 94 -9.19158739835897243e-01
56 94 -8.42262587782673822e-01
57 94 -7.63759680934757546e-01
58 94 -6.83991643446630992e-01
59 94 -6.03298448091302730e-01
60 94 -5.22014191524530102e-01
61 94 -4.40463216916625488e-01
62 94 -3.58956660268594796e-01
63 94 -2.77789476035291583e-01
64 94 -1.97237976594524633e-01
65 94 -1.17557899785927636e-01
66 94 -3.89830001592998271e-02
67 94 -2.14070944121307779e-16
68 94 3.89830001592994524e-02
69 94 1.17557899785927344e-01
70 94 1.97237976594524411e-01
71 94 2.77789476035291250e-01
72 94 3.58956660268594685e-01
73 94 4.40463216916625322e-01
74 94 5.22014191524529880e-01
75 94 6.03298448091302397e-01
76 94 6.83991643446630881e-01
77 94 7.63759680934757546e-01
78 94 8.42262587782673711e-01
79 94 9.19158739835896688e-01
80 94 9.94109338323063252e-01
81 94 1.06678302727078589e+00
82 94 1.13686052835834617e+00
83 94 1.20403916340174555e+00
84 94 1.26803713400210438e+00
85 94 1.32859743350233028e+00
86 94 1.38549127814049755e+00
87 94 1.43852096158808385e+00
88 94 1.48752205892314082e+00
89 94 1.53236493119000339e+00
90 94 1.57295550850221888e+00
91 94 1.60923535654068606e+00
92 94 1.64118105673286818e+00
93 94 1.66880295300760850e+00
94 94 1.69214333672752182e+00
95 94 1.71127415548267314e+00
96 94 1.72629434053726527e+00
97 94 1.73732685187093061e+00
98 94 1.74451553928174397e+00
99 94 1.74802191350479474e+00
100 94 1.74802191350479452e+00
101 94 1.74802191350479452e+00
102 94 1.74451553928174352e+00
103 94 1.73732685187093039e+00
104 94 1.72629434053726483e+00
105 94 1.71127415548267314e+00
106 94 1.69214333672752248e+00
107 94 1.66880295300760872e+00
108 94 1.64118105673286818e+00
109 94 1.60923535654068584e+00
110 94 1.57295550850221888e+00
111 94 1.53236493119000383e+00
112 94 1.48752205892314171e+00
113 94 1.43852096158808385e+00
114 94 1.38549127814049733e+00
115 94 1.32859743350233073e+00
116 94 1.26803713400210438e+00
117 94 1.20403916340174599e+00
118 94 1.13686052835834661e+00
119 94 1.06678302727078589e+00
120 94 9.94109338323063252e-01
121 94 9.19158739835897243e-01
122 94 8.42262587782673822e-01
123 94 7.63759680934757879e-01
124 94 6.83991643446631103e-01
125 94 6.03298448091302841e-01
126 94 5.22014191524530213e-01
127 94 4.40463216916625544e-01
128 94 3.58956660268594907e-01
129 94 2.77789476035291638e-01
130 94 1.97237976594524883e-01
131 94 1.17557899785927830e-01
132 94 3.89830001593000491e-02
133 94 4.28141888242615558e-16
1 95 0.00000000000000000e+00
2 95 -4.00228582145245176e-02
3 95 -1.20693716130184731e-01
4 95 -2.02499231447151540e-01
5 95 -2.85199414293803966e-01
6 95 -3.68531705112029595e-01
7 95 -4.52212420986845165e-01
8 95 -5.35938739655261509e-01
9 95 -6.19391225670986811e-01
10 95 -7.02236884121746341e-01
11 95 -7.84132706438966709e-01
12 95 -8.64729651193426596e-01
13 95 -9.43676981524401048e-01
14 95 -1.02062686132040281e+00
15 95 -1.09523909580198353e+00
16 95 -1.16718589000957418e+00
17 95 -1.23615649192323596e+00
18 95 -1.30186158626919890e+00
19 95 -1.36403731082662394e+00
20 95 -1.42244877910581335e+00
21 95 -1.47689301103026538e+00
22 95 -1.52720119570007085e+00
23 95 -1.57324023608523045e+00
24 95 -1.61491355301758421e+00
25 95 -1.65216115346276626e+00
26 95 -1.68495899416591244e+00
27 95 -1.71331769497659137e+00
28 95 -1.73728067536489883e+00
29 95 -1.75692180209799687e+00
30 95 -1.77234264539736674e+00
31 95 -1.78366944515759718e+00
32 95 -1.79104988832040712e+00
33 95 -1.79464979386391987e+00
34 95 -1.79464979386391965e+00
35 95 -1.79464979386391965e+00
36 95 -1.79104988832040690e+00
37 95 -1.78366944515759718e+00
38 95 -1.77234264539736630e+00
39 95 -1.75692180209799687e+00
40 95 -1.73728067536489950e+00
41 95 -1.71331769497659159e+00
42 95 -1.68495899416591222e+00
43 95 -1.65216115346276604e+00
44 95 -1.61491355301758421e+00
45 95 -1.57324023608523089e+00
46 95 -1.52720119570007107e+00
47 95 -1.47689301103026538e+00
48 95 -1.42244877910581313e+00
49 95 -1.36403731082662438e+00
50 95 -1.30186158626919890e+00
51 95 -1.23615649192323618e+00
52 95 -1.16718589000957462e+00
53 95 -1.09523909580198353e+00
54 95 -1.02062686132040281e+00
55 95 -9.43676981524401604e-01
56 95 -8.64729651193426596e-01
57 95 -7.84132706438966709e-01
58 95 -7.02236884121746452e-01
59 95 -6.19391225670987144e-01
60 95 -5.35938739655261731e-01
61 95 -4.52212420986845165e-01
62 95 -3.68531705112029651e-01
63 95 -2.85199414293804243e-01
64 95 -2.02499231447151623e-01
65 95 -1.20693716130184939e-01
66 95 -4.00228582145247189e-02
67 95 -2.19781212564590646e-16
68 95 4.00228582145243303e-02
69 95 1.20693716130184633e-01
70 95 2.02499231447151429e-01
71 95 2.85199414293803910e-01
72 95 3.68531705112029540e-01
73 95 4.52212420986844998e-01
74 95 5.35938739655261509e-01
75 95 6.19391225670986811e-01
76 95 7.02236884121746341e-01
77 95 7.84132706438966709e-01
78 95 8.64729651193426596e-01
79 95 9.43676981524401048e-01
80 95 1.02062686132040281e+00
81 95 1.09523909580198353e+00
82 95 1.16718589000957418e+00
83 95 1.23615649192323596e+00
84 95 1.30186158626919890e+00
85 95 1.36403731082662394e+00
86 95 1.42244877910581335e+00
87 95 1.47689301103026538e+00
88 95 1.52720119570007085e+00
89 95 1.57324023608523045e+00
90 95 1.61491355301758421e+00
91 95 1.65216115346276626e+00
92 95 1.68495899416591244e+00
93 95 1.71331769497659137e+00
94 95 1.73728067536489883e+00
95 95 1.75692180209799687e+00
96 95 1.77234264539736674e+00
97 95 1.78366944515759718e+00
98 95 1.79104988832040712e+00
99 95 1.79464979386391987e+00
100 95 1.79464979386391965e+00
101 95 1.79464979386391965e+00
102 95 1.79104988832040690e+00
103 95 1.78366944515759718e+00
104 95 1.77234264539736630e+00
105 95 1.75692180209799687e+00
106 95 1.73728067536489950e+00
107 95 1.71331769497659159e+00
108 95 1.68495899416591222e+00
109 95 1.65216115346276604e+00
110 95 1.61491355301758421e+00
111 95 1.57324023608523089e+00
112 95 1.52720119570007151e+00
113 95 1.47689301103026538e+00
114 95 1.42244877910581313e+00
115 95 1.36403731082662438e+00
116 95 1.30186158626919890e+00
117 95 1.23615649192323618e+00
118 95 1.16718589000957462e+00
119 95 1.09523909580198353e+00
120 95 1.02062686132040281e+00
121 95 9.43676981524401604e-01
122 95 8.64729651193426596e-01
123 95 7.84132706438966931e-01
124 95 7.02236884121746674e-01
125 95 6.19391225670987255e-01
126 95 5.35938739655261842e-01
127 95 4.52212420986845220e-01
128 95 3.68531705112029817e-01
129 95 2.85199414293804299e-01
130 95 2.02499231447151845e-01
131 95 1.20693716130185133e-01
132 95 4.00228582145249479e-02
133 95 4.39562425129181293e-16
1 96 0.00000000000000000e+00
2 96 -4.10583865672851100e-02
3 96 -1.23816475738779810e-01
4 96 -2.07738579782839772e-01
5 96 -2.92578499468304887e-01
6 96 -3.78066881922470899e-01
7 96 -4.63912704382208607e-01
8 96 -5.49805309535930209e-01
9 96 -6.35416997048821042e-01
10 96 -7.20406156290279820e-01
11 96 -8.04420903885838978e-01
12 96 -8.87103167509625368e-01
13 96 -9.68093135537644867e-01
14 96 -1.04703397214745442e+00
15 96 -1.12357668055606874e+00
16 96 -1.19738498462616993e+00
17 96 -1.26814009211926160e+00
18 96 -1.33554520218502537e+00
19 96 -1.39932962558368623e+00
20 96 -1.45925239850796795e+00
21 96 -1.51510528909192499e+00
22 96 -1.56671511871977631e+00
23 96 -1.61394534668572254e+00
24 96 -1.65669689498790285e+00
25 96 -1.69490821836677785e+00
26 96 -1.72855465148617227e+00
27 96 -1.75764708896751842e+00
28 96 -1.78223007369124220e+00
29 96 -1.80237938361063987e+00
30 96 -1.81819921691653019e+00
31 96 -1.82981907976173308e+00
32 96 -1.83739048025472829e+00
33 96 -1.84108352767825334e+00
34 96 -1.84108352767825312e+00
35 96 -1.84108352767825312e+00
36 96 -1.83739048025472806e+00
37 96 -1.82981907976173308e+00
38 96 -1.81819921691652975e+00
39 96 -1.80237938361063987e+00
40 96 -1.78223007369124264e+00
41 96 -1.75764708896751887e+00
42 96 -1.72855465148617227e+00
43 96 -1.69490821836677785e+00
44 96 -1.65669689498790285e+00
45 96 -1.61394534668572254e+00
46 96 -1.56671511871977653e+00
47 96 -1.51510528909192521e+00
48 96 -1.45925239850796773e+00
49 96 -1.39932962558368690e+00
50 96 -1.33554520218502559e+00
51 96 -1.26814009211926182e+00
52 96 -1.19738498462617038e+00
53 96 -1.12357668055606874e+00
54 96 -1.04703397214745442e+00
55 96 -9.68093135537645422e-01
56 96 -8.87103167509625368e-01
57 96 -8.04420903885838978e-01
58 96 -7.20406156290279931e-01
59 96 -6.35416997048821264e-01
60 96 -5.49805309535930431e-01
61 96 -4.63912704382208607e-01
62 96 -3.78066881922470954e-01
63 96 -2.92578499468305109e-01
64 96 -2.07738579782839883e-01
65 96 -1.23816475738780019e-01
66 96 -4.10583865672853182e-02
67 96 -2.25467704913409019e-16
68 96 4.10583865672849158e-02
69 96 1.23816475738779699e-01
70 96 2.07738579782839633e-01
71 96 2.92578499468304776e-01
72 96 3.78066881922470843e-01
73 96 4.63912704382208496e-01
74 96 5.49805309535930209e-01
75 96 6.35416997048821042e-01
76 96 7.20406156290279820e-01
77 96 8.04420903885838978e-01
78 96 8.87103167509625368e-01
79 96 9.68093135537644867e-01
80 96 1.04703397214745442e+00
81 96 1.12357668055606874e+00
82 96 1.19738498462616993e+00
83 96 1.26814009211926160e+00
84 96 1.33554520218502537e+00
85 96 1.39932962558368623e+00
86 96 1.45925239850796795e+00
87 96 1.51510528909192499e+00
88 96 1.56671511871977631e+00
89 96 1.61394534668572254e+00
90 96 1.65669689498790285e+00
91 96 1.69490821836677785e+00
92 96 1.72855465148617227e+00
93 96 1.75764708896751842e+00
94 96 1.78223007369124220e+00
95 96 1.80237938361063987e+00
96 96 1.81819921691653019e+00
97 96 1.82981907976173308e+00
98 96 1.83739048025472829e+00
99 96 1.84108352767825334e+00
100 96 1.84108352767825312e+00
101 96 1.84108352767825312e+00
102 96 1.83739048025472806e+00
103 96 1.82981907976173308e+00
104 96 1.81819921691652975e+00
105 96 1.80237938361063987e+00
106 96 1.78223007369124264e+00
107 96 1.75764708896751887e+00
108 96 1.72855465148617227e+00
109 96 1.69490821836677785e+00
110 96 1.65669689498790285e+00
111 96 1.61394534668572254e+00
112 96 1.56671511871977653e+00
113 96 1.51510528909192521e+00
114 96 1.45925239850796773e+00
115 96 1.39932962558368690e+00
116 96 1.33554520218502559e+00
117 96 1.26814009211926182e+00
118 96 1.19738498462617038e+00
119 96 1.12357668055606874e+00
120 96 1.04703397214745464e+00
121 96 9.68093135537645422e-01
122 96 8.87103167509625368e-01
123 96 8.04420903885839311e-01
124 96 7.20406156290280153e-01
125 96 6.35416997048821375e-01
126 96 5.49805309535930542e-01
127 96 4.63912704382208718e-01
128 96 3.78066881922471010e-01
129 96 2.92578499468305220e-01
130 96 2.07738579782840077e-01
131 96 1.23816475738780213e-01
132 96 4.10583865672855472e-02
133 96 4.50935409826818037e-16
1 97 0.00000000000000000e+00
2 97 -4.20860600330608056e-02
3 97 -1.26915547996139022e-01
4 97 -2.12938185615156039e-01
5 97 -2.99901611399829737e-01
6 97 -3.87529730692808383e-01
7 97 -4.75524236558431734e-01
8 97 -5.63566696068416806e-01
9 97 -6.51321206691833465e-01
10 97 -7.38437607433342413e-01
11 97 -8.24555207431450388e-01
12 97 -9.09306971966510891e-01
13 97 -9.92324083486884057e-01
14 97 -1.07324077472549373e+00
15 97 -1.15169931366245182e+00
16 97 -1.22735500731573710e+00
17 97 -1.29988108421649384e+00
18 97 -1.36897331471887695e+00
19 97 -1.43435423434977993e+00
20 97 -1.49577684808317524e+00
21 97 -1.55302771210054869e+00
22 97 -1.60592931320107657e+00
23 97 -1.65434169312478674e+00
24 97 -1.69816329399074628e+00
25 97 -1.73733103008847722e+00
26 97 -1.77181961871922211e+00
27 97 -1.80164022719202510e+00
28 97 -1.82683851327613600e+00
29 97 -1.84749215161389246e+00
30 97 -1.86370794843127685e+00
31 97 -1.87561865136349604e+00
32 97 -1.88337956070074752e+00
33 97 -1.88716504348674841e+00
34 97 -1.88716504348674818e+00
35 97 -1.88716504348674818e+00
36 97 -1.88337956070074730e+00
37 97 -1.87561865136349604e+00
38 97 -1.86370794843127663e+00
39 97 -1.84749215161389246e+00
40 97 -1.82683851327613622e+00
41 97 -1.80164022719202555e+00
42 97 -1.77181961871922211e+00
43 97 -1.73733103008847722e+00
44 97 -1.69816329399074628e+00
45 97 -1.65434169312478674e+00
46 97 -1.60592931320107679e+00
47 97 -1.55302771210054891e+00
48 97 -1.49577684808317524e+00
49 97 -1.43435423434978038e+00
50 97 -1.36897331471887718e+00
51 97 -1.29988108421649429e+00
52 97 -1.22735500731573732e+00
53 97 -1.15169931366245182e+00
54 97 -1.07324077472549373e+00
55 97 -9.92324083486884501e-01
56 97 -9.09306971966510891e-01
57 97 -8.24555207431450499e-01
58 97 -7.38437607433342524e-01
59 97 -6.51321206691833576e-01
60 97 -5.63566696068417028e-01
61 97 -4.75524236558431734e-01
62 97 -3.87529730692808438e-01
63 97 -2.99901611399829959e-01
64 97 -2.12938185615156123e-01
65 97 -1.26915547996139244e-01
66 97 -4.20860600330610068e-02
67 97 -2.31111062996882213e-16
68 97 4.20860600330606044e-02
69 97 1.26915547996138911e-01
70 97 2.12938185615155873e-01
71 97 2.99901611399829626e-01
72 97 3.87529730692808327e-01
73 97 4.75524236558431679e-01
74 97 5.63566696068416806e-01
75 97 6.51321206691833465e-01
76 97 7.38437607433342413e-01
77 97 8.24555207431450388e-01
78 97 9.09306971966510891e-01
79 97 9.92324083486884057e-01
80 97 1.07324077472549373e+00
81 97 1.15169931366245182e+00
82 97 1.22735500731573710e+00
83 97 1.29988108421649384e+00
84 97 1.36897331471887695e+00
85 97 1.43435423434977993e+00
86 97 1.49577684808317524e+00
87 97 1.55302771210054869e+00
88 97 1.60592931320107657e+00
89 97 1.65434169312478674e+00
90 97 1.69816329399074628e+00
91 97 1.73733103008847722e+00
92 97 1.77181961871922211e+00
93 97 1.80164022719202510e+00
94 97 1.82683851327613600e+00
95 97 1.84749215161389246e+00
96 97 1.86370794843127685e+00
97 97 1.87561865136349604e+00
98 97 1.88337956070074752e+00
99 97 1.88716504348674841e+00
100 97 1.88716504348674818e+00
101 97 1.88716504348674818e+00
102 97 1.88337956070074730e+00
103 97 1.87561865136349604e+00
104 97 1.86370794843127663e+00
105 97 1.84749215161389246e+00
106 97 1.82683851327613622e+00
107 97 1.80164022719202555e+00
108 97 1.77181961871922211e+00
109 97 1.73733103008847722e+00
110 97 1.69816329399074628e+00
111 97 1.65434169312478674e+00
112 97 1.60592931320107679e+00
113 97 1.55302771210054891e+00
114 97 1.49577684808317524e+00
115 97 1.43435423434978038e+00
116 97 1.36897331471887718e+00
117 97 1.29988108421649429e+00
118 97 1.22735500731573732e+00
119 97 1.15169931366245182e+00
120 97 1.07324077472549395e+00
121 97 9.92324083486884501e-01
122 97 9.09306971966510891e-01
123 97 8.24555207431450721e-01
124 97 7.38437607433342635e-01
125 97 6.51321206691833798e-01
126 97 5.63566696068417139e-01
127 97 4.75524236558431845e-01
128 97 3.87529730692808549e-01
129 97 2.99901611399830070e-01
130 97 2.12938185615156345e-01
131 97 1.26915547996139438e-01
132 97 4.20860600330612428e-02
133 97 4.62222125993764426e-16
1 98 0.00000000000000000e+00
2 98 -4.31026159166341197e-02
3 98 -1.29981093854579038e-01
4 98 -2.18081541045777705e-01
5 98 -3.07145500405408445e-01
6 98 -3.96890208425480284e-01
7 98 -4.87010152799473295e-01
8 98 -5.77179209100624702e-01
9 98 -6.67053361334927652e-01
10 98 -7.56273990641903260e-01
11 98 -8.44471693954232605e-01
12 98 -9.31270571115508372e-01
13 98 -1.01629289607441686e+00
14 98 -1.09916406674144729e+00
15 98 -1.17951771035939190e+00
16 98 -1.25700080815667747e+00
17 98 -1.33127869575503932e+00
18 98 -1.40203979507933685e+00
19 98 -1.46899993971899590e+00
20 98 -1.53190616867619900e+00
21 98 -1.59053988256383350e+00
22 98 -1.64471928048846272e+00
23 98 -1.69430102360774382e+00
24 98 -1.73918110098951151e+00
25 98 -1.77929490313726268e+00
26 98 -1.81461653666841372e+00
27 98 -1.84515743862962966e+00
28 98 -1.87096436961788815e+00
29 98 -1.89211688044579796e+00
30 98 -1.90872435716024524e+00
31 98 -1.92092275381180366e+00
32 98 -1.92887112184778964e+00
33 98 -1.93274804001156775e+00
34 98 -1.93274804001156753e+00
35 98 -1.93274804001156753e+00
36 98 -1.92887112184778942e+00
37 98 -1.92092275381180366e+00
38 98 -1.90872435716024524e+00
39 98 -1.89211688044579796e+00
40 98 -1.87096436961788837e+00
41 98 -1.84515743862963011e+00
42 98 -1.81461653666841372e+00
43 98 -1.77929490313726268e+00
44 98 -1.73918110098951151e+00
45 98 -1.69430102360774382e+00
46 98 -1.64471928048846316e+00
47 98 -1.59053988256383394e+00
48 98 -1.53190616867619900e+00
49 98 -1.46899993971899634e+00
50 98 -1.40203979507933707e+00
51 98 -1.33127869575503954e+00
52 98 -1.25700080815667770e+00
53 98 -1.17951771035939190e+00
54 98 -1.09916406674144729e+00
55 98 -1.01629289607441731e+00
56 98 -9.31270571115508483e-01
57 98 -8.44471693954232716e-01
58 98 -7.56273990641903371e-01
59 98 -6.67053361334927764e-01
60 98 -5.77179209100624924e-01
61 98 -4.87010152799473295e-01
62 98 -3.96890208425480340e-01
63 98 -3.07145500405408611e-01
64 98 -2.18081541045777816e-01
65 98 -1.29981093854579260e-01
66 98 -4.31026159166343278e-02
67 98 -2.36693370075848721e-16
68 98 4.31026159166339184e-02
69 98 1.29981093854578900e-01
70 98 2.18081541045777566e-01
71 98 3.07145500405408334e-01
72 98 3.96890208425480229e-01
73 98 4.87010152799473239e-01
74 98 5.77179209100624702e-01
75 98 6.67053361334927652e-01
76 98 7.56273990641903260e-01
77 98 8.44471693954232605e-01
78 98 9.31270571115508372e-01
79 98 1.01629289607441686e+00
80 98 1.09916406674144729e+00
81 98 1.17951771035939190e+00
82 98 1.25700080815667747e+00
83 98 1.33127869575503932e+00
84 98 1.40203979507933685e+00
85 98 1.46899993971899590e+00
86 98 1.53190616867619900e+00
87 98 1.59053988256383350e+00
88 98 1.64471928048846272e+00
89 98 1.69430102360774382e+00
90 98 1.73918110098951151e+00
91 98 1.77929490313726268e+00
92 98 1.81461653666841372e+00
93 98 1.84515743862962966e+00
94 98 1.87096436961788815e+00
95 98 1.89211688044579796e+00
96 98 1.90872435716024524e+00
97 98 1.92092275381180366e+00
98 98 1.92887112184778964e+00
99 98 1.93274804001156775e+00
100 98 1.93274804001156753e+00
101 98 1.93274804001156753e+00
102 98 1.92887112184778942e+00
103 98 1.92092275381180366e+00
104 98 1.90872435716024524e+00
105 98 1.89211688044579796e+00
106 98 1.87096436961788837e+00
107 98 1.84515743862963011e+00
108 98 1.81461653666841372e+00
109 98 1.77929490313726268e+00
110 98 1.73918110098951151e+00
111 98 1.69430102360774382e+00
112 98 1.64471928048846316e+00
113 98 1.59053988256383394e+00
114 98 1.53190616867619900e+00
115 98 1.46899993971899634e+00
116 98 1.40203979507933707e+00
117 98 1.33127869575503954e+00
118 98 1.25700080815667770e+00
119 98 1.17951771035939190e+00
120 98 1.09916406674144729e+00
121 98 1.01629289607441731e+00
122 98 9.31270571115508483e-01
123 98 8.44471693954232716e-01
124 98 7.56273990641903482e-01
125 98 6.67053361334927875e-01
126 98 5.77179209100625035e-01
127 98 4.87010152799473461e-01
128 98 3.96890208425480506e-01
129 98 3.07145500405408778e-01
130 98 2.18081541045778066e-01
131 98 1.29981093854579455e-01
132 98 4.31026159166345638e-02
133 98 4.73386740151697441e-16
1 99 0.00000000000000000e+00
2 99 -4.41050719848995187e-02
3 99 -1.33004120033461404e-01
4 99 -2.23153557199526759e-01
5 99 -3.14288915350741049e-01
6 99 -4.06120854626647376e-01
7 99 -4.98336757289672805e-01
8 99 -5.90602914097059783e-01
9 99 -6.82567308126936001e-01
10 99 -7.73862979965813103e-01
11 99 -8.64111935180428836e-01
12 99 -9.52929531142838071e-01
13 99 -1.03992925686456683e+00
14 99 -1.12472779797426581e+00
15 99 -1.20695026082600898e+00
16 99 -1.28623541633888938e+00
17 99 -1.36224081670132402e+00
18 99 -1.43464763733293088e+00
19 99 -1.50316510284276128e+00
20 99 -1.56753436901032339e+00
21 99 -1.62753175238858194e+00
22 99 -1.68297122386256492e+00
23 99 -1.73370611089685167e+00
24 99 -1.77962998353231350e+00
25 99 -1.82067672962161087e+00
26 99 -1.85681985356862977e+00
27 99 -1.88807105841634626e+00
28 99 -1.91447819229304472e+00
29 99 -1.93612265615878165e+00
30 99 -1.95311638009876098e+00
31 99 -1.96559848010535743e+00
32 99 -1.97373170675377385e+00
33 99 -1.97769879206998156e+00
34 99 -1.97769879206998134e+00
35 99 -1.97769879206998134e+00
36 99 -1.97373170675377363e+00
37 99 -1.96559848010535743e+00
38 99 -1.95311638009876098e+00
39 99 -1.93612265615878187e+00
40 99 -1.91447819229304494e+00
41 99 -1.88807105841634648e+00
42 99 -1.85681985356862977e+00
43 99 -1.82067672962161087e+00
44 99 -1.77962998353231328e+00
45 99 -1.73370611089685167e+00
46 99 -1.68297122386256515e+00
47 99 -1.62753175238858239e+00
48 99 -1.56753436901032339e+00
49 99 -1.50316510284276172e+00
50 99 -1.43464763733293110e+00
51 99 -1.36224081670132424e+00
52 99 -1.28623541633888960e+00
53 99 -1.20695026082600898e+00
54 99 -1.12472779797426581e+00
55 99 -1.03992925686456705e+00
56 99 -9.52929531142838182e-01
57 99 -8.64111935180428947e-01
58 99 -7.73862979965813325e-01
59 99 -6.82567308126936112e-01
60 99 -5.90602914097060006e-01
61 99 -4.98336757289672805e-01
62 99 -4.06120854626647432e-01
63 99 -3.14288915350741160e-01
64 99 -2.23153557199526897e-01
65 99 -1.33004120033461626e-01
66 99 -4.41050719848997339e-02
67 99 -2.42198249538609003e-16
68 99 4.41050719848993106e-02
69 99 1.33004120033461265e-01
70 99 2.23153557199526620e-01
71 99 3.14288915350740938e-01
72 99 4.06120854626647321e-01
73 99 4.98336757289672694e-01
74 99 5.90602914097059783e-01
75 99 6.82567308126936001e-01
76 99 7.73862979965813103e-01
77 99 8.64111935180428836e-01
78 99 9.52929531142838071e-01
79 99 1.03992925686456683e+00
80 99 1.12472779797426581e+00
81 99 1.20695026082600898e+00
82 99 1.28623541633888938e+00
83 99 1.36224081670132402e+00
84 99 1.43464763733293088e+00
85 99 1.50316510284276128e+00
86 99 1.56753436901032339e+00
87 99 1.62753175238858194e+00
88 99 1.68297122386256492e+00
89 99 1.73370611089685167e+00
90 99 1.77962998353231350e+00
91 99 1.82067672962161087e+00
92 99 1.85681985356862977e+00
93 99 1.88807105841634626e+00
94 99 1.91447819229304472e+00
95 99 1.93612265615878165e+00
96 99 1.95311638009876098e+00
97 99 1.96559848010535743e+00
98 99 1.97373170675377385e+00
99 99 1.97769879206998156e+00
100 99 1.97769879206998134e+00
101 99 1.97769879206998134e+00
102 99 1.97373170675377363e+00
103 99 1.96559848010535743e+00
104 99 1.95311638009876098e+00
105 99 1.93612265615878187e+00
106 99 1.91447819229304494e+00
107 99 1.88807105841634648e+00
108 99 1.85681985356862977e+00
109 99 1.82067672962161087e+00
110 99 1.77962998353231328e+00
111 99 1.73370611089685167e+00
112 99 1.68297122386256515e+00
113 99 1.62753175238858239e+00
114 99 1.56753436901032339e+00
115 99 1.50316510284276172e+00
116 99 1.43464763733293110e+00
117 99 1.36224081670132424e+00
118 99 1.28623541633888960e+00
119 99 1.20695026082600898e+00
120 99 1.12472779797426581e+00
121 99 1.03992925686456705e+00
122 99 9.52929531142838182e-01
123 99 8.64111935180428947e-01
124 99 7.73862979965813436e-01
125 99 6.82567308126936223e-01
126 99 5.90602914097060117e-01
127 99 4.98336757289672916e-01
128 99 4.06120854626647543e-01
129 99 3.14288915350741382e-01
130 99 2.23153557199527119e-01
131 99 1.33004120033461848e-01
132 99 4.41050719848999767e-02
133 99 4.84396499077218006e-16
1 100 0.00000000000000000e+00
2 100 -4.46024158600374504e-02
3 100 -1.34503919976864728e-01
4 100 -2.25669913026503410e-01
5 100 -3.17832944643493431e-01
6 100 -4.10700412272160309e-01
7 100 -5.03956172990410622e-01
8 100 -5.97262754535940688e-01
9 100 -6.90264170523681386e-01
10 100 -7.82589323580301643e-01
11 100 -8.73855956878040185e-01
12 100 -9.63675090427135728e-01
13 100 -1.05165585480902557e+00
14 100 -1.13741061326842030e+00
15 100 -1.22056024473043290e+00
16 100 -1.30073944677150388e+00
17 100 -1.37760191002141319e+00
18 100 -1.45082521472477621e+00
19 100 -1.52011530660789473e+00
20 100 -1.58521042263432377e+00
21 100 -1.64588435702598268e+00
22 100 -1.70194898293997898e+00
23 100 -1.75325597391122234e+00
24 100 -1.79969769983996719e+00
25 100 -1.84120730307569103e+00
26 100 -1.87775798924887649e+00
27 100 -1.90936159337001432e+00
28 100 -1.93606650311924811e+00
29 100 -1.95795503736169718e+00
30 100 -1.97514038834448513e+00
31 100 -1.98776324077949318e+00
32 100 -1.99598818047306859e+00
33 100 -2.00000000000000000e+00
34 100 -2.00000000000000000e+00
35 100 -2.00000000000000000e+00
36 100 -1.99598818047306859e+00
37 100 -1.98776324077949318e+00
38 100 -1.97514038834448513e+00
39 100 -1.95795503736169740e+00
40 100 -1.93606650311924833e+00
41 100 -1.90936159337001454e+00
42 100 -1.87775798924887649e+00
43 100 -1.84120730307569103e+00
44 100 -1.79969769983996719e+00
45 100 -1.75325597391122234e+00
46 100 -1.70194898293997920e+00
47 100 -1.64588435702598290e+00
48 100 -1.58521042263432399e+00
49 100 -1.52011530660789496e+00
50 100 -1.45082521472477644e+00
51 100 -1.37760191002141341e+00
52 100 -1.30073944677150388e+00
53 100 -1.22056024473043290e+00
54 100 -1.13741061326842030e+00
55 100 -1.05165585480902579e+00
56 100 -9.63675090427135839e-01
57 100 -8.73855956878040185e-01
58 100 -7.82589323580301754e-01
59 100 -6.90264170523681386e-01
60 100 -5.97262754535940799e-01
61 100 -5.03956172990410622e-01
62 100 -4.10700412272160365e-01
63 100 -3.17832944643493542e-01
64 100 -2.25669913026503549e-01
65 100 -1.34503919976864950e-01
66 100 -4.46024158600376655e-02
67 100 -2.44929359829470641e-16
68 100 4.46024158600372422e-02
69 100 1.34503919976864589e-01
70 100 2.25669913026503272e-01
71 100 3.17832944643493320e-01
72 100 4.10700412272160198e-01
73 100 5.03956172990410511e-01
74 100 5.97262754535940688e-01
75 100 6.90264170523681386e-01
76 100 7.82589323580301643e-01
77 100 8.73855956878040185e-01
78 100 9.63675090427135728e-01
79 100 1.05165585480902557e+00
80 100 1.13741061326842030e+00
81 100 1.22056024473043290e+00
82 100 1.30073944677150388e+00
83 100 1.37760191002141319e+00
84 100 1.45082521472477621e+00
85 100 1.52011530660789473e+00
86 100 1.58521042263432377e+00
87 100 1.64588435702598268e+00
88 100 1.70194898293997898e+00
89 100 1.75325597391122234e+00
90 100 1.79969769983996719e+00
91 100 1.84120730307569103e+00
92 100 1.87775798924887649e+00
93 100 1.90936159337001432e+00
94 100 1.93606650311924811e+00
95 100 1.95795503736169718e+00
96 100 1.97514038834448513e+00
97 100 1.98776324077949318e+00
98 100 1.99598818047306859e+00
99 100 2.00000000000000000e+00
100 100 2.00000000000000000e+00
101 100 2.00000000000000000e+00
102 100 1.99598818047306859e+00
103 100 1.98776324077949318e+00
104 100 1.97514038834448513e+00
105 100 1.95795503736169740e+00
106 100 1.93606650311924833e+00
107 100 1.90936159337001454e+00
108 100 1.87775798924887649e+00
109 100 1.84120730307569103e+00
110 100 1.79969769983996719e+00
111 100 1.75325597391122234e+00
112 100 1.70194898293997920e+00
113 100 1.64588435702598290e+00
114 100 1.58521042263432399e+00
115 100 1.52011530660789496e+00
116 100 1.45082521472477644e+00
117 100 1.37760191002141341e+00
118 100 1.30073944677150388e+00
119 100 1.22056024473043290e+00
120 100 1.13741061326842030e+00
121 100 1.05165585480902579e+00
122 100 9.63675090427135839e-01
123 100 8.73855956878040185e-01
124 100 7.82589323580301865e-01
125 100 6.90264170523681497e-01
126 100 5.97262754535940910e-01
127 100 5.03956172990410733e-01
128 100 4.10700412272160476e-01
129 100 3.17832944643493709e-01
130 100 2.25669913026503771e-01
131 100 1.34503919976865172e-01
132 100 4.46024158600379084e-02
133 100 4.89858719658941283e-16
1 101 0.00000000000000000e+00
2 101 -4.50997597351753751e-02
3 101 -1.36003719920268079e-01
4 101 -2.28186268853480062e-01
5 101 -3.21376973936245758e-01
6 101 -4.15279969917673297e-01
7 101 -5.09575588691148496e-01
8 101 -6.03922594974821703e-01
9 101 -6.97961032920426661e-01
10 101 -7.91315667194790184e-01
11 101 -8.83599978575651535e-01
12 101 -9.74420649711433273e-01
13 101 -1.06338245275348453e+00
14 101 -1.15009342856257479e+00
15 101 -1.23417022863485659e+00
16 101 -1.31524347720411838e+00
17 101 -1.39296300334150214e+00
18 101 -1.46700279211662155e+00
19 101 -1.53706551037302819e+00
20 101 -1.60288647625832392e+00
21 101 -1.66423696166338320e+00
22 101 -1.72092674201739282e+00
23 101 -1.77280583692559324e+00
24 101 -1.81976541614762133e+00
25 101 -1.86173787652977074e+00
26 101 -1.89869612492912321e+00
27 101 -1.93065212832368238e+00
28 101 -1.95765481394545127e+00
29 101 -1.97978741856461271e+00
30 101 -1.99716439659020928e+00
31 101 -2.00992800145362915e+00
32 101 -2.01824465419236310e+00
33 101 -2.02230120793001822e+00
34 101 -2.02230120793001866e+00
35 101 -2.02230120793001866e+00
36 101 -2.01824465419236310e+00
37 101 -2.00992800145362871e+00
38 101 -1.99716439659020928e+00
39 101 -1.97978741856461293e+00
40 101 -1.95765481394545171e+00
41 101 -1.93065212832368283e+00
42 101 -1.89869612492912299e+00
43 101 -1.86173787652977074e+00
44 101 -1.81976541614762111e+00
45 101 -1.77280583692559324e+00
46 101 -1.72092674201739326e+00
47 101 -1.66423696166338364e+00
48 101 -1.60288647625832437e+00
49 101 -1.53706551037302819e+00
50 101 -1.46700279211662221e+00
51 101 -1.39296300334150280e+00
52 101 -1.31524347720411838e+00
53 101 -1.23417022863485659e+00
54 101 -1.15009342856257479e+00
55 101 -1.06338245275348453e+00
56 101 -9.74420649711433384e-01
57 101 -8.83599978575651424e-01
58 101 -7.91315667194790184e-01
59 101 -6.97961032920426550e-01
60 101 -6.03922594974821592e-01
61 101 -5.09575588691148385e-01
62 101 -4.15279969917673297e-01
63 101 -3.21376973936245924e-01
64 101 -2.28186268853480173e-01
65 101 -1.36003719920268273e-01
66 101 -4.50997597351755972e-02
67 101 -2.47660470120332329e-16
68 101 4.50997597351751739e-02
69 101 1.36003719920267940e-01
70 101 2.28186268853479896e-01
71 101 3.21376973936245702e-01
72 101 4.15279969917673131e-01
73 101 5.09575588691148385e-01
74 101 6.03922594974821703e-01
75 101 6.97961032920426661e-01
76 101 7.91315667194790184e-01
77 101 8.83599978575651535e-01
78 101 9.74420649711433273e-01
79 101 1.06338245275348453e+00
80 101 1.15009342856257479e+00
81 101 1.23417022863485659e+00
82 101 1.31524347720411838e+00
83 101 1.39296300334150214e+00
84 101 1.46700279211662155e+00
85 101 1.53706551037302819e+00
86 101 1.60288647625832392e+00
87 101 1.66423696166338320e+00
88 101 1.72092674201739282e+00
89 101 1.77280583692559324e+00
90 101 1.81976541614762133e+00
91 101 1.86173787652977074e+00
92 101 1.89869612492912299e+00
93 101 1.93065212832368238e+00
94 101 1.95765481394545127e+00
95 101 1.97978741856461271e+00
96 101 1.99716439659020928e+00
97 101 2.00992800145362915e+00
98 101 2.01824465419236310e+00
99 101 2.02230120793001822e+00
100 101 2.02230120793001866e+00
101 101 2.02230120793001866e+00
102 101 2.01824465419236310e+00
103 101 2.00992800145362871e+00
104 101 1.99716439659020928e+00
105 101 1.97978741856461293e+00
106 101 1.95765481394545171e+00
107 101 1.93065212832368283e+00
108 101 1.89869612492912299e+00
109 101 1.86173787652977074e+00
110 101 1.81976541614762111e+00
111 101 1.77280583692559324e+00
112 101 1.72092674201739326e+00
113 101 1.66423696166338364e+00
114 101 1.60288647625832437e+00
115 101 1.53706551037302819e+00
116 101 1.46700279211662221e+00
117 101 1.39296300334150280e+00
118 101 1.31524347720411838e+00
119 101 1.23417022863485659e+00
120 101 1.15009342856257479e+00
121 101 1.06338245275348453e+00
122 101 9.74420649711433384e-01
123 101 8.83599978575651424e-01
124 101 7.91315667194790406e-01
125 101 6.97961032920426772e-01
126 101 6.03922594974821814e-01
127 101 5.09575588691148607e-01
128 101 4.15279969917673408e-01
129 101 3.21376973936246091e-01
130 101 2.28186268853480423e-01
131 101 1.36003719920268523e-01
132 101 4.50997597351758331e-02
133 101 4.95320940240664658e-16
1 102 0.00000000000000000e+00
2 102 -4.61022158034407742e-02
3 102 -1.39026746099150417e-01
4 102 -2.33258285007229116e-01
5 102 -3.28520388881578307e-01
6 102 -4.24510616118840334e-01
7 102 -5.20902193181347895e-01
8 102 -6.17346299971256784e-01
9 102 -7.13474979712434787e-01
10 102 -8.08904656518699916e-01
11 102 -9.03240219801847877e-01
12 102 -9.96079609738762972e-01
13 102 -1.08701881354363450e+00
14 102 -1.17565715979539309e+00
15 102 -1.26160277910147389e+00
16 102 -1.34447808538633029e+00
17 102 -1.42392512428778750e+00
18 102 -1.49961063437021580e+00
19 102 -1.57123067349679357e+00
20 102 -1.63851467659244876e+00
21 102 -1.70122883148813120e+00
22 102 -1.75917868539149502e+00
23 102 -1.81221092421470131e+00
24 102 -1.86021429869042354e+00
25 102 -1.90311970301411848e+00
26 102 -1.94089944182933904e+00
27 102 -1.97356574811039920e+00
28 102 -2.00116863662060807e+00
29 102 -2.02379319427759663e+00
30 102 -2.04155641952872502e+00
31 102 -2.05460372774718314e+00
32 102 -2.06310523909834753e+00
33 102 -2.06725195998843114e+00
34 102 -2.06725195998843203e+00
35 102 -2.06725195998843159e+00
36 102 -2.06310523909834798e+00
37 102 -2.05460372774718225e+00
38 102 -2.04155641952872502e+00
39 102 -2.02379319427759663e+00
40 102 -2.00116863662060851e+00
41 102 -1.97356574811039920e+00
42 102 -1.94089944182933904e+00
43 102 -1.90311970301411848e+00
44 102 -1.86021429869042310e+00
45 102 -1.81221092421470131e+00
46 102 -1.75917868539149569e+00
47 102 -1.70122883148813120e+00
48 102 -1.63851467659244898e+00
49 102 -1.57123067349679357e+00
50 102 -1.49961063437021602e+00
51 102 -1.42392512428778750e+00
52 102 -1.34447808538633007e+00
53 102 -1.26160277910147389e+00
54 102 -1.17565715979539309e+00
55 102 -1.08701881354363428e+00
56 102 -9.96079609738763194e-01
57 102 -9.03240219801847766e-01
58 102 -8.08904656518699916e-01
59 102 -7.13474979712434787e-01
60 102 -6.17346299971256895e-01
61 102 -5.20902193181347895e-01
62 102 -4.24510616118840334e-01
63 102 -3.28520388881578473e-01
64 102 -2.33258285007229282e-01
65 102 -1.39026746099150639e-01
66 102 -4.61022158034409962e-02
67 102 -2.53165349583092513e-16
68 102 4.61022158034405660e-02
69 102 1.39026746099150306e-01
70 102 2.33258285007228894e-01
71 102 3.28520388881578251e-01
72 102 4.24510616118840112e-01
73 102 5.20902193181347895e-01
74 102 6.17346299971256784e-01
75 102 7.13474979712434787e-01
76 102 8.08904656518699916e-01
77 102 9.03240219801847877e-01
78 102 9.96079609738762972e-01
79 102 1.08701881354363450e+00
80 102 1.17565715979539309e+00
81 102 1.26160277910147389e+00
82 102 1.34447808538633029e+00
83 102 1.42392512428778750e+00
84 102 1.49961063437021580e+00
85 102 1.57123067349679357e+00
86 102 1.63851467659244876e+00
87 102 1.70122883148813120e+00
88 102 1.75917868539149502e+00
89 102 1.81221092421470131e+00
90 102 1.86021429869042354e+00
91 102 1.90311970301411848e+00
92 102 1.94089944182933882e+00
93 102 1.97356574811039920e+00
94 102 2.00116863662060807e+00
95 102 2.02379319427759663e+00
96 102 2.04155641952872502e+00
97 102 2.05460372774718314e+00
98 102 2.06310523909834753e+00
99 102 2.06725195998843114e+00
100 102 2.06725195998843203e+00
101 102 2.06725195998843159e+00
102 102 2.06310523909834798e+00
103 102 2.05460372774718225e+00
104 102 2.04155641952872502e+00
105 102 2.02379319427759663e+00
106 102 2.00116863662060851e+00
107 102 1.97356574811039920e+00
108 102 1.94089944182933904e+00
109 102 1.90311970301411848e+00
110 102 1.86021429869042310e+00
111 102 1.81221092421470131e+00
112 102 1.75917868539149569e+00
113 102 1.70122883148813120e+00
114 102 1.63851467659244898e+00
115 102 1.57123067349679357e+00
116 102 1.49961063437021602e+00
117 102 1.42392512428778750e+00
118 102 1.34447808538633007e+00
119 102 1.26160277910147389e+00
120 102 1.17565715979539309e+00
121 102 1.08701881354363428e+00
122 102 9.96079609738763194e-01
123 102 9.03240219801847766e-01
124 102 8.08904656518700027e-01
125 102 7.13474979712435009e-01
126 102 6.17346299971256895e-01
127 102 5.20902193181348228e-01
128 102 4.24510616118840500e-01
129 102 3.28520388881578640e-01
130 102 2.33258285007229504e-01
131 102 1.39026746099150916e-01
132 102 4.61022158034412530e-02
133 102 5.06330699166185026e-16
1 103 0.00000000000000000e+00
2 103 -4.71187716870140952e-02
3 103 -1.42092291957590433e-01
4 103 -2.38401640437850837e-01
5 103 -3.35764277887157070e-01
6 103 -4.33871093851512180e-01
7 103 -5.32388109422389566e-01
8 103 -6.30958813003464791e-01
9 103 -7.29207134355528863e-01
10 103 -8.26741039727260763e-01
11 103 -9.23156706324629983e-01
12 103 -1.01804320888776045e+00
13 103 -1.11098762613116731e+00
14 103 -1.20158045181134687e+00
15 103 -1.28942117579841398e+00
16 103 -1.37412388622727089e+00
17 103 -1.45532273582633276e+00
18 103 -1.53267711473067547e+00
19 103 -1.60587637886600998e+00
20 103 -1.67464399718547252e+00
21 103 -1.73874100195141645e+00
22 103 -1.79796865267888140e+00
23 103 -1.85217025469765817e+00
24 103 -1.90123210568918877e+00
25 103 -1.94508357606290438e+00
26 103 -1.98369635977853043e+00
27 103 -2.01708295954800354e+00
28 103 -2.04529449296236043e+00
29 103 -2.06841792310950190e+00
30 103 -2.08657282825769386e+00
31 103 -2.09990783019549099e+00
32 103 -2.10859680024538942e+00
33 103 -2.11283495651325026e+00
34 103 -2.11283495651325159e+00
35 103 -2.11283495651325026e+00
36 103 -2.10859680024538987e+00
37 103 -2.09990783019549010e+00
38 103 -2.08657282825769386e+00
39 103 -2.06841792310950146e+00
40 103 -2.04529449296236043e+00
41 103 -2.01708295954800398e+00
42 103 -1.98369635977853043e+00
43 103 -1.94508357606290438e+00
44 103 -1.90123210568918855e+00
45 103 -1.85217025469765817e+00
46 103 -1.79796865267888228e+00
47 103 -1.73874100195141645e+00
48 103 -1.67464399718547274e+00
49 103 -1.60587637886600954e+00
50 103 -1.53267711473067592e+00
51 103 -1.45532273582633276e+00
52 103 -1.37412388622727066e+00
53 103 -1.28942117579841398e+00
54 103 -1.20158045181134687e+00
55 103 -1.11098762613116708e+00
56 103 -1.01804320888776068e+00
57 103 -9.23156706324629761e-01
58 103 -8.26741039727260763e-01
59 103 -7.29207134355528974e-01
60 103 -6.30958813003464791e-01
61 103 -5.32388109422389566e-01
62 103 -4.33871093851512180e-01
63 103 -3.35764277887157236e-01
64 103 -2.38401640437850948e-01
65 103 -1.42092291957590627e-01
66 103 -4.71187716870143172e-02
67 103 -2.58747656662059021e-16
68 103 4.71187716870138731e-02
69 103 1.42092291957590322e-01
70 103 2.38401640437850587e-01
71 103 3.35764277887157014e-01
72 103 4.33871093851512013e-01
73 103 5.32388109422389455e-01
74 103 6.30958813003464791e-01
75 103 7.29207134355528863e-01
76 103 8.26741039727260763e-01
77 103 9.23156706324629983e-01
78 103 1.01804320888776045e+00
79 103 1.11098762613116731e+00
80 103 1.20158045181134687e+00
81 103 1.28942117579841398e+00
82 103 1.37412388622727089e+00
83 103 1.45532273582633276e+00
84 103 1.53267711473067547e+00
85 103 1.60587637886600998e+00
86 103 1.67464399718547252e+00
87 103 1.73874100195141645e+00
88 103 1.79796865267888140e+00
89 103 1.85217025469765817e+00
90 103 1.90123210568918877e+00
91 103 1.94508357606290438e+00
92 103 1.98369635977852998e+00
93 103 2.01708295954800354e+00
94 103 2.04529449296236043e+00
95 103 2.06841792310950190e+00
96 103 2.08657282825769386e+00
97 103 2.09990783019549099e+00
98 103 2.10859680024538942e+00
99 103 2.11283495651325026e+00
100 103 2.11283495651325159e+00
101 103 2.11283495651325026e+00
102 103 2.10859680024538987e+00
103 103 2.09990783019549010e+00
104 103 2.08657282825769386e+00
105 103 2.06841792310950146e+00
106 103 2.04529449296236043e+00
107 103 2.01708295954800398e+00
108 103 1.98369635977853043e+00
109 103 1.94508357606290438e+00
110 103 1.90123210568918855e+00
111 103 1.85217025469765817e+00
112 103 1.79796865267888228e+00
113 103 1.73874100195141645e+00
114 103 1.67464399718547274e+00
115 103 1.60587637886600954e+00
116 103 1.53267711473067592e+00
117 103 1.45532273582633276e+00
118 103 1.37412388622727066e+00
119 103 1.28942117579841398e+00
120 103 1.20158045181134687e+00
121 103 1.11098762613116708e+00
122 103 1.01804320888776068e+00
123 103 9.23156706324629761e-01
124 103 8.26741039727260874e-01
125 103 7.29207134355528974e-01
126 103 6.30958813003464791e-01
127 103 5.32388109422389788e-01
128 103 4.33871093851512457e-01
129 103 3.35764277887157347e-01
130 103 2.38401640437851170e-01
131 103 1.42092291957590933e-01
132 103 4.71187716870145740e-02
133 103 5.17495313324118041e-16
1 104 0.00000000000000000e+00
2 104 -4.81464451527897977e-02
3 104 -1.45191364214949631e-01
4 104 -2.43601246270167077e-01
5 104 -3.43087389818681865e-01
6 104 -4.43333942621849553e-01
7 104 -5.43999641598612804e-01
8 104 -6.44720199535951499e-01
9 104 -7.45111343998541287e-01
10 104 -8.44772490870323245e-01
11 104 -9.43291009870241393e-01
12 104 -1.04024701334464575e+00
13 104 -1.13521857408040638e+00
14 104 -1.22778725438938641e+00
15 104 -1.31754380890479705e+00
16 104 -1.40409390891683805e+00
17 104 -1.48706372792356500e+00
18 104 -1.56610522726452706e+00
19 104 -1.64090098763210346e+00
20 104 -1.71116844676067981e+00
21 104 -1.77666342496004015e+00
22 104 -1.83718284716018188e+00
23 104 -1.89256660113672259e+00
24 104 -1.94269850469203265e+00
25 104 -1.98750638778460420e+00
26 104 -2.02696132701158049e+00
27 104 -2.06107609777251044e+00
28 104 -2.08990293254725445e+00
29 104 -2.11353069111275449e+00
30 104 -2.13208155977244029e+00
31 104 -2.14570740179725350e+00
32 104 -2.15458588069140911e+00
33 104 -2.15891647232174488e+00
34 104 -2.15891647232174666e+00
35 104 -2.15891647232174488e+00
36 104 -2.15458588069140955e+00
37 104 -2.14570740179725306e+00
38 104 -2.13208155977244029e+00
39 104 -2.11353069111275405e+00
40 104 -2.08990293254725445e+00
41 104 -2.06107609777251044e+00
42 104 -2.02696132701158049e+00
43 104 -1.98750638778460420e+00
44 104 -1.94269850469203220e+00
45 104 -1.89256660113672259e+00
46 104 -1.83718284716018276e+00
47 104 -1.77666342496004015e+00
48 104 -1.71116844676068003e+00
49 104 -1.64090098763210301e+00
50 104 -1.56610522726452728e+00
51 104 -1.48706372792356500e+00
52 104 -1.40409390891683783e+00
53 104 -1.31754380890479728e+00
54 104 -1.22778725438938641e+00
55 104 -1.13521857408040661e+00
56 104 -1.04024701334464620e+00
57 104 -9.43291009870241282e-01
58 104 -8.44772490870323245e-01
59 104 -7.45111343998541287e-01
60 104 -6.44720199535951499e-01
61 104 -5.43999641598612804e-01
62 104 -4.43333942621849664e-01
63 104 -3.43087389818681976e-01
64 104 -2.43601246270167188e-01
65 104 -1.45191364214949853e-01
66 104 -4.81464451527900197e-02
67 104 -2.64391014745532215e-16
68 104 4.81464451527895687e-02
69 104 1.45191364214949520e-01
70 104 2.43601246270166827e-01
71 104 3.43087389818681809e-01
72 104 4.43333942621849497e-01
73 104 5.43999641598612582e-01
74 104 6.44720199535951499e-01
75 104 7.45111343998541287e-01
76 104 8.44772490870323245e-01
77 104 9.43291009870241393e-01
78 104 1.04024701334464575e+00
79 104 1.13521857408040638e+00
80 104 1.22778725438938641e+00
81 104 1.31754380890479705e+00
82 104 1.40409390891683805e+00
83 104 1.48706372792356500e+00
84 104 1.56610522726452706e+00
85 104 1.64090098763210346e+00
86 104 1.71116844676067981e+00
87 104 1.77666342496004015e+00
88 104 1.83718284716018188e+00
89 104 1.89256660113672259e+00
90 104 1.94269850469203265e+00
91 104 1.98750638778460376e+00
92 104 2.02696132701157961e+00
93 104 2.06107609777251044e+00
94 104 2.08990293254725445e+00
95 104 2.11353069111275449e+00
96 104 2.13208155977244029e+00
97 104 2.14570740179725350e+00
98 104 2.15458588069140911e+00
99 104 2.15891647232174488e+00
100 104 2.15891647232174666e+00
101 104 2.15891647232174488e+00
102 104 2.15458588069140955e+00
103 104 2.14570740179725306e+00
104 104 2.13208155977244029e+00
105 104 2.11353069111275405e+00
106 104 2.08990293254725445e+00
107 104 2.06107609777251044e+00
108 104 2.02696132701158049e+00
109 104 1.98750638778460420e+00
110 104 1.94269850469203220e+00
111 104 1.89256660113672259e+00
112 104 1.83718284716018276e+00
113 104 1.77666342496004015e+00
114 104 1.71116844676068003e+00
115 104 1.64090098763210301e+00
116 104 1.56610522726452728e+00
117 104 1.48706372792356500e+00
118 104 1.40409390891683783e+00
119 104 1.31754380890479728e+00
120 104 1.22778725438938641e+00
121 104 1.13521857408040661e+00
122 104 1.04024701334464620e+00
123 104 9.43291009870241282e-01
124 104 8.44772490870323245e-01
125 104 7.45111343998541287e-01
126 104 6.44720199535951499e-01
127 104 5.43999641598612915e-01
128 104 4.43333942621849997e-01
129 104 3.43087389818682253e-01
130 104 2.43601246270167410e-01
131 104 1.45191364214950130e-01
132 104 4.81464451527902765e-02
133 104 5.28782029491064430e-16
1 105 0.00000000000000000e+00
2 105 -4.91819735055503970e-02
3 105 -1.48314123823544697e-01
4 105 -2.48840594605855309e-01
5 105 -3.50466474993182731e-01
6 105 -4.52869119432290745e-01
7 105 -5.55699924993976246e-01
8 105 -6.58586769416620199e-01
9 105 -7.61137115376375295e-01
10 105 -8.62941763038856835e-01
11 105 -9.63579207317113551e-01
12 105 -1.06262052966084442e+00
13 105 -1.15963472809365009e+00
14 105 -1.25419436521643823e+00
15 105 -1.34588139365888249e+00
16 105 -1.43429300353343381e+00
17 105 -1.51904732811959109e+00
18 105 -1.59978884318035397e+00
19 105 -1.67619330238916575e+00
20 105 -1.74797206616283440e+00
21 105 -1.81487570302169998e+00
22 105 -1.87669677017988712e+00
23 105 -1.93327171173721424e+00
24 105 -1.98448184666235128e+00
25 105 -2.03025345268861601e+00
26 105 -2.07055698433184077e+00
27 105 -2.10540549176343772e+00
28 105 -2.13485233087359783e+00
29 105 -2.15898827262539728e+00
30 105 -2.17793813129160396e+00
31 105 -2.19185703640138918e+00
32 105 -2.20092647262573049e+00
33 105 -2.20535020613607857e+00
34 105 -2.20535020613607990e+00
35 105 -2.20535020613607857e+00
36 105 -2.20092647262573093e+00
37 105 -2.19185703640138918e+00
38 105 -2.17793813129160396e+00
39 105 -2.15898827262539728e+00
40 105 -2.13485233087359783e+00
41 105 -2.10540549176343816e+00
42 105 -2.07055698433184077e+00
43 105 -2.03025345268861601e+00
44 105 -1.98448184666235061e+00
45 105 -1.93327171173721424e+00
46 105 -1.87669677017988779e+00
47 105 -1.81487570302170020e+00
48 105 -1.74797206616283440e+00
49 105 -1.67619330238916553e+00
50 105 -1.59978884318035397e+00
51 105 -1.51904732811959109e+00
52 105 -1.43429300353343359e+00
53 105 -1.34588139365888249e+00
54 105 -1.25419436521643823e+00
55 105 -1.15963472809365031e+00
56 105 -1.06262052966084486e+00
57 105 -9.63579207317113662e-01
58 105 -8.62941763038856835e-01
59 105 -7.61137115376375406e-01
60 105 -6.58586769416620199e-01
61 105 -5.55699924993976246e-01
62 105 -4.52869119432290967e-01
63 105 -3.50466474993182842e-01
64 105 -2.48840594605855392e-01
65 105 -1.48314123823544947e-01
66 105 -4.91819735055506260e-02
67 105 -2.70077507094350563e-16
68 105 4.91819735055501681e-02
69 105 1.48314123823544586e-01
70 105 2.48840594605855059e-01
71 105 3.50466474993182731e-01
72 105 4.52869119432290745e-01
73 105 5.55699924993976135e-01
74 105 6.58586769416620199e-01
75 105 7.61137115376375295e-01
76 105 8.62941763038856835e-01
77 105 9.63579207317113551e-01
78 105 1.06262052966084442e+00
79 105 1.15963472809365009e+00
80 105 1.25419436521643823e+00
81 105 1.34588139365888249e+00
82 105 1.43429300353343381e+00
83 105 1.51904732811959109e+00
84 105 1.59978884318035397e+00
85 105 1.67619330238916575e+00
86 105 1.74797206616283440e+00
87 105 1.81487570302169998e+00
88 105 1.87669677017988712e+00
89 105 1.93327171173721424e+00
90 105 1.98448184666235128e+00
91 105 2.03025345268861557e+00
92 105 2.07055698433183988e+00
93 105 2.10540549176343772e+00
94 105 2.13485233087359783e+00
95 105 2.15898827262539728e+00
96 105 2.17793813129160396e+00
97 105 2.19185703640138918e+00
98 105 2.20092647262573049e+00
99 105 2.20535020613607857e+00
100 105 2.20535020613607990e+00
101 105 2.20535020613607857e+00
102 105 2.20092647262573093e+00
103 105 2.19185703640138918e+00
104 105 2.17793813129160396e+00
105 105 2.15898827262539728e+00
106 105 2.13485233087359783e+00
107 105 2.10540549176343816e+00
108 105 2.07055698433184077e+00
109 105 2.03025345268861601e+00
110 105 1.98448184666235061e+00
111 105 1.93327171173721424e+00
112 105 1.87669677017988779e+00
113 105 1.81487570302170020e+00
114 105 1.74797206616283440e+00
115 105 1.67619330238916553e+00
116 105 1.59978884318035397e+00
117 105 1.51904732811959109e+00
118 105 1.43429300353343359e+00
119 105 1.34588139365888249e+00
120 105 1.25419436521643823e+00
121 105 1.15963472809365031e+00
122 105 1.06262052966084486e+00
123 105 9.63579207317113662e-01
124 105 8.62941763038856835e-01
125 105 7.61137115376375406e-01
126 105 6.58586769416620199e-01
127 105 5.55699924993976357e-01
128 105 4.52869119432291245e-01
129 105 3.50466474993183119e-01
130 105 2.48840594605855642e-01
131 105 1.48314123823545196e-01
132 105 4.91819735055508897e-02
133 105 5.40155014188701125e-16
1 106 0.00000000000000000e+00
2 106 -5.02218315607752819e-02
3 106 -1.51449940167802000e-01
4 106 -2.54101849458482298e-01
5 106 -3.57876413251695336e-01
6 106 -4.62444164275725600e-01
7 106 -5.67449129064195978e-01
8 106 -6.72511317547351939e-01
9 106 -7.77229892956059820e-01
10 106 -8.81187003713972294e-01
11 106 -9.83952232821322603e-01
12 106 -1.08508759307159708e+00
13 106 -1.18415296978215445e+00
14 106 -1.28071188821377779e+00
15 106 -1.37433746219008013e+00
16 106 -1.46461836518466182e+00
17 106 -1.55116465664108127e+00
18 106 -1.63361329544744827e+00
19 106 -1.71163317971346007e+00
20 106 -1.78492956712815021e+00
21 106 -1.85324775246388151e+00
22 106 -1.91637590695681737e+00
23 106 -1.97414701663244130e+00
24 106 -2.02643989117771683e+00
25 106 -2.07317924961069666e+00
26 106 -2.11433492176488436e+00
27 106 -2.14992023373242036e+00
28 106 -2.17998966951097461e+00
29 106 -2.20463591924072100e+00
30 106 -2.22398643615170499e+00
31 106 -2.23819962968805619e+00
32 106 -2.24746082166439365e+00
33 106 -2.25197808649520370e+00
34 106 -2.25197808649520503e+00
35 106 -2.25197808649520370e+00
36 106 -2.24746082166439409e+00
37 106 -2.23819962968805575e+00
38 106 -2.22398643615170499e+00
39 106 -2.20463591924072100e+00
40 106 -2.17998966951097461e+00
41 106 -2.14992023373242125e+00
42 106 -2.11433492176488436e+00
43 106 -2.07317924961069666e+00
44 106 -2.02643989117771639e+00
45 106 -1.97414701663244130e+00
46 106 -1.91637590695681737e+00
47 106 -1.85324775246388196e+00
48 106 -1.78492956712815021e+00
49 106 -1.71163317971345941e+00
50 106 -1.63361329544744827e+00
51 106 -1.55116465664108127e+00
52 106 -1.46461836518466204e+00
53 106 -1.37433746219008013e+00
54 106 -1.28071188821377779e+00
55 106 -1.18415296978215467e+00
56 106 -1.08508759307159752e+00
57 106 -9.83952232821322714e-01
58 106 -8.81187003713972294e-01
59 106 -7.77229892956059820e-01
60 106 -6.72511317547351939e-01
61 106 -5.67449129064195978e-01
62 106 -4.62444164275725877e-01
63 106 -3.57876413251695447e-01
64 106 -2.54101849458482354e-01
65 106 -1.51449940167802249e-01
66 106 -5.02218315607755109e-02
67 106 -2.75787775537633356e-16
68 106 5.02218315607750529e-02
69 106 1.51449940167801861e-01
70 106 2.54101849458482076e-01
71 106 3.57876413251695336e-01
72 106 4.62444164275725544e-01
73 106 5.67449129064195867e-01
74 106 6.72511317547351939e-01
75 106 7.77229892956059820e-01
76 106 8.81187003713972294e-01
77 106 9.83952232821322603e-01
78 106 1.08508759307159708e+00
79 106 1.18415296978215445e+00
80 106 1.28071188821377779e+00
81 106 1.37433746219008013e+00
82 106 1.46461836518466182e+00
83 106 1.55116465664108127e+00
84 106 1.63361329544744827e+00
85 106 1.71163317971346007e+00
86 106 1.78492956712815021e+00
87 106 1.85324775246388151e+00
88 106 1.91637590695681737e+00
89 106 1.97414701663244130e+00
90 106 2.02643989117771683e+00
91 106 2.07317924961069577e+00
92 106 2.11433492176488347e+00
93 106 2.14992023373242036e+00
94 106 2.17998966951097461e+00
95 106 2.20463591924072100e+00
96 106 2.22398643615170499e+00
97 106 2.23819962968805619e+00
98 106 2.24746082166439365e+00
99 106 2.25197808649520370e+00
100 106 2.25197808649520503e+00
101 106 2.25197808649520370e+00
102 106 2.24746082166439409e+00
103 106 2.23819962968805575e+00
104 106 2.22398643615170499e+00
105 106 2.20463591924072100e+00
106 106 2.17998966951097461e+00
107 106 2.14992023373242125e+00
108 106 2.11433492176488436e+00
109 106 2.07317924961069666e+00
110 106 2.02643989117771639e+00
111 106 1.97414701663244130e+00
112 106 1.91637590695681737e+00
113 106 1.85324775246388196e+00
114 106 1.78492956712815021e+00
115 106 1.71163317971345941e+00
116 106 1.63361329544744827e+00
117 106 1.55116465664108127e+00
118 106 1.46461836518466204e+00
119 106 1.37433746219008013e+00
120 106 1.28071188821377779e+00
121 106 1.18415296978215467e+00
122 106 1.08508759307159752e+00
123 106 9.83952232821322714e-01
124 106 8.81187003713972405e-01
125 106 7.77229892956059820e-01
126 106 6.72511317547351939e-01
127 106 5.67449129064196089e-01
128 106 4.62444164275726100e-01
129 106 3.57876413251695780e-01
130 106 2.54101849458482631e-01
131 106 1.51449940167802499e-01
132 106 5.02218315607757815e-02
133 106 5.51575551075266712e-16
1 107 0.00000000000000000e+00
2 107 -5.12622562989183406e-02
3 107 -1.54587465412180686e-01
4 107 -2.59365971494027348e-01
5 107 -3.65290389643503799e-01
6 107 -4.72024427152839432e-01
7 107 -5.79204736001821874e-01
8 107 -6.86443454024905808e-01
9 107 -7.93331440484791428e-01
10 107 -8.99442187348298949e-01
11 107 -1.00433636084619460e+00
12 107 -1.10756690017368098e+00
13 107 -1.20868457297579757e+00
14 107 -1.30724386224819833e+00
15 107 -1.40280903819162317e+00
16 107 -1.49496025299958002e+00
17 107 -1.58329948787975394e+00
18 107 -1.66745618074895563e+00
19 107 -1.74709237041711463e+00
20 107 -1.82190720851973875e+00
21 107 -1.89164071320722083e+00
22 107 -1.95607666734757268e+00
23 107 -2.01504459700742489e+00
24 107 -2.06842080122457217e+00
25 107 -2.11612843945236095e+00
26 107 -2.15813671650153971e+00
27 107 -2.19445923453534109e+00
28 107 -2.22515160627369069e+00
29 107 -2.25030844207973857e+00
30 107 -2.27005983557893876e+00
31 107 -2.28456747791780579e+00
32 107 -2.29402053014569951e+00
33 107 -2.29863137726796918e+00
34 107 -2.29863137726797007e+00
35 107 -2.29863137726796918e+00
36 107 -2.29402053014569995e+00
37 107 -2.28456747791780534e+00
38 107 -2.27005983557893876e+00
39 107 -2.25030844207973857e+00
40 107 -2.22515160627369069e+00
41 107 -2.19445923453534153e+00
42 107 -2.15813671650153971e+00
43 107 -2.11612843945236095e+00
44 107 -2.06842080122457173e+00
45 107 -2.01504459700742489e+00
46 107 -1.95607666734757268e+00
47 107 -1.89164071320722127e+00
48 107 -1.82190720851973875e+00
49 107 -1.74709237041711418e+00
50 107 -1.66745618074895563e+00
51 107 -1.58329948787975394e+00
52 107 -1.49496025299958024e+00
53 107 -1.40280903819162317e+00
54 107 -1.30724386224819833e+00
55 107 -1.20868457297579779e+00
56 107 -1.10756690017368142e+00
57 107 -1.00433636084619482e+00
58 107 -8.99442187348298949e-01
59 107 -7.93331440484791206e-01
60 107 -6.86443454024905697e-01
61 107 -5.79204736001821874e-01
62 107 -4.72024427152839654e-01
63 107 -3.65290389643503965e-01
64 107 -2.59365971494027403e-01
65 107 -1.54587465412180908e-01
66 107 -5.12622562989185765e-02
67 107 -2.81501155859089078e-16
68 107 5.12622562989181046e-02
69 107 1.54587465412180547e-01
70 107 2.59365971494027070e-01
71 107 3.65290389643503799e-01
72 107 4.72024427152839321e-01
73 107 5.79204736001821541e-01
74 107 6.86443454024905808e-01
75 107 7.93331440484791428e-01
76 107 8.99442187348298949e-01
77 107 1.00433636084619460e+00
78 107 1.10756690017368098e+00
79 107 1.20868457297579757e+00
80 107 1.30724386224819833e+00
81 107 1.40280903819162317e+00
82 107 1.49496025299958002e+00
83 107 1.58329948787975394e+00
84 107 1.66745618074895563e+00
85 107 1.74709237041711463e+00
86 107 1.82190720851973875e+00
87 107 1.89164071320722083e+00
88 107 1.95607666734757268e+00
89 107 2.01504459700742489e+00
90 107 2.06842080122457217e+00
91 107 2.11612843945236051e+00
92 107 2.15813671650153927e+00
93 107 2.19445923453534109e+00
94 107 2.22515160627369069e+00
95 107 2.25030844207973857e+00
96 107 2.27005983557893876e+00
97 107 2.28456747791780579e+00
98 107 2.29402053014569951e+00
99 107 2.29863137726796918e+00
100 107 2.29863137726797007e+00
101 107 2.29863137726796918e+00
102 107 2.29402053014569995e+00
103 107 2.28456747791780534e+00
104 107 2.27005983557893876e+00
105 107 2.25030844207973857e+00
106 107 2.22515160627369069e+00
107 107 2.19445923453534153e+00
108 107 2.15813671650153971e+00
109 107 2.11612843945236095e+00
110 107 2.06842080122457173e+00
111 107 2.01504459700742489e+00
112 107 1.95607666734757268e+00
113 107 1.89164071320722127e+00
114 107 1.82190720851973875e+00
115 107 1.74709237041711418e+00
116 107 1.66745618074895563e+00
117 107 1.58329948787975394e+00
118 107 1.49496025299958024e+00
119 107 1.40280903819162339e+00
120 107 1.30724386224819833e+00
121 107 1.20868457297579779e+00
122 107 1.10756690017368142e+00
123 107 1.00433636084619482e+00
124 107 8.99442187348299171e-01
125 107 7.93331440484791206e-01
126 107 6.86443454024905697e-01
127 107 5.79204736001821874e-01
128 107 4.72024427152839987e-01
129 107 3.65290389643504299e-01
130 107 2.59365971494027736e-01
131 107 1.54587465412181213e-01
132 107 5.12622562989188610e-02
133 107 5.63002311718178155e-16
1 108 0.00000000000000000e+00
2 108 -5.22992782567827177e-02
3 108 -1.57714729165618239e-01
4 108 -2.64612876858351165e-01
5 108 -3.72680118118353332e-01
6 108 -4.81573357124854384e-01
7 108 -5.90921895422789611e-01
8 108 -7.00330024497051062e-01
9 108 -8.09380326800867800e-01
10 108 -9.17637666155763032e-01
11 108 -1.02465382118593951e+00
12 108 -1.12997268716414045e+00
13 108 -1.23313594388305670e+00
14 108 -1.33368906164656020e+00
15 108 -1.43118749595619166e+00
16 108 -1.52520290559479532e+00
17 108 -1.61532921995460588e+00
18 108 -1.70118838057898625e+00
19 108 -1.78243558941190794e+00
20 108 -1.85876391200561830e+00
21 108 -1.92990810714609284e+00
22 108 -1.99564758368565087e+00
23 108 -2.05580841904810185e+00
24 108 -2.11026440983332142e+00
25 108 -2.15893716103061362e+00
26 108 -2.20179525447214930e+00
27 108 -2.23885256748934625e+00
28 108 -2.27016583783282133e+00
29 108 -2.29583158980848046e+00
30 108 -2.31598254880159216e+00
31 108 -2.33078367692802413e+00
32 108 -2.34042796191539715e+00
33 108 -2.34513208526183936e+00
34 108 -2.34513208526184025e+00
35 108 -2.34513208526183936e+00
36 108 -2.34042796191539715e+00
37 108 -2.33078367692802368e+00
38 108 -2.31598254880159216e+00
39 108 -2.29583158980848046e+00
40 108 -2.27016583783282133e+00
41 108 -2.23885256748934625e+00
42 108 -2.20179525447214886e+00
43 108 -2.15893716103061362e+00
44 108 -2.11026440983332098e+00
45 108 -2.05580841904810185e+00
46 108 -1.99564758368565087e+00
47 108 -1.92990810714609351e+00
48 108 -1.85876391200561830e+00
49 108 -1.78243558941190772e+00
50 108 -1.70118838057898625e+00
51 108 -1.61532921995460588e+00
52 108 -1.52520290559479554e+00
53 108 -1.43118749595619144e+00
54 108 -1.33368906164656020e+00
55 108 -1.23313594388305670e+00
56 108 -1.12997268716414090e+00
57 108 -1.02465382118593973e+00
58 108 -9.17637666155763032e-01
59 108 -8.09380326800867689e-01
60 108 -7.00330024497051062e-01
61 108 -5.90921895422789611e-01
62 108 -4.81573357124854551e-01
63 108 -3.72680118118353443e-01
64 108 -2.64612876858351220e-01
65 108 -1.57714729165618461e-01
66 108 -5.22992782567829745e-02
67 108 -2.87195850179366973e-16
68 108 5.22992782567824888e-02
69 108 1.57714729165618073e-01
70 108 2.64612876858350832e-01
71 108 3.72680118118353332e-01
72 108 4.81573357124854329e-01
73 108 5.90921895422789278e-01
74 108 7.00330024497051062e-01
75 108 8.09380326800867800e-01
76 108 9.17637666155763032e-01
77 108 1.02465382118593951e+00
78 108 1.12997268716414045e+00
79 108 1.23313594388305670e+00
80 108 1.33368906164656020e+00
81 108 1.43118749595619166e+00
82 108 1.52520290559479532e+00
83 108 1.61532921995460588e+00
84 108 1.70118838057898625e+00
85 108 1.78243558941190794e+00
86 108 1.85876391200561830e+00
87 108 1.92990810714609284e+00
88 108 1.99564758368565087e+00
89 108 2.05580841904810185e+00
90 108 2.11026440983332142e+00
91 108 2.15893716103061273e+00
92 108 2.20179525447214886e+00
93 108 2.23885256748934625e+00
94 108 2.27016583783282133e+00
95 108 2.29583158980848046e+00
96 108 2.31598254880159216e+00
97 108 2.33078367692802413e+00
98 108 2.34042796191539715e+00
99 108 2.34513208526183936e+00
100 108 2.34513208526184025e+00
101 108 2.34513208526183936e+00
102 108 2.34042796191539715e+00
103 108 2.33078367692802368e+00
104 108 2.31598254880159216e+00
105 108 2.29583158980848046e+00
106 108 2.27016583783282133e+00
107 108 2.23885256748934625e+00
108 108 2.20179525447214886e+00
109 108 2.15893716103061362e+00
110 108 2.11026440983332098e+00
111 108 2.05580841904810185e+00
112 108 1.99564758368565087e+00
113 108 1.92990810714609351e+00
114 108 1.85876391200561830e+00
115 108 1.78243558941190772e+00
116 108 1.70118838057898625e+00
117 108 1.61532921995460588e+00
118 108 1.52520290559479554e+00
119 108 1.43118749595619188e+00
120 108 1.33368906164656020e+00
121 108 1.23313594388305670e+00
122 108 1.12997268716414090e+00
123 108 1.02465382118593973e+00
124 108 9.17637666155763254e-01
125 108 8.09380326800867689e-01
126 108 7.00330024497051062e-01
127 108 5.90921895422789611e-01
128 108 4.81573357124854939e-01
129 108 3.72680118118353831e-01
130 108 2.64612876858351553e-01
131 108 1.57714729165618767e-01
132 108 5.22992782567832590e-02
133 108 5.74391700358733945e-16
1 109 0.00000000000000000e+00
2 109 -5.33287594745259635e-02
3 109 -1.60819252915263111e-01
4 109 -2.69821629173462696e-01
5 109 -3.80016111933515033e-01
6 109 -4.91052851730715390e-01
7 109 -6.02553853124081606e-01
8 109 -7.14115618303938327e-01
9 109 -8.25312513099142775e-01
10 109 -9.35700835925770247e-01
11 109 -1.04482354242799080e+00
12 109 -1.15221554971927498e+00
13 109 -1.25740951582259020e+00
14 109 -1.35994196388611788e+00
15 109 -1.45935959880858257e+00
16 109 -1.55522564772228589e+00
17 109 -1.64712604675306085e+00
18 109 -1.73467529558095368e+00
19 109 -1.81752180899847948e+00
20 109 -1.89535261072978378e+00
21 109 -1.96789723844007325e+00
22 109 -2.03493075877177398e+00
23 109 -2.09627582558279890e+00
24 109 -2.15180375123166456e+00
25 109 -2.20143459754697135e+00
26 109 -2.24513632791232309e+00
27 109 -2.28292309282642636e+00
28 109 -2.31485274688989096e+00
29 109 -2.34102371443408064e+00
30 109 -2.36157133346714643e+00
31 109 -2.37666381328934673e+00
32 109 -2.38649794048074249e+00
33 109 -2.39129466179014960e+00
34 109 -2.39129466179015049e+00
35 109 -2.39129466179014960e+00
36 109 -2.38649794048074249e+00
37 109 -2.37666381328934584e+00
38 109 -2.36157133346714643e+00
39 109 -2.34102371443408064e+00
40 109 -2.31485274688989096e+00
41 109 -2.28292309282642636e+00
42 109 -2.24513632791232265e+00
43 109 -2.20143459754697135e+00
44 109 -2.15180375123166412e+00
45 109 -2.09627582558279890e+00
46 109 -2.03493075877177398e+00
47 109 -1.96789723844007347e+00
48 109 -1.89535261072978423e+00
49 109 -1.81752180899847882e+00
50 109 -1.73467529558095368e+00
51 109 -1.64712604675306085e+00
52 109 -1.55522564772228633e+00
53 109 -1.45935959880858213e+00
54 109 -1.35994196388611788e+00
55 109 -1.25740951582259020e+00
56 109 -1.15221554971927542e+00
57 109 -1.04482354242799080e+00
58 109 -9.35700835925770247e-01
59 109 -8.25312513099142775e-01
60 109 -7.14115618303938327e-01
61 109 -6.02553853124081606e-01
62 109 -4.91052851730715612e-01
63 109 -3.80016111933515144e-01
64 109 -2.69821629173462751e-01
65 109 -1.60819252915263305e-01
66 109 -5.33287594745262272e-02
67 109 -2.92849135337945915e-16
68 109 5.33287594745257346e-02
69 109 1.60819252915262945e-01
70 109 2.69821629173462363e-01
71 109 3.80016111933515033e-01
72 109 4.91052851730715334e-01
73 109 6.02553853124081384e-01
74 109 7.14115618303938327e-01
75 109 8.25312513099142775e-01
76 109 9.35700835925770247e-01
77 109 1.04482354242799080e+00
78 109 1.15221554971927498e+00
79 109 1.25740951582259020e+00
80 109 1.35994196388611788e+00
81 109 1.45935959880858257e+00
82 109 1.55522564772228589e+00
83 109 1.64712604675306085e+00
84 109 1.73467529558095368e+00
85 109 1.81752180899847948e+00
86 109 1.89535261072978378e+00
87 109 1.96789723844007325e+00
88 109 2.03493075877177398e+00
89 109 2.09627582558279890e+00
90 109 2.15180375123166412e+00
91 109 2.20143459754697002e+00
92 109 2.24513632791232265e+00
93 109 2.28292309282642636e+00
94 109 2.31485274688989096e+00
95 109 2.34102371443408064e+00
96 109 2.36157133346714643e+00
97 109 2.37666381328934673e+00
98 109 2.38649794048074249e+00
99 109 2.39129466179014960e+00
100 109 2.39129466179015049e+00
101 109 2.39129466179014960e+00
102 109 2.38649794048074249e+00
103 109 2.37666381328934584e+00
104 109 2.36157133346714643e+00
105 109 2.34102371443408064e+00
106 109 2.31485274688989096e+00
107 109 2.28292309282642636e+00
108 109 2.24513632791232265e+00
109 109 2.20143459754697135e+00
110 109 2.15180375123166412e+00
111 109 2.09627582558279890e+00
112 109 2.03493075877177398e+00
113 109 1.96789723844007347e+00
114 109 1.89535261072978423e+00
115 109 1.81752180899847882e+00
116 109 1.73467529558095368e+00
117 109 1.64712604675306085e+00
118 109 1.55522564772228633e+00
119 109 1.45935959880858279e+00
120 109 1.35994196388611788e+00
121 109 1.25740951582259020e+00
122 109 1.15221554971927542e+00
123 109 1.04482354242799080e+00
124 109 9.35700835925770469e-01
125 109 8.25312513099142775e-01
126 109 7.14115618303938327e-01
127 109 6.02553853124081606e-01
128 109 4.91052851730716000e-01
129 109 3.80016111933515532e-01
130 109 2.69821629173463085e-01
131 109 1.60819252915263639e-01
132 109 5.33287594745265117e-02
133 109 5.85698270675891830e-16
1 110 0.00000000000000000e+00
2 110 -5.43464375576487857e-02
3 110 -1.63888182900672363e-01
4 110 -2.74970662473093319e-01
5 110 -3.87267997635694528e-01
6 110 -5.00423662711233730e-01
7 110 -6.14052448933693373e-01
8 110 -7.27743158504095544e-01
9 110 -8.41062034831580929e-01
10 110 -9.53556909130252484e-01
11 110 -1.06476201522084901e+00
12 110 -1.17420339499331972e+00
13 110 -1.28140478813665903e+00
14 110 -1.38589387322364899e+00
15 110 -1.48720870487698509e+00
16 110 -1.58490417524838545e+00
17 110 -1.67855831884110795e+00
18 110 -1.76777827879380345e+00
19 110 -1.85220576056309483e+00
20 110 -1.93152181531536393e+00
21 110 -2.00545081945586690e+00
22 110 -2.07376354720113465e+00
23 110 -2.13627926809480551e+00
24 110 -2.19286683873618404e+00
25 110 -2.24344479548570330e+00
26 110 -2.28798049036899176e+00
27 110 -2.32648834392014825e+00
28 110 -2.35902731478494587e+00
29 110 -2.38569770553616811e+00
30 110 -2.40663743685079368e+00
31 110 -2.42201792798408366e+00
32 110 -2.43203972081420616e+00
33 110 -2.43692797843901898e+00
34 110 -2.43692797843902031e+00
35 110 -2.43692797843901854e+00
36 110 -2.43203972081420661e+00
37 110 -2.42201792798408233e+00
38 110 -2.40663743685079368e+00
39 110 -2.38569770553616811e+00
40 110 -2.35902731478494587e+00
41 110 -2.32648834392014825e+00
42 110 -2.28798049036899176e+00
43 110 -2.24344479548570330e+00
44 110 -2.19286683873618360e+00
45 110 -2.13627926809480551e+00
46 110 -2.07376354720113465e+00
47 110 -2.00545081945586690e+00
48 110 -1.93152181531536393e+00
49 110 -1.85220576056309416e+00
50 110 -1.76777827879380345e+00
51 110 -1.67855831884110795e+00
52 110 -1.58490417524838567e+00
53 110 -1.48720870487698464e+00
54 110 -1.38589387322364899e+00
55 110 -1.28140478813665903e+00
56 110 -1.17420339499332016e+00
57 110 -1.06476201522084901e+00
58 110 -9.53556909130252595e-01
59 110 -8.41062034831580929e-01
60 110 -7.27743158504095544e-01
61 110 -6.14052448933693373e-01
62 110 -5.00423662711233952e-01
63 110 -3.87267997635694694e-01
64 110 -2.74970662473093375e-01
65 110 -1.63888182900672530e-01
66 110 -5.43464375576490494e-02
67 110 -2.98437604854797490e-16
68 110 5.43464375576485498e-02
69 110 1.63888182900672169e-01
70 110 2.74970662473092986e-01
71 110 3.87267997635694528e-01
72 110 5.00423662711233619e-01
73 110 6.14052448933693262e-01
74 110 7.27743158504095544e-01
75 110 8.41062034831580929e-01
76 110 9.53556909130252484e-01
77 110 1.06476201522084901e+00
78 110 1.17420339499331972e+00
79 110 1.28140478813665903e+00
80 110 1.38589387322364899e+00
81 110 1.48720870487698509e+00
82 110 1.58490417524838545e+00
83 110 1.67855831884110795e+00
84 110 1.76777827879380345e+00
85 110 1.85220576056309483e+00
86 110 1.93152181531536393e+00
87 110 2.00545081945586690e+00
88 110 2.07376354720113465e+00
89 110 2.13627926809480551e+00
90 110 2.19286683873618360e+00
91 110 2.24344479548570197e+00
92 110 2.28798049036899176e+00
93 110 2.32648834392014825e+00
94 110 2.35902731478494587e+00
95 110 2.38569770553616811e+00
96 110 2.40663743685079368e+00
97 110 2.42201792798408366e+00
98 110 2.43203972081420616e+00
99 110 2.43692797843901898e+00
100 110 2.43692797843902031e+00
101 110 2.43692797843901854e+00
102 110 2.43203972081420661e+00
103 110 2.42201792798408233e+00
104 110 2.40663743685079368e+00
105 110 2.38569770553616811e+00
106 110 2.35902731478494587e+00
107 110 2.32648834392014825e+00
108 110 2.28798049036899176e+00
109 110 2.24344479548570330e+00
110 110 2.19286683873618360e+00
111 110 2.13627926809480551e+00
112 110 2.07376354720113465e+00
113 110 2.00545081945586690e+00
114 110 1.93152181531536393e+00
115 110 1.85220576056309416e+00
116 110 1.76777827879380345e+00
117 110 1.67855831884110795e+00
118 110 1.58490417524838567e+00
119 110 1.48720870487698531e+00
120 110 1.38589387322364899e+00
121 110 1.28140478813665903e+00
122 110 1.17420339499332016e+00
123 110 1.06476201522084901e+00
124 110 9.53556909130252595e-01
125 110 8.41062034831580929e-01
126 110 7.27743158504095544e-01
127 110 6.14052448933693484e-01
128 110 5.00423662711234396e-01
129 110 3.87267997635695083e-01
130 110 2.74970662473093652e-01
131 110 1.63888182900672891e-01
132 110 5.43464375576493408e-02
133 110 5.96875209709594981e-16
1 111 0.00000000000000000e+00
2 111 -5.53479751443350376e-02
3 111 -1.66908439288492083e-01
4 111 -2.80038031487128414e-01
5 111 -3.94404867561003569e-01
6 111 -5.09645851505869274e-01
7 111 -6.25368675634872528e-01
8 111 -7.41154564282486605e-01
9 111 -8.56561767260686446e-01
10 111 -9.71129782872441338e-01
11 111 -1.08438426144422451e+00
12 111 -1.19584251040457268e+00
13 111 -1.30501949255435412e+00
14 111 -1.41143418216697758e+00
15 111 -1.51461612078352470e+00
16 111 -1.61411199776892222e+00
17 111 -1.70949207132453362e+00
18 111 -1.80035624472324329e+00
19 111 -1.88633962049665471e+00
20 111 -1.96711737197886638e+00
21 111 -2.04240879617338811e+00
22 111 -2.11198044294924303e+00
23 111 -2.17564825121142613e+00
24 111 -2.23327866074866588e+00
25 111 -2.28478870664733469e+00
26 111 -2.33014513927129840e+00
27 111 -2.36936264490725179e+00
28 111 -2.40250126873584513e+00
29 111 -2.42966316178214692e+00
30 111 -2.45098878643052531e+00
31 111 -2.46665272098097255e+00
32 111 -2.47685920305028784e+00
33 111 -2.48183754521356681e+00
34 111 -2.48183754521356814e+00
35 111 -2.48183754521356637e+00
36 111 -2.47685920305028828e+00
37 111 -2.46665272098097210e+00
38 111 -2.45098878643052531e+00
39 111 -2.42966316178214692e+00
40 111 -2.40250126873584513e+00
41 111 -2.36936264490725179e+00
42 111 -2.33014513927129840e+00
43 111 -2.28478870664733469e+00
44 111 -2.23327866074866499e+00
45 111 -2.17564825121142613e+00
46 111 -2.11198044294924303e+00
47 111 -2.04240879617338811e+00
48 111 -1.96711737197886660e+00
49 111 -1.88633962049665405e+00
50 111 -1.80035624472324329e+00
51 111 -1.70949207132453362e+00
52 111 -1.61411199776892222e+00
53 111 -1.51461612078352426e+00
54 111 -1.41143418216697758e+00
55 111 -1.30501949255435412e+00
56 111 -1.19584251040457312e+00
57 111 -1.08438426144422473e+00
58 111 -9.71129782872441338e-01
59 111 -8.56561767260686557e-01
60 111 -7.41154564282486605e-01
61 111 -6.25368675634872528e-01
62 111 -5.09645851505869385e-01
63 111 -3.94404867561003736e-01
64 111 -2.80038031487128469e-01
65 111 -1.66908439288492277e-01
66 111 -5.53479751443353152e-02
67 111 -3.03937440574951885e-16
68 111 5.53479751443347878e-02
69 111 1.66908439288491889e-01
70 111 2.80038031487128081e-01
71 111 3.94404867561003569e-01
72 111 5.09645851505869052e-01
73 111 6.25368675634872417e-01
74 111 7.41154564282486605e-01
75 111 8.56561767260686446e-01
76 111 9.71129782872441338e-01
77 111 1.08438426144422451e+00
78 111 1.19584251040457268e+00
79 111 1.30501949255435412e+00
80 111 1.41143418216697758e+00
81 111 1.51461612078352470e+00
82 111 1.61411199776892222e+00
83 111 1.70949207132453362e+00
84 111 1.80035624472324329e+00
85 111 1.88633962049665427e+00
86 111 1.96711737197886638e+00
87 111 2.04240879617338811e+00
88 111 2.11198044294924303e+00
89 111 2.17564825121142613e+00
90 111 2.23327866074866543e+00
91 111 2.28478870664733336e+00
92 111 2.33014513927129796e+00
93 111 2.36936264490725179e+00
94 111 2.40250126873584513e+00
95 111 2.42966316178214692e+00
96 111 2.45098878643052531e+00
97 111 2.46665272098097255e+00
98 111 2.47685920305028784e+00
99 111 2.48183754521356681e+00
100 111 2.48183754521356814e+00
101 111 2.48183754521356637e+00
102 111 2.47685920305028828e+00
103 111 2.46665272098097210e+00
104 111 2.45098878643052531e+00
105 111 2.42966316178214692e+00
106 111 2.40250126873584513e+00
107 111 2.36936264490725179e+00
108 111 2.33014513927129840e+00
109 111 2.28478870664733469e+00
110 111 2.23327866074866499e+00
111 111 2.17564825121142613e+00
112 111 2.11198044294924303e+00
113 111 2.04240879617338811e+00
114 111 1.96711737197886660e+00
115 111 1.88633962049665405e+00
116 111 1.80035624472324329e+00
117 111 1.70949207132453362e+00
118 111 1.61411199776892222e+00
119 111 1.51461612078352492e+00
120 111 1.41143418216697758e+00
121 111 1.30501949255435412e+00
122 111 1.19584251040457312e+00
123 111 1.08438426144422473e+00
124 111 9.71129782872441338e-01
125 111 8.56561767260686557e-01
126 111 7.41154564282486605e-01
127 111 6.25368675634872750e-01
128 111 5.09645851505869940e-01
129 111 3.94404867561004180e-01
130 111 2.80038031487128747e-01
131 111 1.66908439288492610e-01
132 111 5.53479751443355927e-02
133 111 6.07874881149903771e-16
1 112 0.00000000000000000e+00
2 112 -5.63290138044962793e-02
3 112 -1.69866878711473351e-01
4 112 -2.85001684348644979e-01
5 112 -4.01395663914873913e-01
6 112 -5.18679285556784775e-01
7 112 -6.36453287963539616e-01
8 112 -7.54291472702712795e-01
9 112 -8.71744259597712623e-01
10 112 -9.88342984593866714e-01
11 112 -1.10360489020567387e+00
12 112 -1.21703872817246417e+00
13 112 -1.32815086404755101e+00
14 112 -1.43645174595983516e+00
15 112 -1.54146257660990726e+00
16 112 -1.64272201046608068e+00
17 112 -1.73979268858894254e+00
18 112 -1.83226742256724462e+00
19 112 -1.91977484715264812e+00
20 112 -2.00198437815124297e+00
21 112 -2.07861033712722376e+00
22 112 -2.14941513606375256e+00
23 112 -2.21421145139688180e+00
24 112 -2.27286335557072849e+00
25 112 -2.32528641312486428e+00
26 112 -2.37144678507587781e+00
27 112 -2.41135941802378095e+00
28 112 -2.44508542144549601e+00
29 112 -2.47272875698526029e+00
30 112 -2.49443237671254758e+00
31 112 -2.51037395331447311e+00
32 112 -2.52076134450409750e+00
33 112 -2.52582792740451190e+00
34 112 -2.52582792740451323e+00
35 112 -2.52582792740451145e+00
36 112 -2.52076134450409794e+00
37 112 -2.51037395331447266e+00
38 112 -2.49443237671254758e+00
39 112 -2.47272875698526073e+00
40 112 -2.44508542144549601e+00
41 112 -2.41135941802378095e+00
42 112 -2.37144678507587781e+00
43 112 -2.32528641312486384e+00
44 112 -2.27286335557072716e+00
45 112 -2.21421145139688225e+00
46 112 -2.14941513606375301e+00
47 112 -2.07861033712722376e+00
48 112 -2.00198437815124342e+00
49 112 -1.91977484715264723e+00
50 112 -1.83226742256724462e+00
51 112 -1.73979268858894254e+00
52 112 -1.64272201046608046e+00
53 112 -1.54146257660990682e+00
54 112 -1.43645174595983516e+00
55 112 -1.32815086404755101e+00
56 112 -1.21703872817246461e+00
57 112 -1.10360489020567409e+00
58 112 -9.88342984593866714e-01
59 112 -8.71744259597712734e-01
60 112 -7.54291472702712795e-01
61 112 -6.36453287963539616e-01
62 112 -5.18679285556784886e-01
63 112 -4.01395663914874135e-01
64 112 -2.85001684348645090e-01
65 112 -1.69866878711473546e-01
66 112 -5.63290138044965846e-02
67 112 -3.09324708649292839e-16
68 112 5.63290138044960365e-02
69 112 1.69866878711473157e-01
70 112 2.85001684348644702e-01
71 112 4.01395663914873913e-01
72 112 5.18679285556784553e-01
73 112 6.36453287963539394e-01
74 112 7.54291472702712795e-01
75 112 8.71744259597712623e-01
76 112 9.88342984593866714e-01
77 112 1.10360489020567387e+00
78 112 1.21703872817246417e+00
79 112 1.32815086404755101e+00
80 112 1.43645174595983516e+00
81 112 1.54146257660990726e+00
82 112 1.64272201046608068e+00
83 112 1.73979268858894254e+00
84 112 1.83226742256724462e+00
85 112 1.91977484715264723e+00
86 112 2.00198437815124297e+00
87 112 2.07861033712722376e+00
88 112 2.14941513606375256e+00
89 112 2.21421145139688180e+00
90 112 2.27286335557072761e+00
91 112 2.32528641312486295e+00
92 112 2.37144678507587736e+00
93 112 2.41135941802378095e+00
94 112 2.44508542144549601e+00
95 112 2.47272875698526029e+00
96 112 2.49443237671254758e+00
97 112 2.51037395331447311e+00
98 112 2.52076134450409750e+00
99 112 2.52582792740451190e+00
100 112 2.52582792740451323e+00
101 112 2.52582792740451145e+00
102 112 2.52076134450409794e+00
103 112 2.51037395331447266e+00
104 112 2.49443237671254758e+00
105 112 2.47272875698526073e+00
106 112 2.44508542144549601e+00
107 112 2.41135941802378095e+00
108 112 2.37144678507587781e+00
109 112 2.32528641312486384e+00
110 112 2.27286335557072716e+00
111 112 2.21421145139688225e+00
112 112 2.14941513606375301e+00
113 112 2.07861033712722376e+00
114 112 2.00198437815124342e+00
115 112 1.91977484715264723e+00
116 112 1.83226742256724462e+00
117 112 1.73979268858894254e+00
118 112 1.64272201046608046e+00
119 112 1.54146257660990749e+00
120 112 1.43645174595983516e+00
121 112 1.32815086404755101e+00
122 112 1.21703872817246461e+00
123 112 1.10360489020567409e+00
124 112 9.88342984593866714e-01
125 112 8.71744259597712734e-01
126 112 7.54291472702712795e-01
127 112 6.36453287963539838e-01
128 112 5.18679285556785330e-01
129 112 4.01395663914874523e-01
130 112 2.85001684348645312e-01
131 112 1.69866878711473879e-01
132 112 5.63290138044968552e-02
133 112 6.18649417298585678e-16
1 113 0.00000000000000000e+00
2 113 -5.72852311541920262e-02
3 113 -1.72750466503837796e-01
4 113 -2.89839751569430093e-01
5 113 -4.08209585764459149e-01
6 113 -5.27484164220177965e-01
7 113 -6.47257447935768004e-01
8 113 -7.67096003515718383e-01
9 113 -8.86542618901820956e-01
10 113 -1.00512067419799922e+00
11 113 -1.12233921683326887e+00
12 113 -1.23769865932569267e+00
13 113 -1.35069698750043998e+00
14 113 -1.46083633906233157e+00
15 113 -1.56762978885290671e+00
16 113 -1.67060815973520516e+00
17 113 -1.76932666835071450e+00
18 113 -1.86337121403112516e+00
19 113 -1.95236412738979537e+00
20 113 -2.03596921237632333e+00
21 113 -2.11389594099943867e+00
22 113 -2.18590269204931076e+00
23 113 -2.25179896203694341e+00
24 113 -2.31144651595815454e+00
25 113 -2.36475948501209654e+00
26 113 -2.41170345577918699e+00
27 113 -2.45229362858655353e+00
28 113 -2.48659215027957536e+00
29 113 -2.51470474731108729e+00
30 113 -2.53677679844401682e+00
31 113 -2.55298899246135003e+00
32 113 -2.56355271558016629e+00
33 113 -2.56870530663420915e+00
34 113 -2.56870530663421048e+00
35 113 -2.56870530663420915e+00
36 113 -2.56355271558016629e+00
37 113 -2.55298899246135003e+00
38 113 -2.53677679844401682e+00
39 113 -2.51470474731108817e+00
40 113 -2.48659215027957536e+00
41 113 -2.45229362858655353e+00
42 113 -2.41170345577918699e+00
43 113 -2.36475948501209610e+00
44 113 -2.31144651595815365e+00
45 113 -2.25179896203694385e+00
46 113 -2.18590269204931076e+00
47 113 -2.11389594099943867e+00
48 113 -2.03596921237632333e+00
49 113 -1.95236412738979448e+00
50 113 -1.86337121403112516e+00
51 113 -1.76932666835071450e+00
52 113 -1.67060815973520471e+00
53 113 -1.56762978885290649e+00
54 113 -1.46083633906233157e+00
55 113 -1.35069698750043998e+00
56 113 -1.23769865932569312e+00
57 113 -1.12233921683326887e+00
58 113 -1.00512067419799922e+00
59 113 -8.86542618901820956e-01
60 113 -7.67096003515718383e-01
61 113 -6.47257447935768004e-01
62 113 -5.27484164220178076e-01
63 113 -4.08209585764459371e-01
64 113 -2.89839751569430204e-01
65 113 -1.72750466503838018e-01
66 113 -5.72852311541923384e-02
67 113 -3.14575673172240458e-16
68 113 5.72852311541917764e-02
69 113 1.72750466503837602e-01
70 113 2.89839751569429815e-01
71 113 4.08209585764459149e-01
72 113 5.27484164220177854e-01
73 113 6.47257447935767893e-01
74 113 7.67096003515718383e-01
75 113 8.86542618901820956e-01
76 113 1.00512067419799922e+00
77 113 1.12233921683326887e+00
78 113 1.23769865932569267e+00
79 113 1.35069698750043998e+00
80 113 1.46083633906233157e+00
81 113 1.56762978885290671e+00
82 113 1.67060815973520516e+00
83 113 1.76932666835071450e+00
84 113 1.86337121403112516e+00
85 113 1.95236412738979426e+00
86 113 2.03596921237632333e+00
87 113 2.11389594099943867e+00
88 113 2.18590269204931076e+00
89 113 2.25179896203694341e+00
90 113 2.31144651595815365e+00
91 113 2.36475948501209521e+00
92 113 2.41170345577918654e+00
93 113 2.45229362858655353e+00
94 113 2.48659215027957536e+00
95 113 2.51470474731108729e+00
96 113 2.53677679844401682e+00
97 113 2.55298899246135003e+00
98 113 2.56355271558016629e+00
99 113 2.56870530663420915e+00
100 113 2.56870530663421048e+00
101 113 2.56870530663420915e+00
102 113 2.56355271558016629e+00
103 113 2.55298899246135003e+00
104 113 2.53677679844401682e+00
105 113 2.51470474731108817e+00
106 113 2.48659215027957536e+00
107 113 2.45229362858655353e+00
108 113 2.41170345577918699e+00
109 113 2.36475948501209610e+00
110 113 2.31144651595815365e+00
111 113 2.25179896203694385e+00
112 113 2.18590269204931076e+00
113 113 2.11389594099943867e+00
114 113 2.03596921237632333e+00
115 113 1.95236412738979448e+00
116 113 1.86337121403112516e+00
117 113 1.76932666835071450e+00
118 113 1.67060815973520471e+00
119 113 1.56762978885290694e+00
120 113 1.46083633906233157e+00
121 113 1.35069698750043998e+00
122 113 1.23769865932569312e+00
123 113 1.12233921683326887e+00
124 113 1.00512067419799922e+00
125 113 8.86542618901820956e-01
126 113 7.67096003515718383e-01
127 113 6.47257447935768226e-01
128 113 5.27484164220178520e-01
129 113 4.08209585764459759e-01
130 113 2.89839751569430426e-01
131 113 1.72750466503838324e-01
132 113 5.72852311541926160e-02
133 113 6.29151346344480916e-16
1 114 0.00000000000000000e+00
2 114 -5.82123997644614158e-02
3 114 -1.75546454347905889e-01
4 114 -2.94530844094484601e-01
5 114 -4.14816508817857310e-01
6 114 -5.36021561200609620e-01
7 114 -6.57733390450057853e-01
8 114 -7.79511547997130960e-01
9 114 -9.00891421749440036e-01
10 114 -1.02138867765845109e+00
11 114 -1.14050441702459215e+00
12 114 -1.25773096648022720e+00
13 114 -1.37255818668849972e+00
14 114 -1.48448015739089412e+00
15 114 -1.59300207248453640e+00
16 114 -1.69764716114199321e+00
17 114 -1.79796344113062578e+00
18 114 -1.89353010951116540e+00
19 114 -1.98396338427084795e+00
20 114 -2.06892162798426948e+00
21 114 -2.14810961042838944e+00
22 114 -2.22128179972396245e+00
23 114 -2.28824460905926585e+00
24 114 -2.34885756607933560e+00
25 114 -2.40303341218607391e+00
26 114 -2.45073717697441040e+00
27 114 -2.49198430679066307e+00
28 114 -2.52683795433465352e+00
29 114 -2.55540555725504070e+00
30 114 -2.57783484728816159e+00
31 114 -2.59430943768748756e+00
32 114 -2.60504413598238349e+00
33 114 -2.61028012236521523e+00
34 114 -2.61028012236521700e+00
35 114 -2.61028012236521523e+00
36 114 -2.60504413598238393e+00
37 114 -2.59430943768748801e+00
38 114 -2.57783484728816159e+00
39 114 -2.55540555725504204e+00
40 114 -2.52683795433465352e+00
41 114 -2.49198430679066307e+00
42 114 -2.45073717697441040e+00
43 114 -2.40303341218607347e+00
44 114 -2.34885756607933427e+00
45 114 -2.28824460905926630e+00
46 114 -2.22128179972396245e+00
47 114 -2.14810961042838944e+00
48 114 -2.06892162798426948e+00
49 114 -1.98396338427084706e+00
50 114 -1.89353010951116540e+00
51 114 -1.79796344113062578e+00
52 114 -1.69764716114199277e+00
53 114 -1.59300207248453618e+00
54 114 -1.48448015739089412e+00
55 114 -1.37255818668849972e+00
56 114 -1.25773096648022764e+00
57 114 -1.14050441702459215e+00
58 114 -1.02138867765845109e+00
59 114 -9.00891421749439925e-01
60 114 -7.79511547997130960e-01
61 114 -6.57733390450057853e-01
62 114 -5.36021561200609731e-01
63 114 -4.14816508817857532e-01
64 114 -2.94530844094484712e-01
65 114 -1.75546454347906111e-01
66 114 -5.82123997644617350e-02
67 114 -3.19667119673252237e-16
68 114 5.82123997644611590e-02
69 114 1.75546454347905695e-01
70 114 2.94530844094484379e-01
71 114 4.14816508817857310e-01
72 114 5.36021561200609509e-01
73 114 6.57733390450057742e-01
74 114 7.79511547997130960e-01
75 114 9.00891421749440036e-01
76 114 1.02138867765845109e+00
77 114 1.14050441702459215e+00
78 114 1.25773096648022720e+00
79 114 1.37255818668849972e+00
80 114 1.48448015739089412e+00
81 114 1.59300207248453640e+00
82 114 1.69764716114199321e+00
83 114 1.79796344113062578e+00
84 114 1.89353010951116540e+00
85 114 1.98396338427084684e+00
86 114 2.06892162798426948e+00
87 114 2.14810961042838944e+00
88 114 2.22128179972396245e+00
89 114 2.28824460905926585e+00
90 114 2.34885756607933427e+00
91 114 2.40303341218607303e+00
92 114 2.45073717697440996e+00
93 114 2.49198430679066307e+00
94 114 2.52683795433465352e+00
95 114 2.55540555725504070e+00
96 114 2.57783484728816159e+00
97 114 2.59430943768748756e+00
98 114 2.60504413598238349e+00
99 114 2.61028012236521523e+00
100 114 2.61028012236521700e+00
101 114 2.61028012236521523e+00
102 114 2.60504413598238393e+00
103 114 2.59430943768748801e+00
104 114 2.57783484728816159e+00
105 114 2.55540555725504204e+00
106 114 2.52683795433465352e+00
107 114 2.49198430679066307e+00
108 114 2.45073717697441040e+00
109 114 2.40303341218607347e+00
110 114 2.34885756607933427e+00
111 114 2.28824460905926630e+00
112 114 2.22128179972396245e+00
113 114 2.14810961042838944e+00
114 114 2.06892162798426948e+00
115 114 1.98396338427084706e+00
116 114 1.89353010951116540e+00
117 114 1.79796344113062578e+00
118 114 1.69764716114199277e+00
119 114 1.59300207248453685e+00
120 114 1.48448015739089412e+00
121 114 1.37255818668849972e+00
122 114 1.25773096648022764e+00
123 114 1.14050441702459215e+00
124 114 1.02138867765845109e+00
125 114 9.00891421749439925e-01
126 114 7.79511547997130960e-01
127 114 6.57733390450058075e-01
128 114 5.36021561200610175e-01
129 114 4.14816508817858032e-01
130 114 2.94530844094484989e-01
131 114 1.75546454347906417e-01
132 114 5.82123997644620125e-02
133 114 6.39334239346504474e-16
1 115 0.00000000000000000e+00
2 115 -5.91064462926518680e-02
3 115 -1.78242558591691191e-01
4 115 -2.99054352482270358e-01
5 115 -4.21187406788827157e-01
6 115 -5.44253969034089846e-01
7 115 -6.67835091403568559e-01
8 115 -7.91483560764017047e-01
9 115 -9.14727629346972604e-01
10 115 -1.03707552453108343e+00
11 115 -1.15802068535492175e+00
12 115 -1.27704764142455329e+00
13 115 -1.39363841850360193e+00
14 115 -1.50727932623212091e+00
15 115 -1.61746795910092156e+00
16 115 -1.72372022386836399e+00
17 115 -1.82557719659956885e+00
18 115 -1.92261161151559001e+00
19 115 -2.01443379234440778e+00
20 115 -2.10069685467277223e+00
21 115 -2.18110103402794575e+00
22 115 -2.25539702756564742e+00
23 115 -2.32338827529975145e+00
24 115 -2.38493214745141557e+00
25 115 -2.43994004527427411e+00
26 115 -2.48837646127546552e+00
27 115 -2.53025707903173203e+00
28 115 -2.56564602116429041e+00
29 115 -2.59465237538702986e+00
30 115 -2.61742614235229931e+00
31 115 -2.63415375531055584e+00
32 115 -2.64505332088081868e+00
33 115 -2.65036972338575127e+00
34 115 -2.65036972338575261e+00
35 115 -2.65036972338575127e+00
36 115 -2.64505332088081913e+00
37 115 -2.63415375531055673e+00
38 115 -2.61742614235229976e+00
39 115 -2.59465237538703075e+00
40 115 -2.56564602116429041e+00
41 115 -2.53025707903173203e+00
42 115 -2.48837646127546597e+00
43 115 -2.43994004527427366e+00
44 115 -2.38493214745141469e+00
45 115 -2.32338827529975234e+00
46 115 -2.25539702756564742e+00
47 115 -2.18110103402794575e+00
48 115 -2.10069685467277179e+00
49 115 -2.01443379234440689e+00
50 115 -1.92261161151559001e+00
51 115 -1.82557719659956885e+00
52 115 -1.72372022386836354e+00
53 115 -1.61746795910092134e+00
54 115 -1.50727932623212091e+00
55 115 -1.39363841850360193e+00
56 115 -1.27704764142455396e+00
57 115 -1.15802068535492175e+00
58 115 -1.03707552453108365e+00
59 115 -9.14727629346972604e-01
60 115 -7.91483560764017047e-01
61 115 -6.67835091403568559e-01
62 115 -5.44253969034089957e-01
63 115 -4.21187406788827379e-01
64 115 -2.99054352482270469e-01
65 115 -1.78242558591691386e-01
66 115 -5.91064462926522011e-02
67 115 -3.24576679830141629e-16
68 115 5.91064462926516113e-02
69 115 1.78242558591690942e-01
70 115 2.99054352482270136e-01
71 115 4.21187406788827101e-01
72 115 5.44253969034089624e-01
73 115 6.67835091403568559e-01
74 115 7.91483560764017047e-01
75 115 9.14727629346972604e-01
76 115 1.03707552453108343e+00
77 115 1.15802068535492175e+00
78 115 1.27704764142455329e+00
79 115 1.39363841850360193e+00
80 115 1.50727932623212091e+00
81 115 1.61746795910092156e+00
82 115 1.72372022386836399e+00
83 115 1.82557719659956885e+00
84 115 1.92261161151559001e+00
85 115 2.01443379234440645e+00
86 115 2.10069685467277223e+00
87 115 2.18110103402794575e+00
88 115 2.25539702756564742e+00
89 115 2.32338827529975145e+00
90 115 2.38493214745141469e+00
91 115 2.43994004527427322e+00
92 115 2.48837646127546508e+00
93 115 2.53025707903173203e+00
94 115 2.56564602116429041e+00
95 115 2.59465237538702986e+00
96 115 2.61742614235229931e+00
97 115 2.63415375531055584e+00
98 115 2.64505332088081868e+00
99 115 2.65036972338575127e+00
100 115 2.65036972338575261e+00
101 115 2.65036972338575127e+00
102 115 2.64505332088081913e+00
103 115 2.63415375531055673e+00
104 115 2.61742614235229976e+00
105 115 2.59465237538703075e+00
106 115 2.56564602116429041e+00
107 115 2.53025707903173203e+00
108 115 2.48837646127546597e+00
109 115 2.43994004527427366e+00
110 115 2.38493214745141469e+00
111 115 2.32338827529975234e+00
112 115 2.25539702756564742e+00
113 115 2.18110103402794575e+00
114 115 2.10069685467277179e+00
115 115 2.01443379234440689e+00
116 115 1.92261161151559001e+00
117 115 1.82557719659956885e+00
118 115 1.72372022386836354e+00
119 115 1.61746795910092200e+00
120 115 1.50727932623212091e+00
121 115 1.39363841850360193e+00
122 115 1.27704764142455396e+00
123 115 1.15802068535492175e+00
124 115 1.03707552453108365e+00
125 115 9.14727629346972604e-01
126 115 7.91483560764017047e-01
127 115 6.67835091403569003e-01
128 115 5.44253969034090401e-01
129 115 4.21187406788827823e-01
130 115 2.99054352482270747e-01
131 115 1.78242558591691719e-01
132 115 5.91064462926524786e-02
133 115 6.49153359660283257e-16
1 116 0.00000000000000000e+00
2 116 -5.99635091801267034e-02
3 116 -1.80827134243238818e-01
4 116 -3.03390738831422757e-01
5 116 -4.27294762545644857e-01
6 116 -5.52145830370337709e-01
7 116 -6.77518919610078596e-01
8 116 -8.02960332394281662e-01
9 116 -9.27991480456873963e-01
10 116 -1.05211346031194908e+00
11 116 -1.17481236569773495e+00
12 116 -1.29556525173025561e+00
13 116 -1.41384663337655447e+00
14 116 -1.52913537159772117e+00
15 116 -1.64092177583964483e+00
16 116 -1.74871473334965954e+00
17 116 -1.85204866564507520e+00
18 116 -1.95049011145279638e+00
19 116 -2.04364374406685112e+00
20 116 -2.13115764913604844e+00
21 116 -2.21272771550432346e+00
22 116 -2.28810102535425841e+00
23 116 -2.35707816851536034e+00
24 116 -2.41951444703013951e+00
25 116 -2.47531997744130372e+00
26 116 -2.52445873738568149e+00
27 116 -2.56694663785703003e+00
28 116 -2.60284873127563632e+00
29 116 -2.63227568716307703e+00
30 116 -2.65537968123043466e+00
31 116 -2.67234985007153947e+00
32 116 -2.68340746292303489e+00
33 116 -2.68880095501070615e+00
34 116 -2.68880095501070748e+00
35 116 -2.68880095501070615e+00
36 116 -2.68340746292303534e+00
37 116 -2.67234985007154080e+00
38 116 -2.65537968123043511e+00
39 116 -2.63227568716307747e+00
40 116 -2.60284873127563632e+00
41 116 -2.56694663785703003e+00
42 116 -2.52445873738568238e+00
43 116 -2.47531997744130328e+00
44 116 -2.41951444703013863e+00
45 116 -2.35707816851536123e+00
46 116 -2.28810102535425841e+00
47 116 -2.21272771550432346e+00
48 116 -2.13115764913604799e+00
49 116 -2.04364374406685023e+00
50 116 -1.95049011145279638e+00
51 116 -1.85204866564507520e+00
52 116 -1.74871473334965932e+00
53 116 -1.64092177583964483e+00
54 116 -1.52913537159772117e+00
55 116 -1.41384663337655447e+00
56 116 -1.29556525173025627e+00
57 116 -1.17481236569773495e+00
58 116 -1.05211346031194908e+00
59 116 -9.27991480456873963e-01
60 116 -8.02960332394281662e-01
61 116 -6.77518919610078596e-01
62 116 -5.52145830370337709e-01
63 116 -4.27294762545645135e-01
64 116 -3.03390738831422979e-01
65 116 -1.80827134243239013e-01
66 116 -5.99635091801270365e-02
67 116 -3.29283148309820815e-16
68 116 5.99635091801264397e-02
69 116 1.80827134243238569e-01
70 116 3.03390738831422591e-01
71 116 4.27294762545644802e-01
72 116 5.52145830370337487e-01
73 116 6.77518919610078596e-01
74 116 8.02960332394281662e-01
75 116 9.27991480456873963e-01
76 116 1.05211346031194908e+00
77 116 1.17481236569773495e+00
78 116 1.29556525173025561e+00
79 116 1.41384663337655447e+00
80 116 1.52913537159772117e+00
81 116 1.64092177583964483e+00
82 116 1.74871473334965954e+00
83 116 1.85204866564507520e+00
84 116 1.95049011145279638e+00
85 116 2.04364374406685023e+00
86 116 2.13115764913604844e+00
87 116 2.21272771550432346e+00
88 116 2.28810102535425841e+00
89 116 2.35707816851536034e+00
90 116 2.41951444703013863e+00
91 116 2.47531997744130328e+00
92 116 2.52445873738568105e+00
93 116 2.56694663785703003e+00
94 116 2.60284873127563632e+00
95 116 2.63227568716307703e+00
96 116 2.65537968123043466e+00
97 116 2.67234985007153947e+00
98 116 2.68340746292303489e+00
99 116 2.68880095501070615e+00
100 116 2.68880095501070748e+00
101 116 2.68880095501070615e+00
102 116 2.68340746292303534e+00
103 116 2.67234985007154080e+00
104 116 2.65537968123043511e+00
105 116 2.63227568716307747e+00
106 116 2.60284873127563632e+00
107 116 2.56694663785703003e+00
108 116 2.52445873738568238e+00
109 116 2.47531997744130328e+00
110 116 2.41951444703013863e+00
111 116 2.35707816851536123e+00
112 116 2.28810102535425841e+00
113 116 2.21272771550432346e+00
114 116 2.13115764913604799e+00
115 116 2.04364374406685023e+00
116 116 1.95049011145279638e+00
117 116 1.85204866564507520e+00
118 116 1.74871473334965932e+00
119 116 1.64092177583964527e+00
120 116 1.52913537159772117e+00
121 116 1.41384663337655447e+00
122 116 1.29556525173025627e+00
123 116 1.17481236569773495e+00
124 116 1.05211346031194930e+00
125 116 9.27991480456873963e-01
126 116 8.02960332394281662e-01
127 116 6.77518919610079040e-01
128 116 5.52145830370338264e-01
129 116 4.27294762545645634e-01
130 116 3.03390738831423257e-01
131 116 1.80827134243239346e-01
132 116 5.99635091801273140e-02
133 116 6.58566296619641629e-16
1 117 0.00000000000000000e+00
2 117 -6.07799932518831090e-02
3 117 -1.83289339622304509e-01
4 117 -3.07521813032403002e-01
5 117 -4.33112957183244274e-01
6 117 -5.59664040727738121e-01
7 117 -6.86744253713083008e-01
8 117 -8.13893720560120548e-01
9 117 -9.40627336377891421e-01
10 117 -1.06643940443647889e+00
11 117 -1.19080902094706720e+00
12 117 -1.31320612042560247e+00
13 117 -1.43309806265149398e+00
14 117 -1.54995661257476902e+00
15 117 -1.66326513951682209e+00
16 117 -1.77252584356231768e+00
17 117 -1.87726680674943358e+00
18 117 -1.97704866564507520e+00
19 117 -2.07147071063684995e+00
20 117 -2.16017623558492344e+00
21 117 -2.24285698844957659e+00
22 117 -2.31925660759610697e+00
23 117 -2.38917296761553377e+00
24 117 -2.45245940029247045e+00
25 117 -2.50902479828509595e+00
26 117 -2.55883264873716776e+00
27 117 -2.60189907929208797e+00
28 117 -2.63829002814660551e+00
29 117 -2.66811767173713221e+00
30 117 -2.69153625785235118e+00
31 117 -2.70873749843597489e+00
32 117 -2.71994567560380762e+00
33 117 -2.72541260736238788e+00
34 117 -2.72541260736238922e+00
35 117 -2.72541260736238788e+00
36 117 -2.71994567560380762e+00
37 117 -2.70873749843597622e+00
38 117 -2.69153625785235207e+00
39 117 -2.66811767173713266e+00
40 117 -2.63829002814660551e+00
41 117 -2.60189907929208797e+00
42 117 -2.55883264873716865e+00
43 117 -2.50902479828509550e+00
44 117 -2.45245940029246912e+00
45 117 -2.38917296761553466e+00
46 117 -2.31925660759610697e+00
47 117 -2.24285698844957659e+00
48 117 -2.16017623558492300e+00
49 117 -2.07147071063684907e+00
50 117 -1.97704866564507520e+00
51 117 -1.87726680674943358e+00
52 117 -1.77252584356231790e+00
53 117 -1.66326513951682142e+00
54 117 -1.54995661257476902e+00
55 117 -1.43309806265149398e+00
56 117 -1.31320612042560314e+00
57 117 -1.19080902094706720e+00
58 117 -1.06643940443647889e+00
59 117 -9.40627336377891532e-01
60 117 -8.13893720560120548e-01
61 117 -6.86744253713083008e-01
62 117 -5.59664040727738121e-01
63 117 -4.33112957183244551e-01
64 117 -3.07521813032403224e-01
65 117 -1.83289339622304703e-01
66 117 -6.07799932518834490e-02
67 117 -3.33766782596219076e-16
68 117 6.07799932518828454e-02
69 117 1.83289339622304231e-01
70 117 3.07521813032402835e-01
71 117 4.33112957183244163e-01
72 117 5.59664040727737788e-01
73 117 6.86744253713083008e-01
74 117 8.13893720560120548e-01
75 117 9.40627336377891421e-01
76 117 1.06643940443647889e+00
77 117 1.19080902094706720e+00
78 117 1.31320612042560247e+00
79 117 1.43309806265149398e+00
80 117 1.54995661257476902e+00
81 117 1.66326513951682187e+00
82 117 1.77252584356231768e+00
83 117 1.87726680674943358e+00
84 117 1.97704866564507520e+00
85 117 2.07147071063684907e+00
86 117 2.16017623558492344e+00
87 117 2.24285698844957659e+00
88 117 2.31925660759610697e+00
89 117 2.38917296761553377e+00
90 117 2.45245940029246956e+00
91 117 2.50902479828509550e+00
92 117 2.55883264873716731e+00
93 117 2.60189907929208797e+00
94 117 2.63829002814660551e+00
95 117 2.66811767173713221e+00
96 117 2.69153625785235118e+00
97 117 2.70873749843597489e+00
98 117 2.71994567560380762e+00
99 117 2.72541260736238788e+00
100 117 2.72541260736238922e+00
101 117 2.72541260736238788e+00
102 117 2.71994567560380762e+00
103 117 2.70873749843597622e+00
104 117 2.69153625785235207e+00
105 117 2.66811767173713266e+00
106 117 2.63829002814660551e+00
107 117 2.60189907929208797e+00
108 117 2.55883264873716865e+00
109 117 2.50902479828509550e+00
110 117 2.45245940029246912e+00
111 117 2.38917296761553466e+00
112 117 2.31925660759610697e+00
113 117 2.24285698844957659e+00
114 117 2.16017623558492300e+00
115 117 2.07147071063684951e+00
116 117 1.97704866564507520e+00
117 117 1.87726680674943358e+00
118 117 1.77252584356231790e+00
119 117 1.66326513951682209e+00
120 117 1.54995661257476902e+00
121 117 1.43309806265149398e+00
122 117 1.31320612042560314e+00
123 117 1.19080902094706742e+00
124 117 1.06643940443647911e+00
125 117 9.40627336377891532e-01
126 117 8.13893720560120548e-01
127 117 6.86744253713083452e-01
128 117 5.59664040727738565e-01
129 117 4.33112957183244995e-01
130 117 3.07521813032403557e-01
131 117 1.83289339622305036e-01
132 117 6.07799932518837335e-02
133 117 6.67533565192438152e-16
1 118 0.00000000000000000e+00
2 118 -6.15526196251708693e-02
3 118 -1.85619286865763677e-01
4 118 -3.11430985284618433e-01
5 118 -4.38618625667701767e-01
6 118 -5.66778408053431271e-01
7 118 -6.95474046095975518e-01
8 118 -8.24239818345160469e-01
9 118 -9.52584453327694036e-01
10 118 -1.07999582597088550e+00
11 118 -1.20594641083323961e+00
12 118 -1.32989940431589471e+00
13 118 -1.45131539535377829e+00
14 118 -1.56965943405031982e+00
15 118 -1.68440832239338545e+00
16 118 -1.79505793250801626e+00
17 118 -1.90113034748036935e+00
18 118 -2.00218061875373143e+00
19 118 -2.09780294295379877e+00
20 118 -2.18763607954452555e+00
21 118 -2.27136785803140606e+00
22 118 -2.34873865794817949e+00
23 118 -2.41954378449726715e+00
24 118 -2.48363470503840711e+00
25 118 -2.54091915408659208e+00
26 118 -2.59136015463949620e+00
27 118 -2.63497403935276475e+00
28 118 -2.67182758461984582e+00
29 118 -2.70203439284758362e+00
30 118 -2.72575067259996340e+00
31 118 -2.74317057283484900e+00
32 118 -2.75452122670945654e+00
33 118 -2.76005765330394670e+00
34 118 -2.76005765330394803e+00
35 118 -2.76005765330394714e+00
36 118 -2.75452122670945698e+00
37 118 -2.74317057283485033e+00
38 118 -2.72575067259996429e+00
39 118 -2.70203439284758407e+00
40 118 -2.67182758461984582e+00
41 118 -2.63497403935276475e+00
42 118 -2.59136015463949709e+00
43 118 -2.54091915408659119e+00
44 118 -2.48363470503840578e+00
45 118 -2.41954378449726848e+00
46 118 -2.34873865794817949e+00
47 118 -2.27136785803140606e+00
48 118 -2.18763607954452510e+00
49 118 -2.09780294295379788e+00
50 118 -2.00218061875373143e+00
51 118 -1.90113034748036935e+00
52 118 -1.79505793250801648e+00
53 118 -1.68440832239338478e+00
54 118 -1.56965943405031982e+00
55 118 -1.45131539535377829e+00
56 118 -1.32989940431589537e+00
57 118 -1.20594641083323961e+00
58 118 -1.07999582597088573e+00
59 118 -9.52584453327694147e-01
60 118 -8.24239818345160469e-01
61 118 -6.95474046095975518e-01
62 118 -5.66778408053431271e-01
63 118 -4.38618625667702045e-01
64 118 -3.11430985284618711e-01
65 118 -1.85619286865763844e-01
66 118 -6.15526196251712093e-02
67 118 -3.38009577058083346e-16
68 118 6.15526196251705987e-02
69 118 1.85619286865763372e-01
70 118 3.11430985284618322e-01
71 118 4.38618625667701600e-01
72 118 5.66778408053430938e-01
73 118 6.95474046095975518e-01
74 118 8.24239818345160469e-01
75 118 9.52584453327694036e-01
76 118 1.07999582597088550e+00
77 118 1.20594641083323961e+00
78 118 1.32989940431589471e+00
79 118 1.45131539535377829e+00
80 118 1.56965943405031982e+00
81 118 1.68440832239338500e+00
82 118 1.79505793250801626e+00
83 118 1.90113034748036935e+00
84 118 2.00218061875373143e+00
85 118 2.09780294295379832e+00
86 118 2.18763607954452555e+00
87 118 2.27136785803140606e+00
88 118 2.34873865794817949e+00
89 118 2.41954378449726715e+00
90 118 2.48363470503840666e+00
91 118 2.54091915408659164e+00
92 118 2.59136015463949576e+00
93 118 2.63497403935276475e+00
94 118 2.67182758461984582e+00
95 118 2.70203439284758362e+00
96 118 2.72575067259996340e+00
97 118 2.74317057283484900e+00
98 118 2.75452122670945654e+00
99 118 2.76005765330394670e+00
100 118 2.76005765330394803e+00
101 118 2.76005765330394714e+00
102 118 2.75452122670945698e+00
103 118 2.74317057283485033e+00
104 118 2.72575067259996429e+00
105 118 2.70203439284758407e+00
106 118 2.67182758461984582e+00
107 118 2.63497403935276475e+00
108 118 2.59136015463949709e+00
109 118 2.54091915408659119e+00
110 118 2.48363470503840578e+00
111 118 2.41954378449726848e+00
112 118 2.34873865794817949e+00
113 118 2.27136785803140606e+00
114 118 2.18763607954452510e+00
115 118 2.09780294295379832e+00
116 118 2.00218061875373143e+00
117 118 1.90113034748036935e+00
118 118 1.79505793250801648e+00
119 118 1.68440832239338545e+00
120 118 1.56965943405031982e+00
121 118 1.45131539535377829e+00
122 118 1.32989940431589537e+00
123 118 1.20594641083323983e+00
124 118 1.07999582597088595e+00
125 118 9.52584453327694147e-01
126 118 8.24239818345160469e-01
127 118 6.95474046095976073e-01
128 118 5.66778408053431715e-01
129 118 4.38618625667702489e-01
130 118 3.11430985284619044e-01
131 118 1.85619286865764177e-01
132 118 6.15526196251715008e-02
133 118 6.76019154116166693e-16
1 119 0.00000000000000000e+00
2 119 -6.22784694840379099e-02
3 119 -1.87808173934989581e-01
4 119 -3.15103487577651997e-01
5 119 -4.43790968769849248e-01
6 119 -5.73462055800670778e-01
7 119 -7.03675317484236951e-01
8 119 -8.33959540421356005e-01
9 119 -9.63817659894975476e-01
10 119 -1.09273151167576166e+00
11 119 -1.22016734955908013e+00
12 119 -1.34558203977167801e+00
13 119 -1.46842981032594500e+00
14 119 -1.58816940301041987e+00
15 119 -1.70427145008037884e+00
16 119 -1.81622587880995234e+00
17 119 -1.92354913652313786e+00
18 119 -2.02579102767537611e+00
19 119 -2.12254096351809673e+00
20 119 -2.21343344364144690e+00
21 119 -2.29815261632807877e+00
22 119 -2.37643579957706486e+00
23 119 -2.44807588475871230e+00
24 119 -2.51292258768430221e+00
25 119 -2.57088255484219719e+00
26 119 -2.62191837318442333e+00
27 119 -2.66604656796697181e+00
28 119 -2.70333470303370316e+00
29 119 -2.73389772043048085e+00
30 119 -2.75789367078690617e+00
31 119 -2.77551899253275192e+00
32 119 -2.78700349725827579e+00
33 119 -2.79260521131716111e+00
34 119 -2.79260521131716244e+00
35 119 -2.79260521131716200e+00
36 119 -2.78700349725827667e+00
37 119 -2.77551899253275325e+00
38 119 -2.75789367078690706e+00
39 119 -2.73389772043048174e+00
40 119 -2.70333470303370316e+00
41 119 -2.66604656796697181e+00
42 119 -2.62191837318442422e+00
43 119 -2.57088255484219630e+00
44 119 -2.51292258768430088e+00
45 119 -2.44807588475871363e+00
46 119 -2.37643579957706486e+00
47 119 -2.29815261632807877e+00
48 119 -2.21343344364144645e+00
49 119 -2.12254096351809585e+00
50 119 -2.02579102767537611e+00
51 119 -1.92354913652313786e+00
52 119 -1.81622587880995234e+00
53 119 -1.70427145008037817e+00
54 119 -1.58816940301041987e+00
55 119 -1.46842981032594500e+00
56 119 -1.34558203977167867e+00
57 119 -1.22016734955908013e+00
58 119 -1.09273151167576166e+00
59 119 -9.63817659894975587e-01
60 119 -8.33959540421356005e-01
61 119 -7.03675317484236951e-01
62 119 -5.73462055800670889e-01
63 119 -4.43790968769849525e-01
64 119 -3.15103487577652330e-01
65 119 -1.87808173934989719e-01
66 119 -6.22784694840382499e-02
67 119 -3.41995503332177955e-16
68 119 6.22784694840376393e-02
69 119 1.87808173934989248e-01
70 119 3.15103487577651886e-01
71 119 4.43790968769849081e-01
72 119 5.73462055800670556e-01
73 119 7.03675317484236951e-01
74 119 8.33959540421356005e-01
75 119 9.63817659894975476e-01
76 119 1.09273151167576166e+00
77 119 1.22016734955908013e+00
78 119 1.34558203977167801e+00
79 119 1.46842981032594500e+00
80 119 1.58816940301041987e+00
81 119 1.70427145008037839e+00
82 119 1.81622587880995234e+00
83 119 1.92354913652313786e+00
84 119 2.02579102767537611e+00
85 119 2.12254096351809629e+00
86 119 2.21343344364144690e+00
87 119 2.29815261632807877e+00
88 119 2.37643579957706486e+00
89 119 2.44807588475871230e+00
90 119 2.51292258768430177e+00
91 119 2.57088255484219719e+00
92 119 2.62191837318442289e+00
93 119 2.66604656796697181e+00
94 119 2.70333470303370316e+00
95 119 2.73389772043048085e+00
96 119 2.75789367078690617e+00
97 119 2.77551899253275192e+00
98 119 2.78700349725827579e+00
99 119 2.79260521131716111e+00
100 119 2.79260521131716244e+00
101 119 2.79260521131716200e+00
102 119 2.78700349725827667e+00
103 119 2.77551899253275325e+00
104 119 2.75789367078690706e+00
105 119 2.73389772043048174e+00
106 119 2.70333470303370316e+00
107 119 2.66604656796697181e+00
108 119 2.62191837318442422e+00
109 119 2.57088255484219630e+00
110 119 2.51292258768430088e+00
111 119 2.44807588475871363e+00
112 119 2.37643579957706486e+00
113 119 2.29815261632807877e+00
114 119 2.21343344364144645e+00
115 119 2.12254096351809629e+00
116 119 2.02579102767537611e+00
117 119 1.92354913652313786e+00
118 119 1.81622587880995234e+00
119 119 1.70427145008037906e+00
120 119 1.58816940301041987e+00
121 119 1.46842981032594522e+00
122 119 1.34558203977167867e+00
123 119 1.22016734955908035e+00
124 119 1.09273151167576210e+00
125 119 9.63817659894975587e-01
126 119 8.33959540421356005e-01
127 119 7.03675317484237506e-01
128 119 5.73462055800671333e-01
129 119 4.43790968769849969e-01
130 119 3.15103487577652663e-01
131 119 1.87808173934990053e-01
132 119 6.22784694840385553e-02
133 119 6.83991006664355909e-16
1 120 0.00000000000000000e+00
2 120 -6.29550204974382577e-02
3 120 -1.89848394439013912e-01
4 120 -3.18526557951937350e-01
5 120 -4.48612012577551067e-01
6 120 -5.79691758267877888e-01
7 120 -7.11319568428310012e-01
8 120 -8.43019110717179831e-01
9 120 -9.74287920643792105e-01
10 120 -1.10460220499439266e+00
11 120 -1.23342241930792484e+00
12 120 -1.36019952957454127e+00
13 120 -1.48438183491026665e+00
14 120 -1.60542219724187607e+00
15 120 -1.72278549813283943e+00
16 120 -1.83595612377346695e+00
17 120 -1.94444526849975374e+00
18 120 -2.04779784614837013e+00
19 120 -2.14559880761331767e+00
20 120 -2.23747868193641919e+00
21 120 -2.32311818620169186e+00
22 120 -2.40225178480927770e+00
23 120 -2.47467011924193114e+00
24 120 -2.54022127272553000e+00
25 120 -2.59881087761926199e+00
26 120 -2.65040111444519821e+00
27 120 -2.69500868797849291e+00
28 120 -2.73270189603074032e+00
29 120 -2.76359692930015699e+00
30 120 -2.78785355537108837e+00
31 120 -2.80567034664705384e+00
32 120 -2.81727961123541348e+00
33 120 -2.82294217851299045e+00
34 120 -2.82294217851299178e+00
35 120 -2.82294217851299134e+00
36 120 -2.81727961123541437e+00
37 120 -2.80567034664705517e+00
38 120 -2.78785355537108925e+00
39 120 -2.76359692930015699e+00
40 120 -2.73270189603074032e+00
41 120 -2.69500868797849291e+00
42 120 -2.65040111444519910e+00
43 120 -2.59881087761926066e+00
44 120 -2.54022127272552867e+00
45 120 -2.47467011924193203e+00
46 120 -2.40225178480927770e+00
47 120 -2.32311818620169186e+00
48 120 -2.23747868193641919e+00
49 120 -2.14559880761331678e+00
50 120 -2.04779784614837013e+00
51 120 -1.94444526849975374e+00
52 120 -1.83595612377346695e+00
53 120 -1.72278549813283877e+00
54 120 -1.60542219724187607e+00
55 120 -1.48438183491026665e+00
56 120 -1.36019952957454171e+00
57 120 -1.23342241930792484e+00
58 120 -1.10460220499439266e+00
59 120 -9.74287920643792327e-01
60 120 -8.43019110717179720e-01
61 120 -7.11319568428310012e-01
62 120 -5.79691758267877999e-01
63 120 -4.48612012577551345e-01
64 120 -3.18526557951937683e-01
65 120 -1.89848394439014051e-01
66 120 -6.29550204974386046e-02
67 120 -3.45710710309399058e-16
68 120 6.29550204974379801e-02
69 120 1.89848394439013551e-01
70 120 3.18526557951937239e-01
71 120 4.48612012577550845e-01
72 120 5.79691758267877777e-01
73 120 7.11319568428310012e-01
74 120 8.43019110717179720e-01
75 120 9.74287920643792105e-01
76 120 1.10460220499439266e+00
77 120 1.23342241930792484e+00
78 120 1.36019952957454127e+00
79 120 1.48438183491026665e+00
80 120 1.60542219724187607e+00
81 120 1.72278549813283877e+00
82 120 1.83595612377346695e+00
83 120 1.94444526849975374e+00
84 120 2.04779784614837013e+00
85 120 2.14559880761331723e+00
86 120 2.23747868193641919e+00
87 120 2.32311818620169186e+00
88 120 2.40225178480927770e+00
89 120 2.47467011924193114e+00
90 120 2.54022127272552911e+00
91 120 2.59881087761926199e+00
92 120 2.65040111444519821e+00
93 120 2.69500868797849291e+00
94 120 2.73270189603074032e+00
95 120 2.76359692930015699e+00
96 120 2.78785355537108837e+00
97 120 2.80567034664705384e+00
98 120 2.81727961123541348e+00
99 120 2.82294217851299045e+00
100 120 2.82294217851299178e+00
101 120 2.82294217851299134e+00
102 120 2.81727961123541437e+00
103 120 2.80567034664705517e+00
104 120 2.78785355537108925e+00
105 120 2.76359692930015699e+00
106 120 2.73270189603074032e+00
107 120 2.69500868797849291e+00
108 120 2.65040111444519910e+00
109 120 2.59881087761926066e+00
110 120 2.54022127272552867e+00
111 120 2.47467011924193203e+00
112 120 2.40225178480927770e+00
113 120 2.32311818620169186e+00
114 120 2.23747868193641919e+00
115 120 2.14559880761331723e+00
116 120 2.04779784614837013e+00
117 120 1.94444526849975374e+00
118 120 1.83595612377346695e+00
119 120 1.72278549813283965e+00
120 120 1.60542219724187607e+00
121 120 1.48438183491026687e+00
122 120 1.36019952957454171e+00
123 120 1.23342241930792507e+00
124 120 1.10460220499439310e+00
125 120 9.74287920643792327e-01
126 120 8.43019110717179720e-01
127 120 7.11319568428310567e-01
128 120 5.79691758267878554e-01
129 120 4.48612012577551733e-01
130 120 3.18526557951938016e-01
131 120 1.89848394439014384e-01
132 120 6.29550204974389099e-02
133 120 6.91421420618798116e-16
1 121 0.00000000000000000e+00
2 121 -6.35801749374516195e-02
3 121 -1.91733622428381156e-01
4 121 -3.21689582765406101e-01
5 121 -4.53066808863696380e-01
6 121 -5.85448199512068612e-01
7 121 -7.18383097007249116e-01
8 121 -8.51390438943535055e-01
9 121 -9.83962771269353609e-01
10 121 -1.11557109941209709e+00
11 121 -1.24567052113919585e+00
12 121 -1.37370655043639989e+00
13 121 -1.49912200793279982e+00
14 121 -1.62136432237775185e+00
15 121 -1.73989306151441636e+00
16 121 -1.85418749139717254e+00
17 121 -1.96375395243569306e+00
18 121 -2.06813283938090464e+00
19 121 -2.16690498161609524e+00
20 121 -2.25969723927140942e+00
21 121 -2.34618715889528184e+00
22 121 -2.42610656807258707e+00
23 121 -2.49924402931913425e+00
24 121 -2.56544611730048189e+00
25 121 -2.62461752728852593e+00
26 121 -2.67672006425126252e+00
27 121 -2.72177059884520345e+00
28 121 -2.75983810709124011e+00
29 121 -2.79103993348168400e+00
30 121 -2.81553743212112817e+00
31 121 -2.83353114727202726e+00
32 121 -2.84525569390215871e+00
33 121 -2.85097449146998905e+00
34 121 -2.85097449146999038e+00
35 121 -2.85097449146998949e+00
36 121 -2.84525569390215960e+00
37 121 -2.83353114727202859e+00
38 121 -2.81553743212112906e+00
39 121 -2.79103993348168400e+00
40 121 -2.75983810709124056e+00
41 121 -2.72177059884520345e+00
42 121 -2.67672006425126341e+00
43 121 -2.62461752728852504e+00
44 121 -2.56544611730048056e+00
45 121 -2.49924402931913514e+00
46 121 -2.42610656807258707e+00
47 121 -2.34618715889528184e+00
48 121 -2.25969723927140942e+00
49 121 -2.16690498161609479e+00
50 121 -2.06813283938090464e+00
51 121 -1.96375395243569306e+00
52 121 -1.85418749139717254e+00
53 121 -1.73989306151441547e+00
54 121 -1.62136432237775185e+00
55 121 -1.49912200793279982e+00
56 121 -1.37370655043640033e+00
57 121 -1.24567052113919585e+00
58 121 -1.11557109941209687e+00
59 121 -9.83962771269353720e-01
60 121 -8.51390438943534944e-01
61 121 -7.18383097007249116e-01
62 121 -5.85448199512068723e-01
63 121 -4.53066808863696657e-01
64 121 -3.21689582765406379e-01
65 121 -1.91733622428381323e-01
66 121 -6.35801749374519803e-02
67 121 -3.49143678542947498e-16
68 121 6.35801749374513420e-02
69 121 1.91733622428380795e-01
70 121 3.21689582765405935e-01
71 121 4.53066808863696213e-01
72 121 5.85448199512068501e-01
73 121 7.18383097007249116e-01
74 121 8.51390438943534944e-01
75 121 9.83962771269353609e-01
76 121 1.11557109941209709e+00
77 121 1.24567052113919585e+00
78 121 1.37370655043639989e+00
79 121 1.49912200793279982e+00
80 121 1.62136432237775185e+00
81 121 1.73989306151441570e+00
82 121 1.85418749139717254e+00
83 121 1.96375395243569306e+00
84 121 2.06813283938090464e+00
85 121 2.16690498161609524e+00
86 121 2.25969723927140942e+00
87 121 2.34618715889528184e+00
88 121 2.42610656807258707e+00
89 121 2.49924402931913425e+00
90 121 2.56544611730048100e+00
91 121 2.62461752728852593e+00
92 121 2.67672006425126252e+00
93 121 2.72177059884520345e+00
94 121 2.75983810709124011e+00
95 121 2.79103993348168400e+00
96 121 2.81553743212112817e+00
97 121 2.83353114727202726e+00
98 121 2.84525569390215871e+00
99 121 2.85097449146998905e+00
100 121 2.85097449146999038e+00
101 121 2.85097449146998949e+00
102 121 2.84525569390215960e+00
103 121 2.83353114727202859e+00
104 121 2.81553743212112906e+00
105 121 2.79103993348168400e+00
106 121 2.75983810709124056e+00
107 121 2.72177059884520345e+00
108 121 2.67672006425126341e+00
109 121 2.62461752728852504e+00
110 121 2.56544611730048056e+00
111 121 2.49924402931913514e+00
112 121 2.42610656807258707e+00
113 121 2.34618715889528184e+00
114 121 2.25969723927140942e+00
115 121 2.16690498161609524e+00
116 121 2.06813283938090464e+00
117 121 1.96375395243569306e+00
118 121 1.85418749139717254e+00
119 121 1.73989306151441636e+00
120 121 1.62136432237775185e+00
121 121 1.49912200793280004e+00
122 121 1.37370655043640033e+00
123 121 1.24567052113919630e+00
124 121 1.11557109941209731e+00
125 121 9.83962771269353720e-01
126 121 8.51390438943534944e-01
127 121 7.18383097007249782e-01
128 121 5.85448199512069167e-01
129 121 4.53066808863697101e-01
130 121 3.21689582765406712e-01
131 121 1.91733622428381656e-01
132 121 6.35801749374522857e-02
133 121 6.98287357085894997e-16
1 122 0.00000000000000000e+00
2 122 -6.41522788744082612e-02
3 122 -1.93458870280343587e-01
4 122 -3.24584193812939181e-01
5 122 -4.57143571868993237e-01
6 122 -5.90716150098152037e-01
7 122 -7.24847215711629356e-01
8 122 -8.59051377632143898e-01
9 122 -9.92816615660561452e-01
10 122 -1.12560917525187865e+00
11 122 -1.25687925106162313e+00
12 122 -1.38606736772733918e+00
13 122 -1.51261133229468525e+00
14 122 -1.63595360139414159e+00
15 122 -1.75554887987847685e+00
16 122 -1.87087174816003388e+00
17 122 -1.98142410462555230e+00
18 122 -2.08674220842908875e+00
19 122 -2.18640311719394020e+00
20 122 -2.28003033348181461e+00
21 122 -2.36729850235669259e+00
22 122 -2.44793703834789156e+00
23 122 -2.52173260142506983e+00
24 122 -2.58853038570964600e+00
25 122 -2.64823422890729843e+00
26 122 -2.70080559230140560e+00
27 122 -2.74626149835317213e+00
28 122 -2.78467154374005599e+00
29 122 -2.81615412883768812e+00
30 122 -2.84087205963905998e+00
31 122 -2.85902768493393777e+00
32 122 -2.87085773079071860e+00
33 122 -2.87662798695561017e+00
34 122 -2.87662798695561195e+00
35 122 -2.87662798695561106e+00
36 122 -2.87085773079071949e+00
37 122 -2.85902768493393911e+00
38 122 -2.84087205963906086e+00
39 122 -2.81615412883768812e+00
40 122 -2.78467154374005688e+00
41 122 -2.74626149835317257e+00
42 122 -2.70080559230140649e+00
43 122 -2.64823422890729843e+00
44 122 -2.58853038570964511e+00
45 122 -2.52173260142507072e+00
46 122 -2.44793703834789156e+00
47 122 -2.36729850235669259e+00
48 122 -2.28003033348181461e+00
49 122 -2.18640311719393976e+00
50 122 -2.08674220842908875e+00
51 122 -1.98142410462555230e+00
52 122 -1.87087174816003365e+00
53 122 -1.75554887987847619e+00
54 122 -1.63595360139414159e+00
55 122 -1.51261133229468525e+00
56 122 -1.38606736772733963e+00
57 122 -1.25687925106162313e+00
58 122 -1.12560917525187820e+00
59 122 -9.92816615660561563e-01
60 122 -8.59051377632143676e-01
61 122 -7.24847215711629467e-01
62 122 -5.90716150098152148e-01
63 122 -4.57143571868993515e-01
64 122 -3.24584193812939348e-01
65 122 -1.93458870280343809e-01
66 122 -6.41522788744086220e-02
67 122 -3.52285325656288299e-16
68 122 6.41522788744079836e-02
69 122 1.93458870280343254e-01
70 122 3.24584193812938959e-01
71 122 4.57143571868993071e-01
72 122 5.90716150098151815e-01
73 122 7.24847215711629356e-01
74 122 8.59051377632143676e-01
75 122 9.92816615660561452e-01
76 122 1.12560917525187865e+00
77 122 1.25687925106162313e+00
78 122 1.38606736772733918e+00
79 122 1.51261133229468525e+00
80 122 1.63595360139414159e+00
81 122 1.75554887987847663e+00
82 122 1.87087174816003388e+00
83 122 1.98142410462555230e+00
84 122 2.08674220842908875e+00
85 122 2.18640311719394020e+00
86 122 2.28003033348181461e+00
87 122 2.36729850235669259e+00
88 122 2.44793703834789156e+00
89 122 2.52173260142506983e+00
90 122 2.58853038570964511e+00
91 122 2.64823422890729843e+00
92 122 2.70080559230140560e+00
93 122 2.74626149835317213e+00
94 122 2.78467154374005599e+00
95 122 2.81615412883768812e+00
96 122 2.84087205963905998e+00
97 122 2.85902768493393777e+00
98 122 2.87085773079071860e+00
99 122 2.87662798695561017e+00
100 122 2.87662798695561195e+00
101 122 2.87662798695561106e+00
102 122 2.87085773079071949e+00
103 122 2.85902768493393911e+00
104 122 2.84087205963906086e+00
105 122 2.81615412883768812e+00
106 122 2.78467154374005688e+00
107 122 2.74626149835317257e+00
108 122 2.70080559230140649e+00
109 122 2.64823422890729843e+00
110 122 2.58853038570964511e+00
111 122 2.52173260142507072e+00
112 122 2.44793703834789156e+00
113 122 2.36729850235669259e+00
114 122 2.28003033348181461e+00
115 122 2.18640311719394020e+00
116 122 2.08674220842908875e+00
117 122 1.98142410462555230e+00
118 122 1.87087174816003365e+00
119 122 1.75554887987847708e+00
120 122 1.63595360139414159e+00
121 122 1.51261133229468547e+00
122 122 1.38606736772733963e+00
123 122 1.25687925106162357e+00
124 122 1.12560917525187887e+00
125 122 9.92816615660561563e-01
126 122 8.59051377632143898e-01
127 122 7.24847215711630022e-01
128 122 5.90716150098152593e-01
129 122 4.57143571868993959e-01
130 122 3.24584193812939681e-01
131 122 1.93458870280344114e-01
132 122 6.41522788744089273e-02
133 122 7.04570651312576598e-16
1 123 0.00000000000000000e+00
2 123 -6.46701321676911994e-02
3 123 -1.95020518827320438e-01
4 123 -3.27204318875724265e-01
5 123 -4.60833749495557998e-01
6 123 -5.95484559094543564e-01
7 123 -7.30698364328159267e-01
8 123 -8.65985855920545111e-01
9 123 -1.00083088051703473e+00
10 123 -1.13469537497199813e+00
11 123 -1.26702509577425571e+00
12 123 -1.39725605133583297e+00
13 123 -1.52482151053978576e+00
14 123 -1.64915942938660609e+00
15 123 -1.76972011096980020e+00
16 123 -1.88597389438295093e+00
17 123 -1.99741865721158485e+00
18 123 -2.10358691517727836e+00
19 123 -2.20405231180633399e+00
20 123 -2.29843531047865746e+00
21 123 -2.38640792991154482e+00
22 123 -2.46769740040049301e+00
23 123 -2.54208865978089982e+00
24 123 -2.60942565254228587e+00
25 123 -2.66961144014415996e+00
26 123 -2.72260717277570752e+00
27 123 -2.76843001030771241e+00
28 123 -2.80715011121947766e+00
29 123 -2.83888683164417710e+00
30 123 -2.86380429178563256e+00
31 123 -2.88210647384381691e+00
32 123 -2.89403201479935479e+00
33 123 -2.89984884991998326e+00
34 123 -2.89984884991998415e+00
35 123 -2.89984884991998326e+00
36 123 -2.89403201479935568e+00
37 123 -2.88210647384381780e+00
38 123 -2.86380429178563300e+00
39 123 -2.83888683164417710e+00
40 123 -2.80715011121947899e+00
41 123 -2.76843001030771330e+00
42 123 -2.72260717277570841e+00
43 123 -2.66961144014415952e+00
44 123 -2.60942565254228498e+00
45 123 -2.54208865978090071e+00
46 123 -2.46769740040049301e+00
47 123 -2.38640792991154482e+00
48 123 -2.29843531047865790e+00
49 123 -2.20405231180633310e+00
50 123 -2.10358691517727836e+00
51 123 -1.99741865721158485e+00
52 123 -1.88597389438295093e+00
53 123 -1.76972011096979931e+00
54 123 -1.64915942938660609e+00
55 123 -1.52482151053978576e+00
56 123 -1.39725605133583342e+00
57 123 -1.26702509577425571e+00
58 123 -1.13469537497199768e+00
59 123 -1.00083088051703495e+00
60 123 -8.65985855920545000e-01
61 123 -7.30698364328159378e-01
62 123 -5.95484559094543675e-01
63 123 -4.60833749495558331e-01
64 123 -3.27204318875724487e-01
65 123 -1.95020518827320660e-01
66 123 -6.46701321676915603e-02
67 123 -3.55129061206564072e-16
68 123 6.46701321676909080e-02
69 123 1.95020518827320077e-01
70 123 3.27204318875724043e-01
71 123 4.60833749495557832e-01
72 123 5.95484559094543342e-01
73 123 7.30698364328159267e-01
74 123 8.65985855920545000e-01
75 123 1.00083088051703473e+00
76 123 1.13469537497199813e+00
77 123 1.26702509577425571e+00
78 123 1.39725605133583297e+00
79 123 1.52482151053978576e+00
80 123 1.64915942938660609e+00
81 123 1.76972011096979975e+00
82 123 1.88597389438295093e+00
83 123 1.99741865721158485e+00
84 123 2.10358691517727836e+00
85 123 2.20405231180633354e+00
86 123 2.29843531047865746e+00
87 123 2.38640792991154482e+00
88 123 2.46769740040049301e+00
89 123 2.54208865978089982e+00
90 123 2.60942565254228498e+00
91 123 2.66961144014415996e+00
92 123 2.72260717277570752e+00
93 123 2.76843001030771241e+00
94 123 2.80715011121947766e+00
95 123 2.83888683164417710e+00
96 123 2.86380429178563256e+00
97 123 2.88210647384381691e+00
98 123 2.89403201479935479e+00
99 123 2.89984884991998326e+00
100 123 2.89984884991998415e+00
101 123 2.89984884991998326e+00
102 123 2.89403201479935568e+00
103 123 2.88210647384381780e+00
104 123 2.86380429178563300e+00
105 123 2.83888683164417710e+00
106 123 2.80715011121947899e+00
107 123 2.76843001030771330e+00
108 123 2.72260717277570841e+00
109 123 2.66961144014415952e+00
110 123 2.60942565254228498e+00
111 123 2.54208865978090071e+00
112 123 2.46769740040049301e+00
113 123 2.38640792991154482e+00
114 123 2.29843531047865790e+00
115 123 2.20405231180633354e+00
116 123 2.10358691517727836e+00
117 123 1.99741865721158485e+00
118 123 1.88597389438295093e+00
119 123 1.76972011096980020e+00
120 123 1.64915942938660609e+00
121 123 1.52482151053978598e+00
122 123 1.39725605133583342e+00
123 123 1.26702509577425637e+00
124 123 1.13469537497199835e+00
125 123 1.00083088051703495e+00
126 123 8.65985855920545111e-01
127 123 7.30698364328159933e-01
128 123 5.95484559094544119e-01
129 123 4.60833749495558664e-01
130 123 3.27204318875724820e-01
131 123 1.95020518827320993e-01
132 123 6.46701321676918794e-02
133 123 7.10258122413128143e-16
1 124 0.00000000000000000e+00
2 124 -6.51329893141174426e-02
3 124 -1.96416319915292736e-01
4 124 -3.29546186013716935e-01
5 124 -4.64132029352406272e-01
6 124 -5.99746561885085017e-01
7 124 -7.35928119525415703e-01
8 124 -8.72183890912610726e-01
9 124 -1.00799402847860309e+00
10 124 -1.14281661805158130e+00
11 124 -1.27609344928805091e+00
12 124 -1.40725649399877817e+00
13 124 -1.53573496485819772e+00
14 124 -1.66096279520482448e+00
15 124 -1.78238635384081490e+00
16 124 -1.89947218897008607e+00
17 124 -2.01171458438702588e+00
18 124 -2.11864270993418069e+00
19 124 -2.21982715761879534e+00
20 124 -2.31488567440082882e+00
21 124 -2.40348793156955276e+00
22 124 -2.48535920715281389e+00
23 124 -2.56028289974282952e+00
24 124 -2.62810183690843635e+00
25 124 -2.68871838630050730e+00
26 124 -2.74209342005231571e+00
27 124 -2.78824422085129209e+00
28 124 -2.82724144931509080e+00
29 124 -2.85920531583274506e+00
30 124 -2.88430111524939115e+00
31 124 -2.90273428970664549e+00
32 124 -2.91474518415801276e+00
33 124 -2.92060365153784574e+00
34 124 -2.92060365153784618e+00
35 124 -2.92060365153784529e+00
36 124 -2.91474518415801365e+00
37 124 -2.90273428970664593e+00
38 124 -2.88430111524939115e+00
39 124 -2.85920531583274506e+00
40 124 -2.82724144931509258e+00
41 124 -2.78824422085129298e+00
42 124 -2.74209342005231616e+00
43 124 -2.68871838630050730e+00
44 124 -2.62810183690843546e+00
45 124 -2.56028289974283041e+00
46 124 -2.48535920715281389e+00
47 124 -2.40348793156955276e+00
48 124 -2.31488567440082971e+00
49 124 -2.21982715761879446e+00
50 124 -2.11864270993418069e+00
51 124 -2.01171458438702588e+00
52 124 -1.89947218897008607e+00
53 124 -1.78238635384081401e+00
54 124 -1.66096279520482448e+00
55 124 -1.53573496485819772e+00
56 124 -1.40725649399877861e+00
57 124 -1.27609344928805113e+00
58 124 -1.14281661805158063e+00
59 124 -1.00799402847860353e+00
60 124 -8.72183890912610504e-01
61 124 -7.35928119525415814e-01
62 124 -5.99746561885085128e-01
63 124 -4.64132029352406605e-01
64 124 -3.29546186013717102e-01
65 124 -1.96416319915292986e-01
66 124 -6.51329893141177896e-02
67 124 -3.57670791343389355e-16
68 124 6.51329893141171373e-02
69 124 1.96416319915292403e-01
70 124 3.29546186013716602e-01
71 124 4.64132029352406161e-01
72 124 5.99746561885084795e-01
73 124 7.35928119525415703e-01
74 124 8.72183890912610504e-01
75 124 1.00799402847860309e+00
76 124 1.14281661805158130e+00
77 124 1.27609344928805091e+00
78 124 1.40725649399877817e+00
79 124 1.53573496485819772e+00
80 124 1.66096279520482448e+00
81 124 1.78238635384081445e+00
82 124 1.89947218897008607e+00
83 124 2.01171458438702588e+00
84 124 2.11864270993418069e+00
85 124 2.21982715761879446e+00
86 124 2.31488567440082882e+00
87 124 2.40348793156955276e+00
88 124 2.48535920715281389e+00
89 124 2.56028289974282952e+00
90 124 2.62810183690843546e+00
91 124 2.68871838630050730e+00
92 124 2.74209342005231571e+00
93 124 2.78824422085129209e+00
94 124 2.82724144931509080e+00
95 124 2.85920531583274506e+00
96 124 2.88430111524939115e+00
97 124 2.90273428970664549e+00
98 124 2.91474518415801276e+00
99 124 2.92060365153784574e+00
100 124 2.92060365153784618e+00
101 124 2.92060365153784529e+00
102 124 2.91474518415801365e+00
103 124 2.90273428970664593e+00
104 124 2.88430111524939115e+00
105 124 2.85920531583274506e+00
106 124 2.82724144931509258e+00
107 124 2.78824422085129298e+00
108 124 2.74209342005231616e+00
109 124 2.68871838630050730e+00
110 124 2.62810183690843546e+00
111 124 2.56028289974283041e+00
112 124 2.48535920715281389e+00
113 124 2.40348793156955276e+00
114 124 2.31488567440082971e+00
115 124 2.21982715761879534e+00
116 124 2.11864270993418069e+00
117 124 2.01171458438702588e+00
118 124 1.89947218897008607e+00
119 124 1.78238635384081490e+00
120 124 1.66096279520482448e+00
121 124 1.53573496485819816e+00
122 124 1.40725649399877861e+00
123 124 1.27609344928805180e+00
124 124 1.14281661805158130e+00
125 124 1.00799402847860353e+00
126 124 8.72183890912610726e-01
127 124 7.35928119525416258e-01
128 124 5.99746561885085461e-01
129 124 4.64132029352406938e-01
130 124 3.29546186013717435e-01
131 124 1.96416319915293291e-01
132 124 6.51329893141181088e-02
133 124 7.15341582686778710e-16
1 125 0.00000000000000000e+00
2 125 -6.55405515402839728e-02
3 125 -1.97645372557327142e-01
4 125 -3.31608283556157346e-01
5 125 -4.67036282406197212e-01
6 125 -6.03499407355124418e-01
7 125 -7.40533105506418821e-01
8 125 -8.77641481788604461e-01
9 125 -1.01430143574695442e+00
10 125 -1.14996766224374847e+00
11 125 -1.28407845799815523e+00
12 125 -1.41606224044955775e+00
13 125 -1.54534465063602711e+00
14 125 -1.67135607979873080e+00
15 125 -1.79353943245596659e+00
16 125 -1.91135791879809336e+00
17 125 -2.02430265815821953e+00
18 125 -2.13189987421306792e+00
19 125 -2.23371747199851534e+00
20 125 -2.32937080656987083e+00
21 125 -2.41852748222230574e+00
22 125 -2.50091105794236679e+00
23 125 -2.57630357696375256e+00
24 125 -2.64454688336679977e+00
25 125 -2.70554273387913113e+00
26 125 -2.75925175579587290e+00
27 125 -2.80569133994889253e+00
28 125 -2.84493258910657332e+00
29 125 -2.87709646586069878e+00
30 125 -2.90234929936998176e+00
31 125 -2.92089781730672637e+00
32 125 -2.93298386855547788e+00
33 125 -2.93887899462443825e+00
34 125 -2.93887899462443869e+00
35 125 -2.93887899462443825e+00
36 125 -2.93298386855547832e+00
37 125 -2.92089781730672726e+00
38 125 -2.90234929936998132e+00
39 125 -2.87709646586069878e+00
40 125 -2.84493258910657465e+00
41 125 -2.80569133994889341e+00
42 125 -2.75925175579587290e+00
43 125 -2.70554273387913158e+00
44 125 -2.64454688336679933e+00
45 125 -2.57630357696375345e+00
46 125 -2.50091105794236679e+00
47 125 -2.41852748222230574e+00
48 125 -2.32937080656987172e+00
49 125 -2.23371747199851445e+00
50 125 -2.13189987421306792e+00
51 125 -2.02430265815821953e+00
52 125 -1.91135791879809314e+00
53 125 -1.79353943245596614e+00
54 125 -1.67135607979873080e+00
55 125 -1.54534465063602711e+00
56 125 -1.41606224044955775e+00
57 125 -1.28407845799815545e+00
58 125 -1.14996766224374780e+00
59 125 -1.01430143574695486e+00
60 125 -8.77641481788604239e-01
61 125 -7.40533105506418932e-01
62 125 -6.03499407355124529e-01
63 125 -4.67036282406197545e-01
64 125 -3.31608283556157568e-01
65 125 -1.97645372557327365e-01
66 125 -6.55405515402843336e-02
67 125 -3.59908875384820914e-16
68 125 6.55405515402836675e-02
69 125 1.97645372557326782e-01
70 125 3.31608283556157069e-01
71 125 4.67036282406197101e-01
72 125 6.03499407355124196e-01
73 125 7.40533105506418821e-01
74 125 8.77641481788604239e-01
75 125 1.01430143574695442e+00
76 125 1.14996766224374847e+00
77 125 1.28407845799815523e+00
78 125 1.41606224044955775e+00
79 125 1.54534465063602711e+00
80 125 1.67135607979873080e+00
81 125 1.79353943245596659e+00
82 125 1.91135791879809336e+00
83 125 2.02430265815821953e+00
84 125 2.13189987421306792e+00
85 125 2.23371747199851445e+00
86 125 2.32937080656987083e+00
87 125 2.41852748222230574e+00
88 125 2.50091105794236679e+00
89 125 2.57630357696375212e+00
90 125 2.64454688336679933e+00
91 125 2.70554273387913113e+00
92 125 2.75925175579587290e+00
93 125 2.80569133994889253e+00
94 125 2.84493258910657332e+00
95 125 2.87709646586069878e+00
96 125 2.90234929936998176e+00
97 125 2.92089781730672637e+00
98 125 2.93298386855547788e+00
99 125 2.93887899462443825e+00
100 125 2.93887899462443869e+00
101 125 2.93887899462443825e+00
102 125 2.93298386855547832e+00
103 125 2.92089781730672726e+00
104 125 2.90234929936998132e+00
105 125 2.87709646586069878e+00
106 125 2.84493258910657465e+00
107 125 2.80569133994889341e+00
108 125 2.75925175579587290e+00
109 125 2.70554273387913158e+00
110 125 2.64454688336679933e+00
111 125 2.57630357696375345e+00
112 125 2.50091105794236679e+00
113 125 2.41852748222230574e+00
114 125 2.32937080656987172e+00
115 125 2.23371747199851534e+00
116 125 2.13189987421306837e+00
117 125 2.02430265815821953e+00
118 125 1.91135791879809314e+00
119 125 1.79353943245596681e+00
120 125 1.67135607979873080e+00
121 125 1.54534465063602777e+00
122 125 1.41606224044955797e+00
123 125 1.28407845799815612e+00
124 125 1.14996766224374847e+00
125 125 1.01430143574695486e+00
126 125 8.77641481788604461e-01
127 125 7.40533105506419265e-01
128 125 6.03499407355124973e-01
129 125 4.67036282406197878e-01
130 125 3.31608283556157901e-01
131 125 1.97645372557327725e-01
132 125 6.55405515402846528e-02
133 125 7.19817750769641828e-16
1 126 0.00000000000000000e+00
2 126 -6.58929508137057196e-02
3 126 -1.98708074717249633e-01
4 126 -3.33391279204492630e-01
5 126 -4.69547449045989329e-01
6 126 -6.06744310665583764e-01
7 126 -7.44514813352816995e-01
8 126 -8.82360395701267897e-01
9 126 -1.01975514464301331e+00
10 126 -1.15615082303671368e+00
11 126 -1.29098270742817300e+00
12 126 -1.42367614196437264e+00
13 126 -1.55365367946279243e+00
14 126 -1.68034264848495973e+00
15 126 -1.80318295815108165e+00
16 126 -1.92163493243322203e+00
17 126 -2.03518695450842957e+00
18 126 -2.14336270064684964e+00
19 126 -2.24572775259064450e+00
20 126 -2.34189539723127993e+00
21 126 -2.43153145163446105e+00
22 126 -2.51435798841516922e+00
23 126 -2.59015587889438059e+00
24 126 -2.65876611677766617e+00
25 126 -2.72008993055696946e+00
26 126 -2.77408773582775403e+00
27 126 -2.82077701692913552e+00
28 126 -2.86022925893576785e+00
29 126 -2.89256607483264006e+00
30 126 -2.91795468809920910e+00
31 126 -2.93660293794376193e+00
32 126 -2.94875397362701319e+00
33 126 -2.95468079668500705e+00
34 126 -2.95468079668500749e+00
35 126 -2.95468079668500705e+00
36 126 -2.94875397362701364e+00
37 126 -2.93660293794376326e+00
38 126 -2.91795468809920866e+00
39 126 -2.89256607483264006e+00
40 126 -2.86022925893576874e+00
41 126 -2.82077701692913596e+00
42 126 -2.77408773582775403e+00
43 126 -2.72008993055696946e+00
44 126 -2.65876611677766528e+00
45 126 -2.59015587889438059e+00
46 126 -2.51435798841516922e+00
47 126 -2.43153145163446105e+00
48 126 -2.34189539723128082e+00
49 126 -2.24572775259064406e+00
50 126 -2.14336270064684964e+00
51 126 -2.03518695450842957e+00
52 126 -1.92163493243322181e+00
53 126 -1.80318295815108121e+00
54 126 -1.68034264848495973e+00
55 126 -1.55365367946279243e+00
56 126 -1.42367614196437264e+00
57 126 -1.29098270742817345e+00
58 126 -1.15615082303671324e+00
59 126 -1.01975514464301376e+00
60 126 -8.82360395701267786e-01
61 126 -7.44514813352817106e-01
62 126 -6.06744310665583764e-01
63 126 -4.69547449045989662e-01
64 126 -3.33391279204492907e-01
65 126 -1.98708074717249855e-01
66 126 -6.58929508137060804e-02
67 126 -3.61844038016244472e-16
68 126 6.58929508137054143e-02
69 126 1.98708074717249272e-01
70 126 3.33391279204492408e-01
71 126 4.69547449045989163e-01
72 126 6.06744310665583542e-01
73 126 7.44514813352816995e-01
74 126 8.82360395701267786e-01
75 126 1.01975514464301331e+00
76 126 1.15615082303671368e+00
77 126 1.29098270742817300e+00
78 126 1.42367614196437264e+00
79 126 1.55365367946279243e+00
80 126 1.68034264848495973e+00
81 126 1.80318295815108165e+00
82 126 1.92163493243322203e+00
83 126 2.03518695450842957e+00
84 126 2.14336270064684964e+00
85 126 2.24572775259064406e+00
86 126 2.34189539723127993e+00
87 126 2.43153145163446105e+00
88 126 2.51435798841516922e+00
89 126 2.59015587889437970e+00
90 126 2.65876611677766528e+00
91 126 2.72008993055696946e+00
92 126 2.77408773582775403e+00
93 126 2.82077701692913552e+00
94 126 2.86022925893576785e+00
95 126 2.89256607483264006e+00
96 126 2.91795468809920910e+00
97 126 2.93660293794376193e+00
98 126 2.94875397362701319e+00
99 126 2.95468079668500705e+00
100 126 2.95468079668500749e+00
101 126 2.95468079668500705e+00
102 126 2.94875397362701364e+00
103 126 2.93660293794376326e+00
104 126 2.91795468809920866e+00
105 126 2.89256607483264006e+00
106 126 2.86022925893576874e+00
107 126 2.82077701692913596e+00
108 126 2.77408773582775403e+00
109 126 2.72008993055696946e+00
110 126 2.65876611677766528e+00
111 126 2.59015587889438059e+00
112 126 2.51435798841516922e+00
113 126 2.43153145163446149e+00
114 126 2.34189539723128082e+00
115 126 2.24572775259064494e+00
116 126 2.14336270064685008e+00
117 126 2.03518695450842957e+00
118 126 1.92163493243322181e+00
119 126 1.80318295815108187e+00
120 126 1.68034264848495973e+00
121 126 1.55365367946279309e+00
122 126 1.42367614196437309e+00
123 126 1.29098270742817411e+00
124 126 1.15615082303671368e+00
125 126 1.01975514464301376e+00
126 126 8.82360395701267897e-01
127 126 7.44514813352817328e-01
128 126 6.06744310665584208e-01
129 126 4.69547449045989995e-01
130 126 3.33391279204493240e-01
131 126 1.98708074717250244e-01
132 126 6.58929508137063996e-02
133 126 7.23688076032488943e-16
1 127 0.00000000000000000e+00
2 127 -6.61907266862407501e-02
3 127 -1.99606053478224688e-01
4 127 -3.34897902869615183e-01
5 127 -4.71669374071498781e-01
6 127 -6.09486240026508974e-01
7 127 -7.47879339382136576e-01
8 127 -8.86347857690383156e-01
9 127 -1.02436350523725439e+00
10 127 -1.16137556735094516e+00
11 127 -1.29681676854373773e+00
12 127 -1.43010985604373309e+00
13 127 -1.56067477313527436e+00
14 127 -1.68793626042874800e+00
15 127 -1.81133169594583876e+00
16 127 -1.93031896481654730e+00
17 127 -2.04438413817780296e+00
18 127 -2.15304873975213384e+00
19 127 -2.25587638810849267e+00
20 127 -2.35247862254877838e+00
21 127 -2.44251974993747467e+00
22 127 -2.52572058691197210e+00
23 127 -2.60186101453203156e+00
24 127 -2.67078130794019852e+00
25 127 -2.73238224927153617e+00
26 127 -2.78662407523620237e+00
27 127 -2.83352434918653495e+00
28 127 -2.87315487924434620e+00
29 127 -2.90563782797409065e+00
30 127 -2.93114117455241052e+00
31 127 -2.94987369743072714e+00
32 127 -2.96207964468203055e+00
33 127 -2.96803325155962439e+00
34 127 -2.96803325155962439e+00
35 127 -2.96803325155962394e+00
36 127 -2.96207964468203144e+00
37 127 -2.94987369743072847e+00
38 127 -2.93114117455241008e+00
39 127 -2.90563782797409065e+00
40 127 -2.87315487924434754e+00
41 127 -2.83352434918653584e+00
42 127 -2.78662407523620237e+00
43 127 -2.73238224927153572e+00
44 127 -2.67078130794019764e+00
45 127 -2.60186101453203156e+00
46 127 -2.52572058691197210e+00
47 127 -2.44251974993747467e+00
48 127 -2.35247862254877926e+00
49 127 -2.25587638810849223e+00
50 127 -2.15304873975213384e+00
51 127 -2.04438413817780296e+00
52 127 -1.93031896481654686e+00
53 127 -1.81133169594583832e+00
54 127 -1.68793626042874800e+00
55 127 -1.56067477313527436e+00
56 127 -1.43010985604373309e+00
57 127 -1.29681676854373795e+00
58 127 -1.16137556735094472e+00
59 127 -1.02436350523725483e+00
60 127 -8.86347857690382934e-01
61 127 -7.47879339382136576e-01
62 127 -6.09486240026508974e-01
63 127 -4.71669374071499115e-01
64 127 -3.34897902869615460e-01
65 127 -1.99606053478224937e-01
66 127 -6.61907266862410970e-02
67 127 -3.63479242128540368e-16
68 127 6.61907266862404309e-02
69 127 1.99606053478224327e-01
70 127 3.34897902869614961e-01
71 127 4.71669374071498615e-01
72 127 6.09486240026508752e-01
73 127 7.47879339382136465e-01
74 127 8.86347857690382934e-01
75 127 1.02436350523725439e+00
76 127 1.16137556735094516e+00
77 127 1.29681676854373773e+00
78 127 1.43010985604373309e+00
79 127 1.56067477313527436e+00
80 127 1.68793626042874800e+00
81 127 1.81133169594583876e+00
82 127 1.93031896481654730e+00
83 127 2.04438413817780296e+00
84 127 2.15304873975213384e+00
85 127 2.25587638810849223e+00
86 127 2.35247862254877838e+00
87 127 2.44251974993747467e+00
88 127 2.52572058691197210e+00
89 127 2.60186101453203067e+00
90 127 2.67078130794019764e+00
91 127 2.73238224927153617e+00
92 127 2.78662407523620237e+00
93 127 2.83352434918653495e+00
94 127 2.87315487924434620e+00
95 127 2.90563782797409065e+00
96 127 2.93114117455241052e+00
97 127 2.94987369743072714e+00
98 127 2.96207964468203055e+00
99 127 2.96803325155962439e+00
100 127 2.96803325155962439e+00
101 127 2.96803325155962394e+00
102 127 2.96207964468203144e+00
103 127 2.94987369743072847e+00
104 127 2.93114117455241008e+00
105 127 2.90563782797409065e+00
106 127 2.87315487924434754e+00
107 127 2.83352434918653584e+00
108 127 2.78662407523620237e+00
109 127 2.73238224927153572e+00
110 127 2.67078130794019764e+00
111 127 2.60186101453203156e+00
112 127 2.52572058691197210e+00
113 127 2.44251974993747512e+00
114 127 2.35247862254877926e+00
115 127 2.25587638810849311e+00
116 127 2.15304873975213429e+00
117 127 2.04438413817780296e+00
118 127 1.93031896481654686e+00
119 127 1.81133169594583898e+00
120 127 1.68793626042874823e+00
121 127 1.56067477313527503e+00
122 127 1.43010985604373353e+00
123 127 1.29681676854373884e+00
124 127 1.16137556735094516e+00
125 127 1.02436350523725483e+00
126 127 8.86347857690383156e-01
127 127 7.47879339382136799e-01
128 127 6.09486240026509418e-01
129 127 4.71669374071499392e-01
130 127 3.34897902869615793e-01
131 127 1.99606053478225326e-01
132 127 6.61907266862414301e-02
133 127 7.26958484257080737e-16
1 128 0.00000000000000000e+00
2 128 -6.64347970629528412e-02
3 128 -2.00342076892764009e-01
4 128 -3.36132798774308017e-01
5 128 -4.73408598394550684e-01
6 128 -6.11733647535860792e-01
7 128 -7.50637054869435105e-01
8 128 -8.89616159253982963e-01
9 128 -1.02814072297046510e+00
10 128 -1.16565800065268554e+00
11 128 -1.30159862505251112e+00
12 128 -1.43538321484758580e+00
13 128 -1.56642957443258912e+00
14 128 -1.69416032321781085e+00
15 128 -1.81801076462377731e+00
16 128 -1.93743678479683767e+00
17 128 -2.05192255982279459e+00
18 128 -2.16098784910021191e+00
19 128 -2.26419466209378184e+00
20 128 -2.36115310570310832e+00
21 128 -2.45152624896444360e+00
22 128 -2.53503387905996735e+00
23 128 -2.61145506538721550e+00
24 128 -2.68062949412244933e+00
25 128 -2.74245758154674091e+00
26 128 -2.79689941774787876e+00
27 128 -2.84397263084095897e+00
28 128 -2.88374929373164246e+00
29 128 -2.91635201944420785e+00
30 128 -2.94194940655839154e+00
31 128 -2.96075100337114838e+00
32 128 -2.97300195859098260e+00
33 128 -2.97897751868084892e+00
34 128 -2.97897751868084892e+00
35 128 -2.97897751868084892e+00
36 128 -2.97300195859098348e+00
37 128 -2.96075100337114927e+00
38 128 -2.94194940655839066e+00
39 128 -2.91635201944420785e+00
40 128 -2.88374929373164335e+00
41 128 -2.84397263084096030e+00
42 128 -2.79689941774787920e+00
43 128 -2.74245758154674046e+00
44 128 -2.68062949412244844e+00
45 128 -2.61145506538721550e+00
46 128 -2.53503387905996735e+00
47 128 -2.45152624896444360e+00
48 128 -2.36115310570310877e+00
49 128 -2.26419466209378184e+00
50 128 -2.16098784910021191e+00
51 128 -2.05192255982279459e+00
52 128 -1.93743678479683745e+00
53 128 -1.81801076462377709e+00
54 128 -1.69416032321781063e+00
55 128 -1.56642957443258912e+00
56 128 -1.43538321484758558e+00
57 128 -1.30159862505251112e+00
58 128 -1.16565800065268532e+00
59 128 -1.02814072297046555e+00
60 128 -8.89616159253982852e-01
61 128 -7.50637054869435216e-01
62 128 -6.11733647535860792e-01
63 128 -4.73408598394551017e-01
64 128 -3.36132798774308239e-01
65 128 -2.00342076892764259e-01
66 128 -6.64347970629531881e-02
67 128 -3.64819528298442524e-16
68 128 6.64347970629525220e-02
69 128 2.00342076892763676e-01
70 128 3.36132798774307684e-01
71 128 4.73408598394550462e-01
72 128 6.11733647535860570e-01
73 128 7.50637054869434994e-01
74 128 8.89616159253982852e-01
75 128 1.02814072297046510e+00
76 128 1.16565800065268554e+00
77 128 1.30159862505251112e+00
78 128 1.43538321484758580e+00
79 128 1.56642957443258912e+00
80 128 1.69416032321781085e+00
81 128 1.81801076462377731e+00
82 128 1.93743678479683767e+00
83 128 2.05192255982279459e+00
84 128 2.16098784910021191e+00
85 128 2.26419466209378184e+00
86 128 2.36115310570310832e+00
87 128 2.45152624896444360e+00
88 128 2.53503387905996735e+00
89 128 2.61145506538721417e+00
90 128 2.68062949412244844e+00
91 128 2.74245758154674091e+00
92 128 2.79689941774787876e+00
93 128 2.84397263084095897e+00
94 128 2.88374929373164246e+00
95 128 2.91635201944420785e+00
96 128 2.94194940655839154e+00
97 128 2.96075100337114838e+00
98 128 2.97300195859098260e+00
99 128 2.97897751868084892e+00
100 128 2.97897751868084892e+00
101 128 2.97897751868084892e+00
102 128 2.97300195859098348e+00
103 128 2.96075100337114927e+00
104 128 2.94194940655839066e+00
105 128 2.91635201944420785e+00
106 128 2.88374929373164335e+00
107 128 2.84397263084096030e+00
108 128 2.79689941774787920e+00
109 128 2.74245758154674046e+00
110 128 2.68062949412244844e+00
111 128 2.61145506538721550e+00
112 128 2.53503387905996735e+00
113 128 2.45152624896444404e+00
114 128 2.36115310570310921e+00
115 128 2.26419466209378228e+00
116 128 2.16098784910021235e+00
117 128 2.05192255982279459e+00
118 128 1.93743678479683745e+00
119 128 1.81801076462377753e+00
120 128 1.69416032321781107e+00
121 128 1.56642957443258979e+00
122 128 1.43538321484758602e+00
123 128 1.30159862505251223e+00
124 128 1.16565800065268577e+00
125 128 1.02814072297046555e+00
126 128 8.89616159253983074e-01
127 128 7.50637054869435327e-01
128 128 6.11733647535861236e-01
129 128 4.73408598394551294e-01
130 128 3.36132798774308572e-01
131 128 2.00342076892764620e-01
132 128 6.64347970629535212e-02
133 128 7.29639056596885048e-16
1 129 0.00000000000000000e+00
2 129 -6.66264241057615975e-02
3 129 -2.00919951161104809e-01
4 129 -3.37102352939711913e-01
5 129 -4.74774116071448593e-01
6 129 -6.13498155219278973e-01
7 129 -7.52802220797630706e-01
8 129 -8.92182201770394534e-01
9 129 -1.03110633098078819e+00
10 129 -1.16902026870296316e+00
11 129 -1.30535300538434851e+00
12 129 -1.43952348851317580e+00
13 129 -1.57094784317708847e+00
14 129 -1.69904702336795199e+00
15 129 -1.82325470367410958e+00
16 129 -1.94302520077931917e+00
17 129 -2.05784120290736361e+00
18 129 -2.16722108423264270e+00
19 129 -2.27072559086337300e+00
20 129 -2.36796370507674458e+00
21 129 -2.45859752405258636e+00
22 129 -2.54234602671662291e+00
23 129 -2.61898764520579874e+00
24 129 -2.68836160328111573e+00
25 129 -2.75036802998059793e+00
26 129 -2.80496690027437223e+00
27 129 -2.85217589312473851e+00
28 129 -2.89206728932717327e+00
29 129 -2.92476405557560248e+00
30 129 -2.95043527676188644e+00
31 129 -2.96929110561201837e+00
32 129 -2.98157739795071386e+00
33 129 -2.98757019417224301e+00
34 129 -2.98757019417224301e+00
35 129 -2.98757019417224301e+00
36 129 -2.98157739795071475e+00
37 129 -2.96929110561201925e+00
38 129 -2.95043527676188599e+00
39 129 -2.92476405557560248e+00
40 129 -2.89206728932717416e+00
41 129 -2.85217589312473940e+00
42 129 -2.80496690027437312e+00
43 129 -2.75036802998059793e+00
44 129 -2.68836160328111440e+00
45 129 -2.61898764520579874e+00
46 129 -2.54234602671662291e+00
47 129 -2.45859752405258636e+00
48 129 -2.36796370507674458e+00
49 129 -2.27072559086337300e+00
50 129 -2.16722108423264270e+00
51 129 -2.05784120290736361e+00
52 129 -1.94302520077931873e+00
53 129 -1.82325470367410936e+00
54 129 -1.69904702336795177e+00
55 129 -1.57094784317708847e+00
56 129 -1.43952348851317535e+00
57 129 -1.30535300538434851e+00
58 129 -1.16902026870296272e+00
59 129 -1.03110633098078841e+00
60 129 -8.92182201770394534e-01
61 129 -7.52802220797630928e-01
62 129 -6.13498155219278973e-01
63 129 -4.74774116071448926e-01
64 129 -3.37102352939712135e-01
65 129 -2.00919951161105059e-01
66 129 -6.66264241057619444e-02
67 129 -3.65871827552107303e-16
68 129 6.66264241057612783e-02
69 129 2.00919951161104476e-01
70 129 3.37102352939711580e-01
71 129 4.74774116071448316e-01
72 129 6.13498155219278751e-01
73 129 7.52802220797630595e-01
74 129 8.92182201770394534e-01
75 129 1.03110633098078819e+00
76 129 1.16902026870296316e+00
77 129 1.30535300538434851e+00
78 129 1.43952348851317580e+00
79 129 1.57094784317708847e+00
80 129 1.69904702336795199e+00
81 129 1.82325470367410958e+00
82 129 1.94302520077931917e+00
83 129 2.05784120290736361e+00
84 129 2.16722108423264270e+00
85 129 2.27072559086337300e+00
86 129 2.36796370507674458e+00
87 129 2.45859752405258636e+00
88 129 2.54234602671662291e+00
89 129 2.61898764520579785e+00
90 129 2.68836160328111440e+00
91 129 2.75036802998059793e+00
92 129 2.80496690027437223e+00
93 129 2.85217589312473851e+00
94 129 2.89206728932717327e+00
95 129 2.92476405557560248e+00
96 129 2.95043527676188644e+00
97 129 2.96929110561201837e+00
98 129 2.98157739795071386e+00
99 129 2.98757019417224301e+00
100 129 2.98757019417224301e+00
101 129 2.98757019417224301e+00
102 129 2.98157739795071475e+00
103 129 2.96929110561201925e+00
104 129 2.95043527676188599e+00
105 129 2.92476405557560248e+00
106 129 2.89206728932717416e+00
107 129 2.85217589312473940e+00
108 129 2.80496690027437312e+00
109 129 2.75036802998059793e+00
110 129 2.68836160328111440e+00
111 129 2.61898764520579874e+00
112 129 2.54234602671662291e+00
113 129 2.45859752405258680e+00
114 129 2.36796370507674503e+00
115 129 2.27072559086337344e+00
116 129 2.16722108423264315e+00
117 129 2.05784120290736361e+00
118 129 1.94302520077931873e+00
119 129 1.82325470367411002e+00
120 129 1.69904702336795244e+00
121 129 1.57094784317708913e+00
122 129 1.43952348851317602e+00
123 129 1.30535300538434917e+00
124 129 1.16902026870296316e+00
125 129 1.03110633098078863e+00
126 129 8.92182201770394867e-01
127 129 7.52802220797631039e-01
128 129 6.13498155219279417e-01
129 129 4.74774116071449204e-01
130 129 3.37102352939712469e-01
131 129 2.00919951161105420e-01
132 129 6.66264241057622775e-02
133 129 7.31743655104214607e-16
1 130 0.00000000000000000e+00
2 130 -6.67671765341731199e-02
3 130 -2.01344406944554327e-01
4 130 -3.37814502442500553e-01
5 130 -4.75777105661253308e-01
6 130 -6.14794207894056033e-01
7 130 -7.54392561898973080e-01
8 130 -8.94066991674252964e-01
9 130 -1.03328460667221167e+00
10 130 -1.17148989609015475e+00
11 130 -1.30811064408262956e+00
12 130 -1.44256457062861454e+00
13 130 -1.57426656734400483e+00
14 130 -1.70263636495027693e+00
15 130 -1.82710644163842706e+00
16 130 -1.94712996130256677e+00
17 130 -2.06218851931346014e+00
18 130 -2.17179947238125770e+00
19 130 -2.27552263866325033e+00
20 130 -2.37296617438758206e+00
21 130 -2.46379146289354312e+00
22 130 -2.54771688943251373e+00
23 130 -2.62452041806566827e+00
24 130 -2.69404093290429136e+00
25 130 -2.75617835200284311e+00
26 130 -2.81089256577610902e+00
27 130 -2.85820129053428396e+00
28 130 -2.89817695977048206e+00
29 130 -2.93094279995335194e+00
30 130 -2.95666825317701054e+00
31 130 -2.97556391612804161e+00
32 130 -2.98787616401674683e+00
33 130 -2.99388162038974714e+00
34 130 -2.99388162038974670e+00
35 130 -2.99388162038974714e+00
36 130 -2.98787616401674727e+00
37 130 -2.97556391612804250e+00
38 130 -2.95666825317701010e+00
39 130 -2.93094279995335194e+00
40 130 -2.89817695977048340e+00
41 130 -2.85820129053428484e+00
42 130 -2.81089256577610991e+00
43 130 -2.75617835200284311e+00
44 130 -2.69404093290429048e+00
45 130 -2.62452041806566827e+00
46 130 -2.54771688943251373e+00
47 130 -2.46379146289354312e+00
48 130 -2.37296617438758206e+00
49 130 -2.27552263866325033e+00
50 130 -2.17179947238125770e+00
51 130 -2.06218851931345970e+00
52 130 -1.94712996130256633e+00
53 130 -1.82710644163842684e+00
54 130 -1.70263636495027648e+00
55 130 -1.57426656734400483e+00
56 130 -1.44256457062861410e+00
57 130 -1.30811064408262956e+00
58 130 -1.17148989609015430e+00
59 130 -1.03328460667221167e+00
60 130 -8.94066991674252964e-01
61 130 -7.54392561898973191e-01
62 130 -6.14794207894056033e-01
63 130 -4.75777105661253641e-01
64 130 -3.37814502442500830e-01
65 130 -2.01344406944554577e-01
66 130 -6.67671765341734808e-02
67 130 -3.66644754343639387e-16
68 130 6.67671765341728007e-02
69 130 2.01344406944553966e-01
70 130 3.37814502442500220e-01
71 130 4.75777105661253086e-01
72 130 6.14794207894055811e-01
73 130 7.54392561898972858e-01
74 130 8.94066991674252964e-01
75 130 1.03328460667221167e+00
76 130 1.17148989609015475e+00
77 130 1.30811064408262956e+00
78 130 1.44256457062861454e+00
79 130 1.57426656734400483e+00
80 130 1.70263636495027693e+00
81 130 1.82710644163842706e+00
82 130 1.94712996130256677e+00
83 130 2.06218851931346014e+00
84 130 2.17179947238125770e+00
85 130 2.27552263866325033e+00
86 130 2.37296617438758162e+00
87 130 2.46379146289354312e+00
88 130 2.54771688943251373e+00
89 130 2.62452041806566738e+00
90 130 2.69404093290429048e+00
91 130 2.75617835200284311e+00
92 130 2.81089256577610902e+00
93 130 2.85820129053428396e+00
94 130 2.89817695977048206e+00
95 130 2.93094279995335194e+00
96 130 2.95666825317701054e+00
97 130 2.97556391612804161e+00
98 130 2.98787616401674683e+00
99 130 2.99388162038974714e+00
100 130 2.99388162038974670e+00
101 130 2.99388162038974714e+00
102 130 2.98787616401674727e+00
103 130 2.97556391612804250e+00
104 130 2.95666825317701010e+00
105 130 2.93094279995335194e+00
106 130 2.89817695977048340e+00
107 130 2.85820129053428484e+00
108 130 2.81089256577610991e+00
109 130 2.75617835200284311e+00
110 130 2.69404093290429048e+00
111 130 2.62452041806566827e+00
112 130 2.54771688943251373e+00
113 130 2.46379146289354356e+00
114 130 2.37296617438758295e+00
115 130 2.27552263866325077e+00
116 130 2.17179947238125814e+00
117 130 2.06218851931346014e+00
118 130 1.94712996130256633e+00
119 130 1.82710644163842750e+00
120 130 1.70263636495027737e+00
121 130 1.57426656734400572e+00
122 130 1.44256457062861498e+00
123 130 1.30811064408263000e+00
124 130 1.17148989609015497e+00
125 130 1.03328460667221211e+00
126 130 8.94066991674253186e-01
127 130 7.54392561898973302e-01
128 130 6.14794207894056588e-01
129 130 4.75777105661253918e-01
130 130 3.37814502442501163e-01
131 130 2.01344406944554966e-01
132 130 6.67671765341738138e-02
133 130 7.33289508687278773e-16
1 131 0.00000000000000000e+00
2 131 -6.68588895793322535e-02
3 131 -2.01620978602144119e-01
4 131 -3.38278532798824916e-01
5 131 -4.76430644861834340e-01
6 131 -6.15638704424822381e-01
7 131 -7.55428814181735797e-01
8 131 -8.95295104208572168e-01
9 131 -1.03470395196600995e+00
10 131 -1.17309908358797577e+00
11 131 -1.30990749721917799e+00
12 131 -1.44454611300435554e+00
13 131 -1.57642901884005493e+00
14 131 -1.70497514837551822e+00
15 131 -1.82961620023974780e+00
16 131 -1.94980458717925420e+00
17 131 -2.06502119247137994e+00
18 131 -2.17478270985551525e+00
19 131 -2.27864835284428269e+00
20 131 -2.37622573941953030e+00
21 131 -2.46717578778832758e+00
22 131 -2.55121649636906955e+00
23 131 -2.62812552422887302e+00
24 131 -2.69774153416625362e+00
25 131 -2.75996430676063476e+00
26 131 -2.81475367733128445e+00
27 131 -2.86212738652395826e+00
28 131 -2.90215796732820897e+00
29 131 -2.93496881547961008e+00
30 131 -2.96072960582213041e+00
31 131 -2.97965122432317076e+00
32 131 -2.99198038462011695e+00
33 131 -2.99799409023653496e+00
34 131 -2.99799409023653451e+00
35 131 -2.99799409023653451e+00
36 131 -2.99198038462011695e+00
37 131 -2.97965122432317164e+00
38 131 -2.96072960582213041e+00
39 131 -2.93496881547961008e+00
40 131 -2.90215796732821030e+00
41 131 -2.86212738652395915e+00
42 131 -2.81475367733128534e+00
43 131 -2.75996430676063520e+00
44 131 -2.69774153416625317e+00
45 131 -2.62812552422887302e+00
46 131 -2.55121649636906955e+00
47 131 -2.46717578778832758e+00
48 131 -2.37622573941953030e+00
49 131 -2.27864835284428269e+00
50 131 -2.17478270985551525e+00
51 131 -2.06502119247137950e+00
52 131 -1.94980458717925376e+00
53 131 -1.82961620023974758e+00
54 131 -1.70497514837551778e+00
55 131 -1.57642901884005471e+00
56 131 -1.44454611300435531e+00
57 131 -1.30990749721917799e+00
58 131 -1.17309908358797532e+00
59 131 -1.03470395196600995e+00
60 131 -8.95295104208572168e-01
61 131 -7.55428814181735908e-01
62 131 -6.15638704424822381e-01
63 131 -4.76430644861834673e-01
64 131 -3.38278532798825193e-01
65 131 -2.01620978602144396e-01
66 131 -6.68588895793326282e-02
67 131 -3.67148386647085221e-16
68 131 6.68588895793319482e-02
69 131 2.01620978602143786e-01
70 131 3.38278532798824583e-01
71 131 4.76430644861834174e-01
72 131 6.15638704424822047e-01
73 131 7.55428814181735686e-01
74 131 8.95295104208572168e-01
75 131 1.03470395196600995e+00
76 131 1.17309908358797577e+00
77 131 1.30990749721917799e+00
78 131 1.44454611300435554e+00
79 131 1.57642901884005493e+00
80 131 1.70497514837551822e+00
81 131 1.82961620023974780e+00
82 131 1.94980458717925420e+00
83 131 2.06502119247137994e+00
84 131 2.17478270985551525e+00
85 131 2.27864835284428269e+00
86 131 2.37622573941953030e+00
87 131 2.46717578778832758e+00
88 131 2.55121649636906955e+00
89 131 2.62812552422887302e+00
90 131 2.69774153416625317e+00
91 131 2.75996430676063476e+00
92 131 2.81475367733128445e+00
93 131 2.86212738652395826e+00
94 131 2.90215796732820897e+00
95 131 2.93496881547961008e+00
96 131 2.96072960582213041e+00
97 131 2.97965122432317076e+00
98 131 2.99198038462011695e+00
99 131 2.99799409023653496e+00
100 131 2.99799409023653451e+00
101 131 2.99799409023653451e+00
102 131 2.99198038462011695e+00
103 131 2.97965122432317164e+00
104 131 2.96072960582213041e+00
105 131 2.93496881547961008e+00
106 131 2.90215796732821030e+00
107 131 2.86212738652395915e+00
108 131 2.81475367733128534e+00
109 131 2.75996430676063520e+00
110 131 2.69774153416625317e+00
111 131 2.62812552422887302e+00
112 131 2.55121649636906955e+00
113 131 2.46717578778832802e+00
114 131 2.37622573941953164e+00
115 131 2.27864835284428313e+00
116 131 2.17478270985551569e+00
117 131 2.06502119247137994e+00
118 131 1.94980458717925398e+00
119 131 1.82961620023974847e+00
120 131 1.70497514837551845e+00
121 131 1.57642901884005560e+00
122 131 1.44454611300435620e+00
123 131 1.30990749721917865e+00
124 131 1.17309908358797599e+00
125 131 1.03470395196601039e+00
126 131 8.95295104208572501e-01
127 131 7.55428814181736130e-01
128 131 6.15638704424822936e-01
129 131 4.76430644861834895e-01
130 131 3.38278532798825526e-01
131 131 2.01620978602144757e-01
132 131 6.68588895793329613e-02
133 131 7.34296773294170442e-16
1 132 0.00000000000000000e+00
2 132 -6.69036237900561548e-02
3 132 -2.01755879965297091e-01
4 132 -3.38504869539755004e-01
5 132 -4.76749416965240091e-01
6 132 -6.16050618408240380e-01
7 132 -7.55934259485615878e-01
8 132 -8.95894131803911198e-01
9 132 -1.03539625578552208e+00
10 132 -1.17388398537045258e+00
11 132 -1.31078393531706028e+00
12 132 -1.44551263564070376e+00
13 132 -1.57748378221353880e+00
14 132 -1.70611591990263078e+00
15 132 -1.83084036709564946e+00
16 132 -1.95110917015725627e+00
17 132 -2.06640286503212023e+00
18 132 -2.17623782208716454e+00
19 132 -2.28017295991184188e+00
20 132 -2.37781563395148510e+00
21 132 -2.46882653553897446e+00
22 132 -2.55292347440996936e+00
23 132 -2.62988396086683451e+00
24 132 -2.69954654975995156e+00
25 132 -2.76181095461353676e+00
26 132 -2.81663698387331474e+00
27 132 -2.86404239005502204e+00
28 132 -2.90409975467887227e+00
29 132 -2.93693255604254588e+00
30 132 -2.96271058251672814e+00
31 132 -2.98164486116923966e+00
32 132 -2.99398227070960354e+00
33 132 -3.00000000000000089e+00
34 132 -3.00000000000000044e+00
35 132 -3.00000000000000044e+00
36 132 -2.99398227070960354e+00
37 132 -2.98164486116924055e+00
38 132 -2.96271058251672814e+00
39 132 -2.93693255604254588e+00
40 132 -2.90409975467887316e+00
41 132 -2.86404239005502292e+00
42 132 -2.81663698387331563e+00
43 132 -2.76181095461353721e+00
44 132 -2.69954654975995156e+00
45 132 -2.62988396086683451e+00
46 132 -2.55292347440996936e+00
47 132 -2.46882653553897446e+00
48 132 -2.37781563395148510e+00
49 132 -2.28017295991184188e+00
50 132 -2.17623782208716454e+00
51 132 -2.06640286503211978e+00
52 132 -1.95110917015725582e+00
53 132 -1.83084036709564923e+00
54 132 -1.70611591990263034e+00
55 132 -1.57748378221353835e+00
56 132 -1.44551263564070354e+00
57 132 -1.31078393531706028e+00
58 132 -1.17388398537045235e+00
59 132 -1.03539625578552208e+00
60 132 -8.95894131803911198e-01
61 132 -7.55934259485615989e-01
62 132 -6.16050618408240602e-01
63 132 -4.76749416965240369e-01
64 132 -3.38504869539755282e-01
65 132 -2.01755879965297397e-01
66 132 -6.69036237900565295e-02
67 132 -3.67394039744205938e-16
68 132 6.69036237900558495e-02
69 132 2.01755879965296786e-01
70 132 3.38504869539754782e-01
71 132 4.76749416965239869e-01
72 132 6.16050618408240158e-01
73 132 7.55934259485615767e-01
74 132 8.95894131803911198e-01
75 132 1.03539625578552208e+00
76 132 1.17388398537045258e+00
77 132 1.31078393531706028e+00
78 132 1.44551263564070376e+00
79 132 1.57748378221353880e+00
80 132 1.70611591990263078e+00
81 132 1.83084036709564946e+00
82 132 1.95110917015725627e+00
83 132 2.06640286503212023e+00
84 132 2.17623782208716454e+00
85 132 2.28017295991184188e+00
86 132 2.37781563395148510e+00
87 132 2.46882653553897446e+00
88 132 2.55292347440996936e+00
89 132 2.62988396086683451e+00
90 132 2.69954654975995156e+00
91 132 2.76181095461353676e+00
92 132 2.81663698387331474e+00
93 132 2.86404239005502204e+00
94 132 2.90409975467887227e+00
95 132 2.93693255604254588e+00
96 132 2.96271058251672814e+00
97 132 2.98164486116923966e+00
98 132 2.99398227070960354e+00
99 132 3.00000000000000089e+00
100 132 3.00000000000000044e+00
101 132 3.00000000000000044e+00
102 132 2.99398227070960354e+00
103 132 2.98164486116924055e+00
104 132 2.96271058251672814e+00
105 132 2.93693255604254588e+00
106 132 2.90409975467887316e+00
107 132 2.86404239005502292e+00
108 132 2.81663698387331563e+00
109 132 2.76181095461353721e+00
110 132 2.69954654975995156e+00
111 132 2.62988396086683451e+00
112 132 2.55292347440996936e+00
113 132 2.46882653553897491e+00
114 132 2.37781563395148643e+00
115 132 2.28017295991184277e+00
116 132 2.17623782208716499e+00
117 132 2.06640286503212023e+00
118 132 1.95110917015725605e+00
119 132 1.83084036709564990e+00
120 132 1.70611591990263101e+00
121 132 1.57748378221353924e+00
122 132 1.44551263564070442e+00
123 132 1.31078393531706094e+00
124 132 1.17388398537045302e+00
125 132 1.03539625578552252e+00
126 132 8.95894131803911642e-01
127 132 7.55934259485616322e-01
128 132 6.16050618408240935e-01
129 132 4.76749416965240647e-01
130 132 3.38504869539755671e-01
131 132 2.01755879965297757e-01
132 132 6.69036237900568764e-02
133 132 7.34788079488411875e-16
1 133 0.00000000000000000e+00
2 133 -6.69036237900561548e-02
3 133 -2.01755879965297091e-01
4 133 -3.38504869539755004e-01
5 133 -4.76749416965240091e-01
6 133 -6.16050618408240380e-01
7 133 -7.55934259485615878e-01
8 133 -8.95894131803911198e-01
9 133 -1.03539625578552208e+00
10 133 -1.17388398537045258e+00
11 133 -1.31078393531706050e+00
12 133 -1.44551263564070376e+00
13 133 -1.57748378221353880e+00
14 133 -1.70611591990263078e+00
15 133 -1.83084036709564946e+00
16 133 -1.95110917015725627e+00
17 133 -2.06640286503212023e+00
18 133 -2.17623782208716454e+00
19 133 -2.28017295991184188e+00
20 133 -2.37781563395148554e+00
21 133 -2.46882653553897446e+00
22 133 -2.55292347440996936e+00
23 133 -2.62988396086683451e+00
24 133 -2.69954654975995156e+00
25 133 -2.76181095461353721e+00
26 133 -2.81663698387331474e+00
27 133 -2.86404239005502159e+00
28 133 -2.90409975467887227e+00
29 133 -2.93693255604254633e+00
30 133 -2.96271058251672770e+00
31 133 -2.98164486116923966e+00
32 133 -2.99398227070960310e+00
33 133 -3.00000000000000044e+00
34 133 -3.00000000000000000e+00
35 133 -3.00000000000000044e+00
36 133 -2.99398227070960354e+00
37 133 -2.98164486116924010e+00
38 133 -2.96271058251672814e+00
39 133 -2.93693255604254633e+00
40 133 -2.90409975467887316e+00
41 133 -2.86404239005502248e+00
42 133 -2.81663698387331563e+00
43 133 -2.76181095461353765e+00
44 133 -2.69954654975995201e+00
45 133 -2.62988396086683451e+00
46 133 -2.55292347440996936e+00
47 133 -2.46882653553897446e+00
48 133 -2.37781563395148554e+00
49 133 -2.28017295991184188e+00
50 133 -2.17623782208716410e+00
51 133 -2.06640286503211978e+00
52 133 -1.95110917015725582e+00
53 133 -1.83084036709564923e+00
54 133 -1.70611591990263034e+00
55 133 -1.57748378221353835e+00
56 133 -1.44551263564070354e+00
57 133 -1.31078393531706028e+00
58 133 -1.17388398537045258e+00
59 133 -1.03539625578552208e+00
60 133 -8.95894131803911198e-01
61 133 -7.55934259485615989e-01
62 133 -6.16050618408240602e-01
63 133 -4.76749416965240314e-01
64 133 -3.38504869539755282e-01
65 133 -2.01755879965297397e-01
66 133 -6.69036237900565156e-02
67 133 -3.67394039744205888e-16
68 133 6.69036237900558495e-02
69 133 2.01755879965296814e-01
70 133 3.38504869539754782e-01
71 133 4.76749416965239869e-01
72 133 6.16050618408240269e-01
73 133 7.55934259485615767e-01
74 133 8.95894131803911198e-01
75 133 1.03539625578552208e+00
76 133 1.17388398537045258e+00
77 133 1.31078393531706050e+00
78 133 1.44551263564070376e+00
79 133 1.57748378221353880e+00
80 133 1.70611591990263078e+00
81 133 1.83084036709564946e+00
82 133 1.95110917015725627e+00
83 133 2.06640286503212023e+00
84 133 2.17623782208716454e+00
85 133 2.28017295991184188e+00
86 133 2.37781563395148554e+00
87 133 2.46882653553897446e+00
88 133 2.55292347440996936e+00
89 133 2.62988396086683451e+00
90 133 2.69954654975995156e+00
91 133 2.76181095461353721e+00
92 133 2.81663698387331474e+00
93 133 2.86404239005502159e+00
94 133 2.90409975467887227e+00
95 133 2.93693255604254633e+00
96 133 2.96271058251672770e+00
97 133 2.98164486116923966e+00
98 133 2.99398227070960310e+00
99 133 3.00000000000000044e+00
100 133 3.00000000000000000e+00
101 133 3.00000000000000044e+00
102 133 2.99398227070960354e+00
103 133 2.98164486116924010e+00
104 133 2.96271058251672814e+00
105 133 2.93693255604254633e+00
106 133 2.90409975467887316e+00
107 133 2.86404239005502248e+00
108 133 2.81663698387331563e+00
109 133 2.76181095461353765e+00
110 133 2.69954654975995201e+00
111 133 2.62988396086683451e+00
112 133 2.55292347440996936e+00
113 133 2.46882653553897491e+00
114 133 2.37781563395148643e+00
115 133 2.28017295991184277e+00
116 133 2.17623782208716499e+00
117 133 2.06640286503212023e+00
118 133 1.95110917015725605e+00
119 133 1.83084036709564968e+00
120 133 1.70611591990263101e+00
121 133 1.57748378221353902e+00
122 133 1.44551263564070442e+00
123 133 1.31078393531706094e+00
124 133 1.17388398537045302e+00
125 133 1.03539625578552252e+00
126 133 8.95894131803911642e-01
127 133 7.55934259485616433e-01
128 133 6.16050618408240935e-01
129 133 4.76749416965240647e-01
130 133 3.38504869539755615e-01
131 133 2.01755879965297730e-01
132 133 6.69036237900568626e-02
133 133 7.34788079488411776e-16
