%%MatrixMarket matrix coordinate  real general
1 136 136
1 1 0.00000000000000000e+00
1 2 0.00000000000000000e+00
1 3 0.00000000000000000e+00
1 4 7.81250000000000000e-03
1 5 1.56250000000000000e-02
1 6 2.34375000000000000e-02
1 7 3.12500000000000000e-02
1 8 3.90625000000000000e-02
1 9 4.68750000000000000e-02
1 10 5.46875000000000000e-02
1 11 6.25000000000000000e-02
1 12 7.03125000000000000e-02
1 13 7.81250000000000000e-02
1 14 8.59375000000000000e-02
1 15 9.37500000000000000e-02
1 16 1.01562500000000000e-01
1 17 1.09375000000000000e-01
1 18 1.17187500000000000e-01
1 19 1.25000000000000000e-01
1 20 1.32812500000000000e-01
1 21 1.40625000000000000e-01
1 22 1.48437500000000000e-01
1 23 1.56250000000000000e-01
1 24 1.64062500000000000e-01
1 25 1.71875000000000000e-01
1 26 1.79687500000000000e-01
1 27 1.87500000000000000e-01
1 28 1.95312500000000000e-01
1 29 2.03125000000000000e-01
1 30 2.10937500000000000e-01
1 31 2.18750000000000000e-01
1 32 2.26562500000000000e-01
1 33 2.34375000000000000e-01
1 34 2.42187500000000000e-01
1 35 2.50000000000000000e-01
1 36 2.50000000000000000e-01
1 37 2.57812500000000000e-01
1 38 2.65625000000000000e-01
1 39 2.73437500000000000e-01
1 40 2.81250000000000000e-01
1 41 2.89062500000000000e-01
1 42 2.96875000000000000e-01
1 43 3.04687500000000000e-01
1 44 3.12500000000000000e-01
1 45 3.20312500000000000e-01
1 46 3.28125000000000000e-01
1 47 3.35937500000000000e-01
1 48 3.43750000000000000e-01
1 49 3.51562500000000000e-01
1 50 3.59375000000000000e-01
1 51 3.67187500000000000e-01
1 52 3.75000000000000000e-01
1 53 3.82812500000000000e-01
1 54 3.90625000000000000e-01
1 55 3.98437500000000000e-01
1 56 4.06250000000000000e-01
1 57 4.14062500000000000e-01
1 58 4.21875000000000000e-01
1 59 4.29687500000000000e-01
1 60 4.37500000000000000e-01
1 61 4.45312500000000000e-01
1 62 4.53125000000000000e-01
1 63 4.60937500000000000e-01
1 64 4.68750000000000000e-01
1 65 4.76562500000000000e-01
1 66 4.84375000000000000e-01
1 67 4.92187500000000000e-01
1 68 5.00000000000000000e-01
1 69 5.00000000000000000e-01
1 70 5.07812500000000000e-01
1 71 5.15625000000000000e-01
1 72 5.23437500000000000e-01
1 73 5.31250000000000000e-01
1 74 5.39062500000000000e-01
1 75 5.46875000000000000e-01
1 76 5.54687500000000000e-01
1 77 5.62500000000000000e-01
1 78 5.70312500000000000e-01
1 79 5.78125000000000000e-01
1 80 5.85937500000000000e-01
1 81 5.93750000000000000e-01
1 82 6.01562500000000000e-01
1 83 6.09375000000000000e-01
1 84 6.17187500000000000e-01
1 85 6.25000000000000000e-01
1 86 6.32812500000000000e-01
1 87 6.40625000000000000e-01
1 88 6.48437500000000000e-01
1 89 6.56250000000000000e-01
1 90 6.64062500000000000e-01
1 91 6.71875000000000000e-01
1 92 6.79687500000000000e-01
1 93 6.87500000000000000e-01
1 94 6.95312500000000000e-01
1 95 7.03125000000000000e-01
1 96 7.10937500000000000e-01
1 97 7.18750000000000000e-01
1 98 7.26562500000000000e-01
1 99 7.34375000000000000e-01
1 100 7.42187500000000000e-01
1 101 7.50000000000000000e-01
1 102 7.50000000000000000e-01
1 103 7.57812500000000000e-01
1 104 7.65625000000000000e-01
1 105 7.73437500000000000e-01
1 106 7.81250000000000000e-01
1 107 7.89062500000000000e-01
1 108 7.96875000000000000e-01
1 109 8.04687500000000000e-01
1 110 8.12500000000000000e-01
1 111 8.20312500000000000e-01
1 112 8.28125000000000000e-01
1 113 8.35937500000000000e-01
1 114 8.43750000000000000e-01
1 115 8.51562500000000000e-01
1 116 8.59375000000000000e-01
1 117 8.67187500000000000e-01
1 118 8.75000000000000000e-01
1 119 8.82812500000000000e-01
1 120 8.90625000000000000e-01
1 121 8.98437500000000000e-01
1 122 9.06250000000000000e-01
1 123 9.14062500000000000e-01
1 124 9.21875000000000000e-01
1 125 9.29687500000000000e-01
1 126 9.37500000000000000e-01
1 127 9.45312500000000000e-01
1 128 9.53125000000000000e-01
1 129 9.60937500000000000e-01
1 130 9.68750000000000000e-01
1 131 9.76562500000000000e-01
1 132 9.84375000000000000e-01
1 133 9.92187500000000000e-01
1 134 1.00000000000000000e+00
1 135 1.00000000000000000e+00
1 136 1.00000000000000000e+00
