%%MatrixMarket matrix coordinate  real general
133 133 17689
1 1 1.00000000000000000e+00
2 1 9.90847086912079678e-01
3 1 9.73685374872229059e-01
4 1 9.57667776968368356e-01
5 1 9.42794293200497679e-01
6 1 9.29064923568617140e-01
7 1 9.16479668072726517e-01
8 1 9.05038526712826030e-01
9 1 8.94741499488915681e-01
10 1 8.85588586400995359e-01
11 1 8.77579787449064952e-01
12 1 8.70715102633124793e-01
13 1 8.64994531953174439e-01
14 1 8.60418075409214334e-01
15 1 8.56985733001244254e-01
16 1 8.54697504729264090e-01
17 1 8.53553390593274064e-01
18 1 8.53553390593274064e-01
19 1 8.54697504729264201e-01
20 1 8.56985733001244254e-01
21 1 8.60418075409214334e-01
22 1 8.64994531953174550e-01
23 1 8.70715102633124793e-01
24 1 8.77579787449065063e-01
25 1 8.85588586400995359e-01
26 1 8.94741499488915792e-01
27 1 9.05038526712826141e-01
28 1 9.16479668072726628e-01
29 1 9.29064923568617140e-01
30 1 9.42794293200497679e-01
31 1 9.57667776968368245e-01
32 1 9.73685374872228837e-01
33 1 9.90847086912079567e-01
34 1 1.00000000000000000e+00
35 1 9.90847086912079678e-01
36 1 9.73685374872229059e-01
37 1 9.57667776968368356e-01
38 1 9.42794293200497679e-01
39 1 9.29064923568617140e-01
40 1 9.16479668072726517e-01
41 1 9.05038526712826030e-01
42 1 8.94741499488915681e-01
43 1 8.85588586400995359e-01
44 1 8.77579787449064952e-01
45 1 8.70715102633124793e-01
46 1 8.64994531953174439e-01
47 1 8.60418075409214334e-01
48 1 8.56985733001244254e-01
49 1 8.54697504729264090e-01
50 1 8.53553390593274064e-01
51 1 8.53553390593274064e-01
52 1 8.54697504729264201e-01
53 1 8.56985733001244254e-01
54 1 8.60418075409214334e-01
55 1 8.64994531953174550e-01
56 1 8.70715102633124793e-01
57 1 8.77579787449065063e-01
58 1 8.85588586400995359e-01
59 1 8.94741499488915792e-01
60 1 9.05038526712826141e-01
61 1 9.16479668072726628e-01
62 1 9.29064923568617140e-01
63 1 9.42794293200497679e-01
64 1 9.57667776968368245e-01
65 1 9.73685374872228837e-01
66 1 9.90847086912079567e-01
67 1 1.00000000000000000e+00
68 1 9.90847086912079678e-01
69 1 9.73685374872229059e-01
70 1 9.57667776968368356e-01
71 1 9.42794293200497679e-01
72 1 9.29064923568617140e-01
73 1 9.16479668072726517e-01
74 1 9.05038526712826030e-01
75 1 8.94741499488915681e-01
76 1 8.85588586400995359e-01
77 1 8.77579787449064952e-01
78 1 8.70715102633124793e-01
79 1 8.64994531953174439e-01
80 1 8.60418075409214334e-01
81 1 8.56985733001244254e-01
82 1 8.54697504729264090e-01
83 1 8.53553390593274064e-01
84 1 8.53553390593274064e-01
85 1 8.54697504729264201e-01
86 1 8.56985733001244254e-01
87 1 8.60418075409214334e-01
88 1 8.64994531953174550e-01
89 1 8.70715102633124793e-01
90 1 8.77579787449065063e-01
91 1 8.85588586400995359e-01
92 1 8.94741499488915792e-01
93 1 9.05038526712826141e-01
94 1 9.16479668072726628e-01
95 1 9.29064923568617140e-01
96 1 9.42794293200497679e-01
97 1 9.57667776968368245e-01
98 1 9.73685374872228837e-01
99 1 9.90847086912079567e-01
100 1 1.00000000000000000e+00
101 1 9.90847086912079678e-01
102 1 9.73685374872229059e-01
103 1 9.57667776968368356e-01
104 1 9.42794293200497679e-01
105 1 9.29064923568617140e-01
106 1 9.16479668072726517e-01
107 1 9.05038526712826030e-01
108 1 8.94741499488915681e-01
109 1 8.85588586400995359e-01
110 1 8.77579787449064952e-01
111 1 8.70715102633124793e-01
112 1 8.64994531953174439e-01
113 1 8.60418075409214334e-01
114 1 8.56985733001244254e-01
115 1 8.54697504729264090e-01
116 1 8.53553390593274064e-01
117 1 8.53553390593274064e-01
118 1 8.54697504729264201e-01
119 1 8.56985733001244254e-01
120 1 8.60418075409214334e-01
121 1 8.64994531953174550e-01
122 1 8.70715102633124793e-01
123 1 8.77579787449065063e-01
124 1 8.85588586400995359e-01
125 1 8.94741499488915792e-01
126 1 9.05038526712826141e-01
127 1 9.16479668072726628e-01
128 1 9.29064923568617140e-01
129 1 9.42794293200497679e-01
130 1 9.57667776968368245e-01
131 1 9.73685374872228837e-01
132 1 9.90847086912079567e-01
133 1 1.00000000000000000e+00
1 2 9.90847086912079678e-01
2 2 9.81777949642154368e-01
3 2 9.64773317261044427e-01
4 2 9.48902327038675053e-01
5 2 9.34164978975046134e-01
6 2 9.20561273070158226e-01
7 2 9.08091209324010773e-01
8 2 8.96754787736603998e-01
9 2 8.86552008307938122e-01
10 2 8.77482871038012924e-01
11 2 8.69547375926828070e-01
12 2 8.62745522974384227e-01
13 2 8.57077312180680728e-01
14 2 8.52542743545718129e-01
15 2 8.49141817069496208e-01
16 2 8.46874532752014852e-01
17 2 8.45740890593274175e-01
18 2 8.45740890593274175e-01
19 2 8.46874532752014852e-01
20 2 8.49141817069496208e-01
21 2 8.52542743545718129e-01
22 2 8.57077312180680950e-01
23 2 8.62745522974384227e-01
24 2 8.69547375926828181e-01
25 2 8.77482871038012924e-01
26 2 8.86552008307938233e-01
27 2 8.96754787736604220e-01
28 2 9.08091209324010884e-01
29 2 9.20561273070158226e-01
30 2 9.34164978975046134e-01
31 2 9.48902327038674942e-01
32 2 9.64773317261044205e-01
33 2 9.81777949642154368e-01
34 2 9.90847086912079678e-01
35 2 9.81777949642154368e-01
36 2 9.64773317261044427e-01
37 2 9.48902327038675053e-01
38 2 9.34164978975046134e-01
39 2 9.20561273070158226e-01
40 2 9.08091209324010773e-01
41 2 8.96754787736603998e-01
42 2 8.86552008307938122e-01
43 2 8.77482871038012924e-01
44 2 8.69547375926828070e-01
45 2 8.62745522974384227e-01
46 2 8.57077312180680728e-01
47 2 8.52542743545718129e-01
48 2 8.49141817069496208e-01
49 2 8.46874532752014852e-01
50 2 8.45740890593274175e-01
51 2 8.45740890593274175e-01
52 2 8.46874532752014852e-01
53 2 8.49141817069496208e-01
54 2 8.52542743545718129e-01
55 2 8.57077312180680950e-01
56 2 8.62745522974384227e-01
57 2 8.69547375926828181e-01
58 2 8.77482871038012924e-01
59 2 8.86552008307938233e-01
60 2 8.96754787736604220e-01
61 2 9.08091209324010884e-01
62 2 9.20561273070158226e-01
63 2 9.34164978975046134e-01
64 2 9.48902327038674942e-01
65 2 9.64773317261044205e-01
66 2 9.81777949642154368e-01
67 2 9.90847086912079678e-01
68 2 9.81777949642154368e-01
69 2 9.64773317261044427e-01
70 2 9.48902327038675053e-01
71 2 9.34164978975046134e-01
72 2 9.20561273070158226e-01
73 2 9.08091209324010773e-01
74 2 8.96754787736603998e-01
75 2 8.86552008307938122e-01
76 2 8.77482871038012924e-01
77 2 8.69547375926828070e-01
78 2 8.62745522974384227e-01
79 2 8.57077312180680728e-01
80 2 8.52542743545718129e-01
81 2 8.49141817069496208e-01
82 2 8.46874532752014852e-01
83 2 8.45740890593274175e-01
84 2 8.45740890593274175e-01
85 2 8.46874532752014852e-01
86 2 8.49141817069496208e-01
87 2 8.52542743545718129e-01
88 2 8.57077312180680950e-01
89 2 8.62745522974384227e-01
90 2 8.69547375926828181e-01
91 2 8.77482871038012924e-01
92 2 8.86552008307938233e-01
93 2 8.96754787736604220e-01
94 2 9.08091209324010884e-01
95 2 9.20561273070158226e-01
96 2 9.34164978975046134e-01
97 2 9.48902327038674942e-01
98 2 9.64773317261044205e-01
99 2 9.81777949642154368e-01
100 2 9.90847086912079678e-01
101 2 9.81777949642154368e-01
102 2 9.64773317261044427e-01
103 2 9.48902327038675053e-01
104 2 9.34164978975046134e-01
105 2 9.20561273070158226e-01
106 2 9.08091209324010773e-01
107 2 8.96754787736603998e-01
108 2 8.86552008307938122e-01
109 2 8.77482871038012924e-01
110 2 8.69547375926828070e-01
111 2 8.62745522974384227e-01
112 2 8.57077312180680728e-01
113 2 8.52542743545718129e-01
114 2 8.49141817069496208e-01
115 2 8.46874532752014852e-01
116 2 8.45740890593274175e-01
117 2 8.45740890593274175e-01
118 2 8.46874532752014852e-01
119 2 8.49141817069496208e-01
120 2 8.52542743545718129e-01
121 2 8.57077312180680950e-01
122 2 8.62745522974384227e-01
123 2 8.69547375926828181e-01
124 2 8.77482871038012924e-01
125 2 8.86552008307938233e-01
126 2 8.96754787736604220e-01
127 2 9.08091209324010884e-01
128 2 9.20561273070158226e-01
129 2 9.34164978975046134e-01
130 2 9.48902327038674942e-01
131 2 9.64773317261044205e-01
132 2 9.81777949642154368e-01
133 2 9.90847086912079678e-01
1 3 9.73685374872229059e-01
2 3 9.64773317261044427e-01
3 3 9.48063209240073146e-01
4 3 9.32467108420500068e-01
5 3 9.17985014802324639e-01
6 3 9.04616928385547858e-01
7 3 8.92362849170168726e-01
8 3 8.81222777156187798e-01
9 3 8.71196712343605295e-01
10 3 8.62284654732420774e-01
11 3 8.54486604322633791e-01
12 3 8.47802561114245457e-01
13 3 8.42232525107254881e-01
14 3 8.37776496301662732e-01
15 3 8.34434474697468342e-01
16 3 8.32206460294672268e-01
17 3 8.31092453093274175e-01
18 3 8.31092453093274175e-01
19 3 8.32206460294672379e-01
20 3 8.34434474697468342e-01
21 3 8.37776496301662732e-01
22 3 8.42232525107255214e-01
23 3 8.47802561114245457e-01
24 3 8.54486604322633903e-01
25 3 8.62284654732420774e-01
26 3 8.71196712343605295e-01
27 3 8.81222777156187798e-01
28 3 8.92362849170168726e-01
29 3 9.04616928385547858e-01
30 3 9.17985014802324639e-01
31 3 9.32467108420499846e-01
32 3 9.48063209240073146e-01
33 3 9.64773317261044427e-01
34 3 9.73685374872229059e-01
35 3 9.64773317261044427e-01
36 3 9.48063209240073146e-01
37 3 9.32467108420500068e-01
38 3 9.17985014802324639e-01
39 3 9.04616928385547858e-01
40 3 8.92362849170168726e-01
41 3 8.81222777156187798e-01
42 3 8.71196712343605295e-01
43 3 8.62284654732420774e-01
44 3 8.54486604322633791e-01
45 3 8.47802561114245457e-01
46 3 8.42232525107254881e-01
47 3 8.37776496301662732e-01
48 3 8.34434474697468342e-01
49 3 8.32206460294672268e-01
50 3 8.31092453093274175e-01
51 3 8.31092453093274175e-01
52 3 8.32206460294672379e-01
53 3 8.34434474697468342e-01
54 3 8.37776496301662732e-01
55 3 8.42232525107255214e-01
56 3 8.47802561114245457e-01
57 3 8.54486604322633903e-01
58 3 8.62284654732420774e-01
59 3 8.71196712343605295e-01
60 3 8.81222777156187798e-01
61 3 8.92362849170168726e-01
62 3 9.04616928385547858e-01
63 3 9.17985014802324639e-01
64 3 9.32467108420499846e-01
65 3 9.48063209240073146e-01
66 3 9.64773317261044427e-01
67 3 9.73685374872229059e-01
68 3 9.64773317261044427e-01
69 3 9.48063209240073146e-01
70 3 9.32467108420500068e-01
71 3 9.17985014802324639e-01
72 3 9.04616928385547858e-01
73 3 8.92362849170168726e-01
74 3 8.81222777156187798e-01
75 3 8.71196712343605295e-01
76 3 8.62284654732420774e-01
77 3 8.54486604322633791e-01
78 3 8.47802561114245457e-01
79 3 8.42232525107254881e-01
80 3 8.37776496301662732e-01
81 3 8.34434474697468342e-01
82 3 8.32206460294672268e-01
83 3 8.31092453093274175e-01
84 3 8.31092453093274175e-01
85 3 8.32206460294672379e-01
86 3 8.34434474697468342e-01
87 3 8.37776496301662732e-01
88 3 8.42232525107255214e-01
89 3 8.47802561114245457e-01
90 3 8.54486604322633903e-01
91 3 8.62284654732420774e-01
92 3 8.71196712343605295e-01
93 3 8.81222777156187798e-01
94 3 8.92362849170168726e-01
95 3 9.04616928385547858e-01
96 3 9.17985014802324639e-01
97 3 9.32467108420499846e-01
98 3 9.48063209240073146e-01
99 3 9.64773317261044427e-01
100 3 9.73685374872229059e-01
101 3 9.64773317261044427e-01
102 3 9.48063209240073146e-01
103 3 9.32467108420500068e-01
104 3 9.17985014802324639e-01
105 3 9.04616928385547858e-01
106 3 8.92362849170168726e-01
107 3 8.81222777156187798e-01
108 3 8.71196712343605295e-01
109 3 8.62284654732420774e-01
110 3 8.54486604322633791e-01
111 3 8.47802561114245457e-01
112 3 8.42232525107254881e-01
113 3 8.37776496301662732e-01
114 3 8.34434474697468342e-01
115 3 8.32206460294672268e-01
116 3 8.31092453093274175e-01
117 3 8.31092453093274175e-01
118 3 8.32206460294672379e-01
119 3 8.34434474697468342e-01
120 3 8.37776496301662732e-01
121 3 8.42232525107255214e-01
122 3 8.47802561114245457e-01
123 3 8.54486604322633903e-01
124 3 8.62284654732420774e-01
125 3 8.71196712343605295e-01
126 3 8.81222777156187798e-01
127 3 8.92362849170168726e-01
128 3 9.04616928385547858e-01
129 3 9.17985014802324639e-01
130 3 9.32467108420499846e-01
131 3 9.48063209240073146e-01
132 3 9.64773317261044427e-01
133 3 9.73685374872229059e-01
1 4 9.57667776968368356e-01
2 4 9.48902327038675053e-01
3 4 9.32467108420499846e-01
4 4 9.17127571043536594e-01
5 4 9.02883714907784629e-01
6 4 8.89735540013244730e-01
7 4 8.77683046359916119e-01
8 4 8.66726233947799241e-01
9 4 8.56865102776894538e-01
10 4 8.48099652847201124e-01
11 4 8.40429884158719109e-01
12 4 8.33855796711449382e-01
13 4 8.28377390505390720e-01
14 4 8.23994665540544124e-01
15 4 8.20707621816909150e-01
16 4 8.18516259334485796e-01
17 4 8.17420578093274175e-01
18 4 8.17420578093274175e-01
19 4 8.18516259334485907e-01
20 4 8.20707621816909150e-01
21 4 8.23994665540544124e-01
22 4 8.28377390505391054e-01
23 4 8.33855796711449382e-01
24 4 8.40429884158719220e-01
25 4 8.48099652847201124e-01
26 4 8.56865102776894538e-01
27 4 8.66726233947799352e-01
28 4 8.77683046359916119e-01
29 4 8.89735540013244619e-01
30 4 9.02883714907784629e-01
31 4 9.17127571043536371e-01
32 4 9.32467108420499846e-01
33 4 9.48902327038675053e-01
34 4 9.57667776968368356e-01
35 4 9.48902327038675053e-01
36 4 9.32467108420499846e-01
37 4 9.17127571043536594e-01
38 4 9.02883714907784629e-01
39 4 8.89735540013244730e-01
40 4 8.77683046359916119e-01
41 4 8.66726233947799241e-01
42 4 8.56865102776894538e-01
43 4 8.48099652847201124e-01
44 4 8.40429884158719109e-01
45 4 8.33855796711449382e-01
46 4 8.28377390505390720e-01
47 4 8.23994665540544124e-01
48 4 8.20707621816909150e-01
49 4 8.18516259334485796e-01
50 4 8.17420578093274175e-01
51 4 8.17420578093274175e-01
52 4 8.18516259334485907e-01
53 4 8.20707621816909150e-01
54 4 8.23994665540544124e-01
55 4 8.28377390505391054e-01
56 4 8.33855796711449382e-01
57 4 8.40429884158719220e-01
58 4 8.48099652847201124e-01
59 4 8.56865102776894538e-01
60 4 8.66726233947799352e-01
61 4 8.77683046359916119e-01
62 4 8.89735540013244619e-01
63 4 9.02883714907784629e-01
64 4 9.17127571043536371e-01
65 4 9.32467108420499846e-01
66 4 9.48902327038675053e-01
67 4 9.57667776968368356e-01
68 4 9.48902327038675053e-01
69 4 9.32467108420499846e-01
70 4 9.17127571043536594e-01
71 4 9.02883714907784629e-01
72 4 8.89735540013244730e-01
73 4 8.77683046359916119e-01
74 4 8.66726233947799241e-01
75 4 8.56865102776894538e-01
76 4 8.48099652847201124e-01
77 4 8.40429884158719109e-01
78 4 8.33855796711449382e-01
79 4 8.28377390505390720e-01
80 4 8.23994665540544124e-01
81 4 8.20707621816909150e-01
82 4 8.18516259334485796e-01
83 4 8.17420578093274175e-01
84 4 8.17420578093274175e-01
85 4 8.18516259334485907e-01
86 4 8.20707621816909150e-01
87 4 8.23994665540544124e-01
88 4 8.28377390505391054e-01
89 4 8.33855796711449382e-01
90 4 8.40429884158719220e-01
91 4 8.48099652847201124e-01
92 4 8.56865102776894538e-01
93 4 8.66726233947799352e-01
94 4 8.77683046359916119e-01
95 4 8.89735540013244619e-01
96 4 9.02883714907784629e-01
97 4 9.17127571043536371e-01
98 4 9.32467108420499846e-01
99 4 9.48902327038675053e-01
100 4 9.57667776968368356e-01
101 4 9.48902327038675053e-01
102 4 9.32467108420499846e-01
103 4 9.17127571043536594e-01
104 4 9.02883714907784629e-01
105 4 8.89735540013244730e-01
106 4 8.77683046359916119e-01
107 4 8.66726233947799241e-01
108 4 8.56865102776894538e-01
109 4 8.48099652847201124e-01
110 4 8.40429884158719109e-01
111 4 8.33855796711449382e-01
112 4 8.28377390505390720e-01
113 4 8.23994665540544124e-01
114 4 8.20707621816909150e-01
115 4 8.18516259334485796e-01
116 4 8.17420578093274175e-01
117 4 8.17420578093274175e-01
118 4 8.18516259334485907e-01
119 4 8.20707621816909150e-01
120 4 8.23994665540544124e-01
121 4 8.28377390505391054e-01
122 4 8.33855796711449382e-01
123 4 8.40429884158719220e-01
124 4 8.48099652847201124e-01
125 4 8.56865102776894538e-01
126 4 8.66726233947799352e-01
127 4 8.77683046359916119e-01
128 4 8.89735540013244619e-01
129 4 9.02883714907784629e-01
130 4 9.17127571043536371e-01
131 4 9.32467108420499846e-01
132 4 9.48902327038675053e-01
133 4 9.57667776968368356e-01
1 5 9.42794293200497679e-01
2 5 9.34164978975046356e-01
3 5 9.17985014802324750e-01
4 5 9.02883714907784851e-01
5 5 8.88861079291426104e-01
6 5 8.75917107953249063e-01
7 5 8.64051800893252953e-01
8 5 8.53265158111438549e-01
9 5 8.43557179607805852e-01
10 5 8.34927865382354417e-01
11 5 8.27377215435084024e-01
12 5 8.20905229765995781e-01
13 5 8.15511908375088357e-01
14 5 8.11197251262362751e-01
15 5 8.07961258427818518e-01
16 5 8.05803929871455549e-01
17 5 8.04725265593274175e-01
18 5 8.04725265593274175e-01
19 5 8.05803929871455660e-01
20 5 8.07961258427818407e-01
21 5 8.11197251262362751e-01
22 5 8.15511908375088579e-01
23 5 8.20905229765995781e-01
24 5 8.27377215435084135e-01
25 5 8.34927865382354417e-01
26 5 8.43557179607805963e-01
27 5 8.53265158111438549e-01
28 5 8.64051800893252953e-01
29 5 8.75917107953248841e-01
30 5 8.88861079291426104e-01
31 5 9.02883714907784629e-01
32 5 9.17985014802324750e-01
33 5 9.34164978975046356e-01
34 5 9.42794293200497679e-01
35 5 9.34164978975046356e-01
36 5 9.17985014802324750e-01
37 5 9.02883714907784851e-01
38 5 8.88861079291426104e-01
39 5 8.75917107953249063e-01
40 5 8.64051800893252953e-01
41 5 8.53265158111438549e-01
42 5 8.43557179607805852e-01
43 5 8.34927865382354417e-01
44 5 8.27377215435084024e-01
45 5 8.20905229765995781e-01
46 5 8.15511908375088357e-01
47 5 8.11197251262362751e-01
48 5 8.07961258427818518e-01
49 5 8.05803929871455549e-01
50 5 8.04725265593274175e-01
51 5 8.04725265593274175e-01
52 5 8.05803929871455660e-01
53 5 8.07961258427818407e-01
54 5 8.11197251262362751e-01
55 5 8.15511908375088579e-01
56 5 8.20905229765995781e-01
57 5 8.27377215435084135e-01
58 5 8.34927865382354417e-01
59 5 8.43557179607805963e-01
60 5 8.53265158111438549e-01
61 5 8.64051800893252953e-01
62 5 8.75917107953248841e-01
63 5 8.88861079291426104e-01
64 5 9.02883714907784629e-01
65 5 9.17985014802324750e-01
66 5 9.34164978975046356e-01
67 5 9.42794293200497679e-01
68 5 9.34164978975046356e-01
69 5 9.17985014802324750e-01
70 5 9.02883714907784851e-01
71 5 8.88861079291426104e-01
72 5 8.75917107953249063e-01
73 5 8.64051800893252953e-01
74 5 8.53265158111438549e-01
75 5 8.43557179607805852e-01
76 5 8.34927865382354417e-01
77 5 8.27377215435084024e-01
78 5 8.20905229765995781e-01
79 5 8.15511908375088357e-01
80 5 8.11197251262362751e-01
81 5 8.07961258427818518e-01
82 5 8.05803929871455549e-01
83 5 8.04725265593274175e-01
84 5 8.04725265593274175e-01
85 5 8.05803929871455660e-01
86 5 8.07961258427818407e-01
87 5 8.11197251262362751e-01
88 5 8.15511908375088579e-01
89 5 8.20905229765995781e-01
90 5 8.27377215435084135e-01
91 5 8.34927865382354417e-01
92 5 8.43557179607805963e-01
93 5 8.53265158111438549e-01
94 5 8.64051800893252953e-01
95 5 8.75917107953248841e-01
96 5 8.88861079291426104e-01
97 5 9.02883714907784629e-01
98 5 9.17985014802324750e-01
99 5 9.34164978975046356e-01
100 5 9.42794293200497679e-01
101 5 9.34164978975046356e-01
102 5 9.17985014802324750e-01
103 5 9.02883714907784851e-01
104 5 8.88861079291426104e-01
105 5 8.75917107953249063e-01
106 5 8.64051800893252953e-01
107 5 8.53265158111438549e-01
108 5 8.43557179607805852e-01
109 5 8.34927865382354417e-01
110 5 8.27377215435084024e-01
111 5 8.20905229765995781e-01
112 5 8.15511908375088357e-01
113 5 8.11197251262362751e-01
114 5 8.07961258427818518e-01
115 5 8.05803929871455549e-01
116 5 8.04725265593274175e-01
117 5 8.04725265593274175e-01
118 5 8.05803929871455660e-01
119 5 8.07961258427818407e-01
120 5 8.11197251262362751e-01
121 5 8.15511908375088579e-01
122 5 8.20905229765995781e-01
123 5 8.27377215435084135e-01
124 5 8.34927865382354417e-01
125 5 8.43557179607805963e-01
126 5 8.53265158111438549e-01
127 5 8.64051800893252953e-01
128 5 8.75917107953248841e-01
129 5 8.88861079291426104e-01
130 5 9.02883714907784629e-01
131 5 9.17985014802324750e-01
132 5 9.34164978975046356e-01
133 5 9.42794293200497679e-01
1 6 9.29064923568617140e-01
2 6 9.20561273070158226e-01
3 6 9.04616928385547747e-01
4 6 8.89735540013244730e-01
5 6 8.75917107953248841e-01
6 6 8.63161632205560636e-01
7 6 8.51469112770179226e-01
8 6 8.40839549647105500e-01
9 6 8.31272942836339457e-01
10 6 8.22769292337880542e-01
11 6 8.15328598151728645e-01
12 6 8.08950860277884765e-01
13 6 8.03636078716347790e-01
14 6 7.99384253467118389e-01
15 6 7.96195384530196337e-01
16 6 7.94069471905581414e-01
17 6 7.93006515593274175e-01
18 6 7.93006515593274175e-01
19 6 7.94069471905581636e-01
20 6 7.96195384530196115e-01
21 6 7.99384253467118389e-01
22 6 8.03636078716347901e-01
23 6 8.08950860277884765e-01
24 6 8.15328598151728645e-01
25 6 8.22769292337880542e-01
26 6 8.31272942836339568e-01
27 6 8.40839549647105500e-01
28 6 8.51469112770179226e-01
29 6 8.63161632205560414e-01
30 6 8.75917107953248841e-01
31 6 8.89735540013244619e-01
32 6 9.04616928385547636e-01
33 6 9.20561273070158226e-01
34 6 9.29064923568617140e-01
35 6 9.20561273070158226e-01
36 6 9.04616928385547747e-01
37 6 8.89735540013244730e-01
38 6 8.75917107953248841e-01
39 6 8.63161632205560636e-01
40 6 8.51469112770179226e-01
41 6 8.40839549647105500e-01
42 6 8.31272942836339457e-01
43 6 8.22769292337880542e-01
44 6 8.15328598151728645e-01
45 6 8.08950860277884765e-01
46 6 8.03636078716347790e-01
47 6 7.99384253467118389e-01
48 6 7.96195384530196337e-01
49 6 7.94069471905581414e-01
50 6 7.93006515593274175e-01
51 6 7.93006515593274175e-01
52 6 7.94069471905581636e-01
53 6 7.96195384530196115e-01
54 6 7.99384253467118389e-01
55 6 8.03636078716347901e-01
56 6 8.08950860277884765e-01
57 6 8.15328598151728645e-01
58 6 8.22769292337880542e-01
59 6 8.31272942836339568e-01
60 6 8.40839549647105500e-01
61 6 8.51469112770179226e-01
62 6 8.63161632205560414e-01
63 6 8.75917107953248841e-01
64 6 8.89735540013244619e-01
65 6 9.04616928385547636e-01
66 6 9.20561273070158226e-01
67 6 9.29064923568617140e-01
68 6 9.20561273070158226e-01
69 6 9.04616928385547747e-01
70 6 8.89735540013244730e-01
71 6 8.75917107953248841e-01
72 6 8.63161632205560636e-01
73 6 8.51469112770179226e-01
74 6 8.40839549647105500e-01
75 6 8.31272942836339457e-01
76 6 8.22769292337880542e-01
77 6 8.15328598151728645e-01
78 6 8.08950860277884765e-01
79 6 8.03636078716347790e-01
80 6 7.99384253467118389e-01
81 6 7.96195384530196337e-01
82 6 7.94069471905581414e-01
83 6 7.93006515593274175e-01
84 6 7.93006515593274175e-01
85 6 7.94069471905581636e-01
86 6 7.96195384530196115e-01
87 6 7.99384253467118389e-01
88 6 8.03636078716347901e-01
89 6 8.08950860277884765e-01
90 6 8.15328598151728645e-01
91 6 8.22769292337880542e-01
92 6 8.31272942836339568e-01
93 6 8.40839549647105500e-01
94 6 8.51469112770179226e-01
95 6 8.63161632205560414e-01
96 6 8.75917107953248841e-01
97 6 8.89735540013244619e-01
98 6 9.04616928385547636e-01
99 6 9.20561273070158226e-01
100 6 9.29064923568617140e-01
101 6 9.20561273070158226e-01
102 6 9.04616928385547747e-01
103 6 8.89735540013244730e-01
104 6 8.75917107953248841e-01
105 6 8.63161632205560636e-01
106 6 8.51469112770179226e-01
107 6 8.40839549647105500e-01
108 6 8.31272942836339457e-01
109 6 8.22769292337880542e-01
110 6 8.15328598151728645e-01
111 6 8.08950860277884765e-01
112 6 8.03636078716347790e-01
113 6 7.99384253467118389e-01
114 6 7.96195384530196337e-01
115 6 7.94069471905581414e-01
116 6 7.93006515593274175e-01
117 6 7.93006515593274175e-01
118 6 7.94069471905581636e-01
119 6 7.96195384530196115e-01
120 6 7.99384253467118389e-01
121 6 8.03636078716347901e-01
122 6 8.08950860277884765e-01
123 6 8.15328598151728645e-01
124 6 8.22769292337880542e-01
125 6 8.31272942836339568e-01
126 6 8.40839549647105500e-01
127 6 8.51469112770179226e-01
128 6 8.63161632205560414e-01
129 6 8.75917107953248841e-01
130 6 8.89735540013244619e-01
131 6 9.04616928385547636e-01
132 6 9.20561273070158226e-01
133 6 9.29064923568617140e-01
1 7 9.16479668072726517e-01
2 7 9.08091209324010773e-01
3 7 8.92362849170168726e-01
4 7 8.77683046359916119e-01
5 7 8.64051800893252953e-01
6 7 8.51469112770179448e-01
7 7 8.39934981990694940e-01
8 7 8.29449408554800205e-01
9 7 8.20012392462495132e-01
10 7 8.11623933713779389e-01
11 7 8.04284032308652752e-01
12 7 7.97992688247116222e-01
13 7 7.92749901529168799e-01
14 7 7.88555672154810927e-01
15 7 7.85410000124042607e-01
16 7 7.83312885436863393e-01
17 7 7.82264328093274175e-01
18 7 7.82264328093274175e-01
19 7 7.83312885436863615e-01
20 7 7.85410000124042385e-01
21 7 7.88555672154810927e-01
22 7 7.92749901529168799e-01
23 7 7.97992688247116222e-01
24 7 8.04284032308652752e-01
25 7 8.11623933713779389e-01
26 7 8.20012392462495354e-01
27 7 8.29449408554800205e-01
28 7 8.39934981990694940e-01
29 7 8.51469112770179226e-01
30 7 8.64051800893252953e-01
31 7 8.77683046359916119e-01
32 7 8.92362849170168504e-01
33 7 9.08091209324010773e-01
34 7 9.16479668072726517e-01
35 7 9.08091209324010773e-01
36 7 8.92362849170168726e-01
37 7 8.77683046359916119e-01
38 7 8.64051800893252953e-01
39 7 8.51469112770179448e-01
40 7 8.39934981990694940e-01
41 7 8.29449408554800205e-01
42 7 8.20012392462495132e-01
43 7 8.11623933713779389e-01
44 7 8.04284032308652752e-01
45 7 7.97992688247116222e-01
46 7 7.92749901529168799e-01
47 7 7.88555672154810927e-01
48 7 7.85410000124042607e-01
49 7 7.83312885436863393e-01
50 7 7.82264328093274175e-01
51 7 7.82264328093274175e-01
52 7 7.83312885436863615e-01
53 7 7.85410000124042385e-01
54 7 7.88555672154810927e-01
55 7 7.92749901529168799e-01
56 7 7.97992688247116222e-01
57 7 8.04284032308652752e-01
58 7 8.11623933713779389e-01
59 7 8.20012392462495354e-01
60 7 8.29449408554800205e-01
61 7 8.39934981990694940e-01
62 7 8.51469112770179226e-01
63 7 8.64051800893252953e-01
64 7 8.77683046359916119e-01
65 7 8.92362849170168504e-01
66 7 9.08091209324010773e-01
67 7 9.16479668072726517e-01
68 7 9.08091209324010773e-01
69 7 8.92362849170168726e-01
70 7 8.77683046359916119e-01
71 7 8.64051800893252953e-01
72 7 8.51469112770179448e-01
73 7 8.39934981990694940e-01
74 7 8.29449408554800205e-01
75 7 8.20012392462495132e-01
76 7 8.11623933713779389e-01
77 7 8.04284032308652752e-01
78 7 7.97992688247116222e-01
79 7 7.92749901529168799e-01
80 7 7.88555672154810927e-01
81 7 7.85410000124042607e-01
82 7 7.83312885436863393e-01
83 7 7.82264328093274175e-01
84 7 7.82264328093274175e-01
85 7 7.83312885436863615e-01
86 7 7.85410000124042385e-01
87 7 7.88555672154810927e-01
88 7 7.92749901529168799e-01
89 7 7.97992688247116222e-01
90 7 8.04284032308652752e-01
91 7 8.11623933713779389e-01
92 7 8.20012392462495354e-01
93 7 8.29449408554800205e-01
94 7 8.39934981990694940e-01
95 7 8.51469112770179226e-01
96 7 8.64051800893252953e-01
97 7 8.77683046359916119e-01
98 7 8.92362849170168504e-01
99 7 9.08091209324010773e-01
100 7 9.16479668072726517e-01
101 7 9.08091209324010773e-01
102 7 8.92362849170168726e-01
103 7 8.77683046359916119e-01
104 7 8.64051800893252953e-01
105 7 8.51469112770179448e-01
106 7 8.39934981990694940e-01
107 7 8.29449408554800205e-01
108 7 8.20012392462495132e-01
109 7 8.11623933713779389e-01
110 7 8.04284032308652752e-01
111 7 7.97992688247116222e-01
112 7 7.92749901529168799e-01
113 7 7.88555672154810927e-01
114 7 7.85410000124042607e-01
115 7 7.83312885436863393e-01
116 7 7.82264328093274175e-01
117 7 7.82264328093274175e-01
118 7 7.83312885436863615e-01
119 7 7.85410000124042385e-01
120 7 7.88555672154810927e-01
121 7 7.92749901529168799e-01
122 7 7.97992688247116222e-01
123 7 8.04284032308652752e-01
124 7 8.11623933713779389e-01
125 7 8.20012392462495354e-01
126 7 8.29449408554800205e-01
127 7 8.39934981990694940e-01
128 7 8.51469112770179226e-01
129 7 8.64051800893252953e-01
130 7 8.77683046359916119e-01
131 7 8.92362849170168504e-01
132 7 9.08091209324010773e-01
133 7 9.16479668072726517e-01
1 8 9.05038526712826030e-01
2 8 8.96754787736604109e-01
3 8 8.81222777156187909e-01
4 8 8.66726233947799352e-01
5 8 8.53265158111438660e-01
6 8 8.40839549647105722e-01
7 8 8.29449408554800205e-01
8 8 8.19094734834522664e-01
9 8 8.09775528486273100e-01
10 8 8.01491789510051178e-01
11 8 7.94243517905856566e-01
12 8 7.88030713673690375e-01
13 8 7.82853376813551605e-01
14 8 7.78711507325440699e-01
15 8 7.75605105209357437e-01
16 8 7.73534170465301596e-01
17 8 7.72498703093274175e-01
18 8 7.72498703093274175e-01
19 8 7.73534170465301929e-01
20 8 7.75605105209357215e-01
21 8 7.78711507325440699e-01
22 8 7.82853376813551605e-01
23 8 7.88030713673690375e-01
24 8 7.94243517905856566e-01
25 8 8.01491789510051178e-01
26 8 8.09775528486273322e-01
27 8 8.19094734834522775e-01
28 8 8.29449408554800205e-01
29 8 8.40839549647105611e-01
30 8 8.53265158111438660e-01
31 8 8.66726233947799352e-01
32 8 8.81222777156187798e-01
33 8 8.96754787736604109e-01
34 8 9.05038526712826030e-01
35 8 8.96754787736604109e-01
36 8 8.81222777156187909e-01
37 8 8.66726233947799352e-01
38 8 8.53265158111438660e-01
39 8 8.40839549647105722e-01
40 8 8.29449408554800205e-01
41 8 8.19094734834522664e-01
42 8 8.09775528486273100e-01
43 8 8.01491789510051178e-01
44 8 7.94243517905856566e-01
45 8 7.88030713673690375e-01
46 8 7.82853376813551605e-01
47 8 7.78711507325440699e-01
48 8 7.75605105209357437e-01
49 8 7.73534170465301596e-01
50 8 7.72498703093274175e-01
51 8 7.72498703093274175e-01
52 8 7.73534170465301929e-01
53 8 7.75605105209357215e-01
54 8 7.78711507325440699e-01
55 8 7.82853376813551605e-01
56 8 7.88030713673690375e-01
57 8 7.94243517905856566e-01
58 8 8.01491789510051178e-01
59 8 8.09775528486273322e-01
60 8 8.19094734834522775e-01
61 8 8.29449408554800205e-01
62 8 8.40839549647105611e-01
63 8 8.53265158111438660e-01
64 8 8.66726233947799352e-01
65 8 8.81222777156187798e-01
66 8 8.96754787736604109e-01
67 8 9.05038526712826030e-01
68 8 8.96754787736604109e-01
69 8 8.81222777156187909e-01
70 8 8.66726233947799352e-01
71 8 8.53265158111438660e-01
72 8 8.40839549647105722e-01
73 8 8.29449408554800205e-01
74 8 8.19094734834522664e-01
75 8 8.09775528486273100e-01
76 8 8.01491789510051178e-01
77 8 7.94243517905856566e-01
78 8 7.88030713673690375e-01
79 8 7.82853376813551605e-01
80 8 7.78711507325440699e-01
81 8 7.75605105209357437e-01
82 8 7.73534170465301596e-01
83 8 7.72498703093274175e-01
84 8 7.72498703093274175e-01
85 8 7.73534170465301929e-01
86 8 7.75605105209357215e-01
87 8 7.78711507325440699e-01
88 8 7.82853376813551605e-01
89 8 7.88030713673690375e-01
90 8 7.94243517905856566e-01
91 8 8.01491789510051178e-01
92 8 8.09775528486273322e-01
93 8 8.19094734834522775e-01
94 8 8.29449408554800205e-01
95 8 8.40839549647105611e-01
96 8 8.53265158111438660e-01
97 8 8.66726233947799352e-01
98 8 8.81222777156187798e-01
99 8 8.96754787736604109e-01
100 8 9.05038526712826030e-01
101 8 8.96754787736604109e-01
102 8 8.81222777156187909e-01
103 8 8.66726233947799352e-01
104 8 8.53265158111438660e-01
105 8 8.40839549647105722e-01
106 8 8.29449408554800205e-01
107 8 8.19094734834522664e-01
108 8 8.09775528486273100e-01
109 8 8.01491789510051178e-01
110 8 7.94243517905856566e-01
111 8 7.88030713673690375e-01
112 8 7.82853376813551605e-01
113 8 7.78711507325440699e-01
114 8 7.75605105209357437e-01
115 8 7.73534170465301596e-01
116 8 7.72498703093274175e-01
117 8 7.72498703093274175e-01
118 8 7.73534170465301929e-01
119 8 7.75605105209357215e-01
120 8 7.78711507325440699e-01
121 8 7.82853376813551605e-01
122 8 7.88030713673690375e-01
123 8 7.94243517905856566e-01
124 8 8.01491789510051178e-01
125 8 8.09775528486273322e-01
126 8 8.19094734834522775e-01
127 8 8.29449408554800205e-01
128 8 8.40839549647105611e-01
129 8 8.53265158111438660e-01
130 8 8.66726233947799352e-01
131 8 8.81222777156187798e-01
132 8 8.96754787736604109e-01
133 8 9.05038526712826030e-01
1 9 8.94741499488915681e-01
2 9 8.86552008307938122e-01
3 9 8.71196712343605073e-01
4 9 8.56865102776894316e-01
5 9 8.43557179607805740e-01
6 9 8.31272942836339346e-01
7 9 8.20012392462495021e-01
8 9 8.09775528486272878e-01
9 9 8.00562350907673359e-01
10 9 7.92372859726695800e-01
11 9 7.85207054943340088e-01
12 9 7.79064936557607224e-01
13 9 7.73946504569496097e-01
14 9 7.69851758979007372e-01
15 9 7.66780699786140829e-01
16 9 7.64733326990896023e-01
17 9 7.63709640593274064e-01
18 9 7.63709640593274064e-01
19 9 7.64733326990896356e-01
20 9 7.66780699786140607e-01
21 9 7.69851758979007372e-01
22 9 7.73946504569496097e-01
23 9 7.79064936557607224e-01
24 9 7.85207054943339977e-01
25 9 7.92372859726695800e-01
26 9 8.00562350907673470e-01
27 9 8.09775528486272878e-01
28 9 8.20012392462495021e-01
29 9 8.31272942836339346e-01
30 9 8.43557179607805740e-01
31 9 8.56865102776894316e-01
32 9 8.71196712343604962e-01
33 9 8.86552008307938122e-01
34 9 8.94741499488915681e-01
35 9 8.86552008307938122e-01
36 9 8.71196712343605073e-01
37 9 8.56865102776894316e-01
38 9 8.43557179607805740e-01
39 9 8.31272942836339346e-01
40 9 8.20012392462495021e-01
41 9 8.09775528486272878e-01
42 9 8.00562350907673359e-01
43 9 7.92372859726695800e-01
44 9 7.85207054943340088e-01
45 9 7.79064936557607224e-01
46 9 7.73946504569496097e-01
47 9 7.69851758979007372e-01
48 9 7.66780699786140829e-01
49 9 7.64733326990896023e-01
50 9 7.63709640593274064e-01
51 9 7.63709640593274064e-01
52 9 7.64733326990896356e-01
53 9 7.66780699786140607e-01
54 9 7.69851758979007372e-01
55 9 7.73946504569496097e-01
56 9 7.79064936557607224e-01
57 9 7.85207054943339977e-01
58 9 7.92372859726695800e-01
59 9 8.00562350907673470e-01
60 9 8.09775528486272878e-01
61 9 8.20012392462495021e-01
62 9 8.31272942836339346e-01
63 9 8.43557179607805740e-01
64 9 8.56865102776894316e-01
65 9 8.71196712343604962e-01
66 9 8.86552008307938122e-01
67 9 8.94741499488915681e-01
68 9 8.86552008307938122e-01
69 9 8.71196712343605073e-01
70 9 8.56865102776894316e-01
71 9 8.43557179607805740e-01
72 9 8.31272942836339346e-01
73 9 8.20012392462495021e-01
74 9 8.09775528486272878e-01
75 9 8.00562350907673359e-01
76 9 7.92372859726695800e-01
77 9 7.85207054943340088e-01
78 9 7.79064936557607224e-01
79 9 7.73946504569496097e-01
80 9 7.69851758979007372e-01
81 9 7.66780699786140829e-01
82 9 7.64733326990896023e-01
83 9 7.63709640593274064e-01
84 9 7.63709640593274064e-01
85 9 7.64733326990896356e-01
86 9 7.66780699786140607e-01
87 9 7.69851758979007372e-01
88 9 7.73946504569496097e-01
89 9 7.79064936557607224e-01
90 9 7.85207054943339977e-01
91 9 7.92372859726695800e-01
92 9 8.00562350907673470e-01
93 9 8.09775528486272878e-01
94 9 8.20012392462495021e-01
95 9 8.31272942836339346e-01
96 9 8.43557179607805740e-01
97 9 8.56865102776894316e-01
98 9 8.71196712343604962e-01
99 9 8.86552008307938122e-01
100 9 8.94741499488915681e-01
101 9 8.86552008307938122e-01
102 9 8.71196712343605073e-01
103 9 8.56865102776894316e-01
104 9 8.43557179607805740e-01
105 9 8.31272942836339346e-01
106 9 8.20012392462495021e-01
107 9 8.09775528486272878e-01
108 9 8.00562350907673359e-01
109 9 7.92372859726695800e-01
110 9 7.85207054943340088e-01
111 9 7.79064936557607224e-01
112 9 7.73946504569496097e-01
113 9 7.69851758979007372e-01
114 9 7.66780699786140829e-01
115 9 7.64733326990896023e-01
116 9 7.63709640593274064e-01
117 9 7.63709640593274064e-01
118 9 7.64733326990896356e-01
119 9 7.66780699786140607e-01
120 9 7.69851758979007372e-01
121 9 7.73946504569496097e-01
122 9 7.79064936557607224e-01
123 9 7.85207054943339977e-01
124 9 7.92372859726695800e-01
125 9 8.00562350907673470e-01
126 9 8.09775528486272878e-01
127 9 8.20012392462495021e-01
128 9 8.31272942836339346e-01
129 9 8.43557179607805740e-01
130 9 8.56865102776894316e-01
131 9 8.71196712343604962e-01
132 9 8.86552008307938122e-01
133 9 8.94741499488915681e-01
1 10 8.85588586400995359e-01
2 10 8.77482871038012813e-01
3 10 8.62284654732420441e-01
4 10 8.48099652847201013e-01
5 10 8.34927865382354417e-01
6 10 8.22769292337880431e-01
7 10 8.11623933713779278e-01
8 10 8.01491789510050956e-01
9 10 7.92372859726695689e-01
10 10 7.84267144363713253e-01
11 10 7.77174643421103095e-01
12 10 7.71095356898866546e-01
13 10 7.66029284797002274e-01
14 10 7.61976427115511168e-01
15 10 7.58936783854392671e-01
16 10 7.56910355013646674e-01
17 10 7.55897140593274064e-01
18 10 7.55897140593274064e-01
19 10 7.56910355013646896e-01
20 10 7.58936783854392560e-01
21 10 7.61976427115511168e-01
22 10 7.66029284797002274e-01
23 10 7.71095356898866546e-01
24 10 7.77174643421103095e-01
25 10 7.84267144363713253e-01
26 10 7.92372859726695800e-01
27 10 8.01491789510050956e-01
28 10 8.11623933713779278e-01
29 10 8.22769292337880431e-01
30 10 8.34927865382354417e-01
31 10 8.48099652847201013e-01
32 10 8.62284654732420330e-01
33 10 8.77482871038012813e-01
34 10 8.85588586400995359e-01
35 10 8.77482871038012813e-01
36 10 8.62284654732420441e-01
37 10 8.48099652847201013e-01
38 10 8.34927865382354417e-01
39 10 8.22769292337880431e-01
40 10 8.11623933713779278e-01
41 10 8.01491789510050956e-01
42 10 7.92372859726695689e-01
43 10 7.84267144363713253e-01
44 10 7.77174643421103095e-01
45 10 7.71095356898866546e-01
46 10 7.66029284797002274e-01
47 10 7.61976427115511168e-01
48 10 7.58936783854392671e-01
49 10 7.56910355013646674e-01
50 10 7.55897140593274064e-01
51 10 7.55897140593274064e-01
52 10 7.56910355013646896e-01
53 10 7.58936783854392560e-01
54 10 7.61976427115511168e-01
55 10 7.66029284797002274e-01
56 10 7.71095356898866546e-01
57 10 7.77174643421103095e-01
58 10 7.84267144363713253e-01
59 10 7.92372859726695800e-01
60 10 8.01491789510050956e-01
61 10 8.11623933713779278e-01
62 10 8.22769292337880431e-01
63 10 8.34927865382354417e-01
64 10 8.48099652847201013e-01
65 10 8.62284654732420330e-01
66 10 8.77482871038012813e-01
67 10 8.85588586400995359e-01
68 10 8.77482871038012813e-01
69 10 8.62284654732420441e-01
70 10 8.48099652847201013e-01
71 10 8.34927865382354417e-01
72 10 8.22769292337880431e-01
73 10 8.11623933713779278e-01
74 10 8.01491789510050956e-01
75 10 7.92372859726695689e-01
76 10 7.84267144363713253e-01
77 10 7.77174643421103095e-01
78 10 7.71095356898866546e-01
79 10 7.66029284797002274e-01
80 10 7.61976427115511168e-01
81 10 7.58936783854392671e-01
82 10 7.56910355013646674e-01
83 10 7.55897140593274064e-01
84 10 7.55897140593274064e-01
85 10 7.56910355013646896e-01
86 10 7.58936783854392560e-01
87 10 7.61976427115511168e-01
88 10 7.66029284797002274e-01
89 10 7.71095356898866546e-01
90 10 7.77174643421103095e-01
91 10 7.84267144363713253e-01
92 10 7.92372859726695800e-01
93 10 8.01491789510050956e-01
94 10 8.11623933713779278e-01
95 10 8.22769292337880431e-01
96 10 8.34927865382354417e-01
97 10 8.48099652847201013e-01
98 10 8.62284654732420330e-01
99 10 8.77482871038012813e-01
100 10 8.85588586400995359e-01
101 10 8.77482871038012813e-01
102 10 8.62284654732420441e-01
103 10 8.48099652847201013e-01
104 10 8.34927865382354417e-01
105 10 8.22769292337880431e-01
106 10 8.11623933713779278e-01
107 10 8.01491789510050956e-01
108 10 7.92372859726695689e-01
109 10 7.84267144363713253e-01
110 10 7.77174643421103095e-01
111 10 7.71095356898866546e-01
112 10 7.66029284797002274e-01
113 10 7.61976427115511168e-01
114 10 7.58936783854392671e-01
115 10 7.56910355013646674e-01
116 10 7.55897140593274064e-01
117 10 7.55897140593274064e-01
118 10 7.56910355013646896e-01
119 10 7.58936783854392560e-01
120 10 7.61976427115511168e-01
121 10 7.66029284797002274e-01
122 10 7.71095356898866546e-01
123 10 7.77174643421103095e-01
124 10 7.84267144363713253e-01
125 10 7.92372859726695800e-01
126 10 8.01491789510050956e-01
127 10 8.11623933713779278e-01
128 10 8.22769292337880431e-01
129 10 8.34927865382354417e-01
130 10 8.48099652847201013e-01
131 10 8.62284654732420330e-01
132 10 8.77482871038012813e-01
133 10 8.85588586400995359e-01
1 11 8.77579787449064952e-01
2 11 8.69547375926828070e-01
3 11 8.54486604322633791e-01
4 11 8.40429884158719220e-01
5 11 8.27377215435084357e-01
6 11 8.15328598151728867e-01
7 11 8.04284032308652863e-01
8 11 7.94243517905856677e-01
9 11 7.85207054943340199e-01
10 11 7.77174643421103428e-01
11 11 7.70146283339145699e-01
12 11 7.64121974697468342e-01
13 11 7.59101717496070139e-01
14 11 7.55085511734951864e-01
15 11 7.52073357414112964e-01
16 11 7.50065254533553438e-01
17 11 7.49061203093273953e-01
18 11 7.49061203093273953e-01
19 11 7.50065254533553660e-01
20 11 7.52073357414112853e-01
21 11 7.55085511734951864e-01
22 11 7.59101717496070139e-01
23 11 7.64121974697468342e-01
24 11 7.70146283339145699e-01
25 11 7.77174643421103428e-01
26 11 7.85207054943340310e-01
27 11 7.94243517905856677e-01
28 11 8.04284032308652863e-01
29 11 8.15328598151728756e-01
30 11 8.27377215435084357e-01
31 11 8.40429884158719220e-01
32 11 8.54486604322633680e-01
33 11 8.69547375926828070e-01
34 11 8.77579787449064952e-01
35 11 8.69547375926828070e-01
36 11 8.54486604322633791e-01
37 11 8.40429884158719220e-01
38 11 8.27377215435084357e-01
39 11 8.15328598151728867e-01
40 11 8.04284032308652863e-01
41 11 7.94243517905856677e-01
42 11 7.85207054943340199e-01
43 11 7.77174643421103428e-01
44 11 7.70146283339145699e-01
45 11 7.64121974697468342e-01
46 11 7.59101717496070139e-01
47 11 7.55085511734951864e-01
48 11 7.52073357414112964e-01
49 11 7.50065254533553438e-01
50 11 7.49061203093273953e-01
51 11 7.49061203093273953e-01
52 11 7.50065254533553660e-01
53 11 7.52073357414112853e-01
54 11 7.55085511734951864e-01
55 11 7.59101717496070139e-01
56 11 7.64121974697468342e-01
57 11 7.70146283339145699e-01
58 11 7.77174643421103428e-01
59 11 7.85207054943340310e-01
60 11 7.94243517905856677e-01
61 11 8.04284032308652863e-01
62 11 8.15328598151728756e-01
63 11 8.27377215435084357e-01
64 11 8.40429884158719220e-01
65 11 8.54486604322633680e-01
66 11 8.69547375926828070e-01
67 11 8.77579787449064952e-01
68 11 8.69547375926828070e-01
69 11 8.54486604322633791e-01
70 11 8.40429884158719220e-01
71 11 8.27377215435084357e-01
72 11 8.15328598151728867e-01
73 11 8.04284032308652863e-01
74 11 7.94243517905856677e-01
75 11 7.85207054943340199e-01
76 11 7.77174643421103428e-01
77 11 7.70146283339145699e-01
78 11 7.64121974697468342e-01
79 11 7.59101717496070139e-01
80 11 7.55085511734951864e-01
81 11 7.52073357414112964e-01
82 11 7.50065254533553438e-01
83 11 7.49061203093273953e-01
84 11 7.49061203093273953e-01
85 11 7.50065254533553660e-01
86 11 7.52073357414112853e-01
87 11 7.55085511734951864e-01
88 11 7.59101717496070139e-01
89 11 7.64121974697468342e-01
90 11 7.70146283339145699e-01
91 11 7.77174643421103428e-01
92 11 7.85207054943340310e-01
93 11 7.94243517905856677e-01
94 11 8.04284032308652863e-01
95 11 8.15328598151728756e-01
96 11 8.27377215435084357e-01
97 11 8.40429884158719220e-01
98 11 8.54486604322633680e-01
99 11 8.69547375926828070e-01
100 11 8.77579787449064952e-01
101 11 8.69547375926828070e-01
102 11 8.54486604322633791e-01
103 11 8.40429884158719220e-01
104 11 8.27377215435084357e-01
105 11 8.15328598151728867e-01
106 11 8.04284032308652863e-01
107 11 7.94243517905856677e-01
108 11 7.85207054943340199e-01
109 11 7.77174643421103428e-01
110 11 7.70146283339145699e-01
111 11 7.64121974697468342e-01
112 11 7.59101717496070139e-01
113 11 7.55085511734951864e-01
114 11 7.52073357414112964e-01
115 11 7.50065254533553438e-01
116 11 7.49061203093273953e-01
117 11 7.49061203093273953e-01
118 11 7.50065254533553660e-01
119 11 7.52073357414112853e-01
120 11 7.55085511734951864e-01
121 11 7.59101717496070139e-01
122 11 7.64121974697468342e-01
123 11 7.70146283339145699e-01
124 11 7.77174643421103428e-01
125 11 7.85207054943340310e-01
126 11 7.94243517905856677e-01
127 11 8.04284032308652863e-01
128 11 8.15328598151728756e-01
129 11 8.27377215435084357e-01
130 11 8.40429884158719220e-01
131 11 8.54486604322633680e-01
132 11 8.69547375926828070e-01
133 11 8.77579787449064952e-01
1 12 8.70715102633124793e-01
2 12 8.62745522974384116e-01
3 12 8.47802561114245345e-01
4 12 8.33855796711449160e-01
5 12 8.20905229765995781e-01
6 12 8.08950860277884654e-01
7 12 7.97992688247116111e-01
8 12 7.88030713673690264e-01
9 12 7.79064936557607002e-01
10 12 7.71095356898866546e-01
11 12 7.64121974697468120e-01
12 12 7.58144789953412834e-01
13 12 7.53163802666699800e-01
14 12 7.49179012837329683e-01
15 12 7.46190420465301929e-01
16 12 7.44198025550616427e-01
17 12 7.43201828093273953e-01
18 12 7.43201828093273953e-01
19 12 7.44198025550616649e-01
20 12 7.46190420465301818e-01
21 12 7.49179012837329683e-01
22 12 7.53163802666699800e-01
23 12 7.58144789953412834e-01
24 12 7.64121974697468009e-01
25 12 7.71095356898866546e-01
26 12 7.79064936557607113e-01
27 12 7.88030713673690264e-01
28 12 7.97992688247116111e-01
29 12 8.08950860277884543e-01
30 12 8.20905229765995781e-01
31 12 8.33855796711449160e-01
32 12 8.47802561114245234e-01
33 12 8.62745522974384116e-01
34 12 8.70715102633124793e-01
35 12 8.62745522974384116e-01
36 12 8.47802561114245345e-01
37 12 8.33855796711449160e-01
38 12 8.20905229765995781e-01
39 12 8.08950860277884654e-01
40 12 7.97992688247116111e-01
41 12 7.88030713673690264e-01
42 12 7.79064936557607002e-01
43 12 7.71095356898866546e-01
44 12 7.64121974697468120e-01
45 12 7.58144789953412834e-01
46 12 7.53163802666699800e-01
47 12 7.49179012837329683e-01
48 12 7.46190420465301929e-01
49 12 7.44198025550616427e-01
50 12 7.43201828093273953e-01
51 12 7.43201828093273953e-01
52 12 7.44198025550616649e-01
53 12 7.46190420465301818e-01
54 12 7.49179012837329683e-01
55 12 7.53163802666699800e-01
56 12 7.58144789953412834e-01
57 12 7.64121974697468009e-01
58 12 7.71095356898866546e-01
59 12 7.79064936557607113e-01
60 12 7.88030713673690264e-01
61 12 7.97992688247116111e-01
62 12 8.08950860277884543e-01
63 12 8.20905229765995781e-01
64 12 8.33855796711449160e-01
65 12 8.47802561114245234e-01
66 12 8.62745522974384116e-01
67 12 8.70715102633124793e-01
68 12 8.62745522974384116e-01
69 12 8.47802561114245345e-01
70 12 8.33855796711449160e-01
71 12 8.20905229765995781e-01
72 12 8.08950860277884654e-01
73 12 7.97992688247116111e-01
74 12 7.88030713673690264e-01
75 12 7.79064936557607002e-01
76 12 7.71095356898866546e-01
77 12 7.64121974697468120e-01
78 12 7.58144789953412834e-01
79 12 7.53163802666699800e-01
80 12 7.49179012837329683e-01
81 12 7.46190420465301929e-01
82 12 7.44198025550616427e-01
83 12 7.43201828093273953e-01
84 12 7.43201828093273953e-01
85 12 7.44198025550616649e-01
86 12 7.46190420465301818e-01
87 12 7.49179012837329683e-01
88 12 7.53163802666699800e-01
89 12 7.58144789953412834e-01
90 12 7.64121974697468009e-01
91 12 7.71095356898866546e-01
92 12 7.79064936557607113e-01
93 12 7.88030713673690264e-01
94 12 7.97992688247116111e-01
95 12 8.08950860277884543e-01
96 12 8.20905229765995781e-01
97 12 8.33855796711449160e-01
98 12 8.47802561114245234e-01
99 12 8.62745522974384116e-01
100 12 8.70715102633124793e-01
101 12 8.62745522974384116e-01
102 12 8.47802561114245345e-01
103 12 8.33855796711449160e-01
104 12 8.20905229765995781e-01
105 12 8.08950860277884654e-01
106 12 7.97992688247116111e-01
107 12 7.88030713673690264e-01
108 12 7.79064936557607002e-01
109 12 7.71095356898866546e-01
110 12 7.64121974697468120e-01
111 12 7.58144789953412834e-01
112 12 7.53163802666699800e-01
113 12 7.49179012837329683e-01
114 12 7.46190420465301929e-01
115 12 7.44198025550616427e-01
116 12 7.43201828093273953e-01
117 12 7.43201828093273953e-01
118 12 7.44198025550616649e-01
119 12 7.46190420465301818e-01
120 12 7.49179012837329683e-01
121 12 7.53163802666699800e-01
122 12 7.58144789953412834e-01
123 12 7.64121974697468009e-01
124 12 7.71095356898866546e-01
125 12 7.79064936557607113e-01
126 12 7.88030713673690264e-01
127 12 7.97992688247116111e-01
128 12 8.08950860277884543e-01
129 12 8.20905229765995781e-01
130 12 8.33855796711449160e-01
131 12 8.47802561114245234e-01
132 12 8.62745522974384116e-01
133 12 8.70715102633124793e-01
1 13 8.64994531953174439e-01
2 13 8.57077312180680728e-01
3 13 8.42232525107254881e-01
4 13 8.28377390505390832e-01
5 13 8.15511908375088579e-01
6 13 8.03636078716347790e-01
7 13 7.92749901529168799e-01
8 13 7.82853376813551494e-01
9 13 7.73946504569495985e-01
10 13 7.66029284797002497e-01
11 13 7.59101717496070028e-01
12 13 7.53163802666699911e-01
13 13 7.48215540308891147e-01
14 13 7.44256930422644403e-01
15 13 7.41287973007959344e-01
16 13 7.39308668064835528e-01
17 13 7.38319015593273953e-01
18 13 7.38319015593273953e-01
19 13 7.39308668064835861e-01
20 13 7.41287973007959233e-01
21 13 7.44256930422644403e-01
22 13 7.48215540308891258e-01
23 13 7.53163802666699911e-01
24 13 7.59101717496069917e-01
25 13 7.66029284797002386e-01
26 13 7.73946504569496097e-01
27 13 7.82853376813551494e-01
28 13 7.92749901529168799e-01
29 13 8.03636078716347790e-01
30 13 8.15511908375088579e-01
31 13 8.28377390505390832e-01
32 13 8.42232525107254770e-01
33 13 8.57077312180680728e-01
34 13 8.64994531953174439e-01
35 13 8.57077312180680728e-01
36 13 8.42232525107254881e-01
37 13 8.28377390505390832e-01
38 13 8.15511908375088579e-01
39 13 8.03636078716347790e-01
40 13 7.92749901529168799e-01
41 13 7.82853376813551494e-01
42 13 7.73946504569495985e-01
43 13 7.66029284797002497e-01
44 13 7.59101717496070028e-01
45 13 7.53163802666699911e-01
46 13 7.48215540308891147e-01
47 13 7.44256930422644403e-01
48 13 7.41287973007959344e-01
49 13 7.39308668064835528e-01
50 13 7.38319015593273953e-01
51 13 7.38319015593273953e-01
52 13 7.39308668064835861e-01
53 13 7.41287973007959233e-01
54 13 7.44256930422644403e-01
55 13 7.48215540308891258e-01
56 13 7.53163802666699911e-01
57 13 7.59101717496069917e-01
58 13 7.66029284797002386e-01
59 13 7.73946504569496097e-01
60 13 7.82853376813551494e-01
61 13 7.92749901529168799e-01
62 13 8.03636078716347790e-01
63 13 8.15511908375088579e-01
64 13 8.28377390505390832e-01
65 13 8.42232525107254770e-01
66 13 8.57077312180680728e-01
67 13 8.64994531953174439e-01
68 13 8.57077312180680728e-01
69 13 8.42232525107254881e-01
70 13 8.28377390505390832e-01
71 13 8.15511908375088579e-01
72 13 8.03636078716347790e-01
73 13 7.92749901529168799e-01
74 13 7.82853376813551494e-01
75 13 7.73946504569495985e-01
76 13 7.66029284797002497e-01
77 13 7.59101717496070028e-01
78 13 7.53163802666699911e-01
79 13 7.48215540308891147e-01
80 13 7.44256930422644403e-01
81 13 7.41287973007959344e-01
82 13 7.39308668064835528e-01
83 13 7.38319015593273953e-01
84 13 7.38319015593273953e-01
85 13 7.39308668064835861e-01
86 13 7.41287973007959233e-01
87 13 7.44256930422644403e-01
88 13 7.48215540308891258e-01
89 13 7.53163802666699911e-01
90 13 7.59101717496069917e-01
91 13 7.66029284797002386e-01
92 13 7.73946504569496097e-01
93 13 7.82853376813551494e-01
94 13 7.92749901529168799e-01
95 13 8.03636078716347790e-01
96 13 8.15511908375088579e-01
97 13 8.28377390505390832e-01
98 13 8.42232525107254770e-01
99 13 8.57077312180680728e-01
100 13 8.64994531953174439e-01
101 13 8.57077312180680728e-01
102 13 8.42232525107254881e-01
103 13 8.28377390505390832e-01
104 13 8.15511908375088579e-01
105 13 8.03636078716347790e-01
106 13 7.92749901529168799e-01
107 13 7.82853376813551494e-01
108 13 7.73946504569495985e-01
109 13 7.66029284797002497e-01
110 13 7.59101717496070028e-01
111 13 7.53163802666699911e-01
112 13 7.48215540308891147e-01
113 13 7.44256930422644403e-01
114 13 7.41287973007959344e-01
115 13 7.39308668064835528e-01
116 13 7.38319015593273953e-01
117 13 7.38319015593273953e-01
118 13 7.39308668064835861e-01
119 13 7.41287973007959233e-01
120 13 7.44256930422644403e-01
121 13 7.48215540308891258e-01
122 13 7.53163802666699911e-01
123 13 7.59101717496069917e-01
124 13 7.66029284797002386e-01
125 13 7.73946504569496097e-01
126 13 7.82853376813551494e-01
127 13 7.92749901529168799e-01
128 13 8.03636078716347790e-01
129 13 8.15511908375088579e-01
130 13 8.28377390505390832e-01
131 13 8.42232525107254770e-01
132 13 8.57077312180680728e-01
133 13 8.64994531953174439e-01
1 14 8.60418075409214334e-01
2 14 8.52542743545718018e-01
3 14 8.37776496301662510e-01
4 14 8.23994665540544124e-01
5 14 8.11197251262362862e-01
6 14 7.99384253467118278e-01
7 14 7.88555672154810816e-01
8 14 7.78711507325440477e-01
9 14 7.69851758979007150e-01
10 14 7.61976427115511279e-01
11 14 7.55085511734951531e-01
12 14 7.49179012837329572e-01
13 14 7.44256930422644292e-01
14 14 7.40319264490896245e-01
15 14 7.37366015042085321e-01
16 14 7.35397182076210854e-01
17 14 7.34412765593273953e-01
18 14 7.34412765593273953e-01
19 14 7.35397182076211187e-01
20 14 7.37366015042085210e-01
21 14 7.40319264490896245e-01
22 14 7.44256930422644292e-01
23 14 7.49179012837329572e-01
24 14 7.55085511734951531e-01
25 14 7.61976427115511168e-01
26 14 7.69851758979007261e-01
27 14 7.78711507325440477e-01
28 14 7.88555672154810816e-01
29 14 7.99384253467118278e-01
30 14 8.11197251262362862e-01
31 14 8.23994665540544124e-01
32 14 8.37776496301662399e-01
33 14 8.52542743545718018e-01
34 14 8.60418075409214334e-01
35 14 8.52542743545718018e-01
36 14 8.37776496301662510e-01
37 14 8.23994665540544124e-01
38 14 8.11197251262362862e-01
39 14 7.99384253467118278e-01
40 14 7.88555672154810816e-01
41 14 7.78711507325440477e-01
42 14 7.69851758979007150e-01
43 14 7.61976427115511279e-01
44 14 7.55085511734951531e-01
45 14 7.49179012837329572e-01
46 14 7.44256930422644292e-01
47 14 7.40319264490896245e-01
48 14 7.37366015042085321e-01
49 14 7.35397182076210854e-01
50 14 7.34412765593273953e-01
51 14 7.34412765593273953e-01
52 14 7.35397182076211187e-01
53 14 7.37366015042085210e-01
54 14 7.40319264490896245e-01
55 14 7.44256930422644292e-01
56 14 7.49179012837329572e-01
57 14 7.55085511734951531e-01
58 14 7.61976427115511168e-01
59 14 7.69851758979007261e-01
60 14 7.78711507325440477e-01
61 14 7.88555672154810816e-01
62 14 7.99384253467118278e-01
63 14 8.11197251262362862e-01
64 14 8.23994665540544124e-01
65 14 8.37776496301662399e-01
66 14 8.52542743545718018e-01
67 14 8.60418075409214334e-01
68 14 8.52542743545718018e-01
69 14 8.37776496301662510e-01
70 14 8.23994665540544124e-01
71 14 8.11197251262362862e-01
72 14 7.99384253467118278e-01
73 14 7.88555672154810816e-01
74 14 7.78711507325440477e-01
75 14 7.69851758979007150e-01
76 14 7.61976427115511279e-01
77 14 7.55085511734951531e-01
78 14 7.49179012837329572e-01
79 14 7.44256930422644292e-01
80 14 7.40319264490896245e-01
81 14 7.37366015042085321e-01
82 14 7.35397182076210854e-01
83 14 7.34412765593273953e-01
84 14 7.34412765593273953e-01
85 14 7.35397182076211187e-01
86 14 7.37366015042085210e-01
87 14 7.40319264490896245e-01
88 14 7.44256930422644292e-01
89 14 7.49179012837329572e-01
90 14 7.55085511734951531e-01
91 14 7.61976427115511168e-01
92 14 7.69851758979007261e-01
93 14 7.78711507325440477e-01
94 14 7.88555672154810816e-01
95 14 7.99384253467118278e-01
96 14 8.11197251262362862e-01
97 14 8.23994665540544124e-01
98 14 8.37776496301662399e-01
99 14 8.52542743545718018e-01
100 14 8.60418075409214334e-01
101 14 8.52542743545718018e-01
102 14 8.37776496301662510e-01
103 14 8.23994665540544124e-01
104 14 8.11197251262362862e-01
105 14 7.99384253467118278e-01
106 14 7.88555672154810816e-01
107 14 7.78711507325440477e-01
108 14 7.69851758979007150e-01
109 14 7.61976427115511279e-01
110 14 7.55085511734951531e-01
111 14 7.49179012837329572e-01
112 14 7.44256930422644292e-01
113 14 7.40319264490896245e-01
114 14 7.37366015042085321e-01
115 14 7.35397182076210854e-01
116 14 7.34412765593273953e-01
117 14 7.34412765593273953e-01
118 14 7.35397182076211187e-01
119 14 7.37366015042085210e-01
120 14 7.40319264490896245e-01
121 14 7.44256930422644292e-01
122 14 7.49179012837329572e-01
123 14 7.55085511734951531e-01
124 14 7.61976427115511168e-01
125 14 7.69851758979007261e-01
126 14 7.78711507325440477e-01
127 14 7.88555672154810816e-01
128 14 7.99384253467118278e-01
129 14 8.11197251262362862e-01
130 14 8.23994665540544124e-01
131 14 8.37776496301662399e-01
132 14 8.52542743545718018e-01
133 14 8.60418075409214334e-01
1 15 8.56985733001244254e-01
2 15 8.49141817069495874e-01
3 15 8.34434474697468231e-01
4 15 8.20707621816909150e-01
5 15 8.07961258427818518e-01
6 15 7.96195384530196115e-01
7 15 7.85410000124042273e-01
8 15 7.75605105209357215e-01
9 15 7.66780699786140496e-01
10 15 7.58936783854392782e-01
11 15 7.52073357414112742e-01
12 15 7.46190420465301818e-01
13 15 7.41287973007959122e-01
14 15 7.37366015042085099e-01
15 15 7.34424546567679748e-01
16 15 7.32463567584742292e-01
17 15 7.31483078093273953e-01
18 15 7.31483078093273953e-01
19 15 7.32463567584742736e-01
20 15 7.34424546567679637e-01
21 15 7.37366015042085099e-01
22 15 7.41287973007959122e-01
23 15 7.46190420465301818e-01
24 15 7.52073357414112742e-01
25 15 7.58936783854392560e-01
26 15 7.66780699786140607e-01
27 15 7.75605105209357215e-01
28 15 7.85410000124042273e-01
29 15 7.96195384530196115e-01
30 15 8.07961258427818518e-01
31 15 8.20707621816909150e-01
32 15 8.34434474697468120e-01
33 15 8.49141817069495874e-01
34 15 8.56985733001244254e-01
35 15 8.49141817069495874e-01
36 15 8.34434474697468231e-01
37 15 8.20707621816909150e-01
38 15 8.07961258427818518e-01
39 15 7.96195384530196115e-01
40 15 7.85410000124042273e-01
41 15 7.75605105209357215e-01
42 15 7.66780699786140496e-01
43 15 7.58936783854392782e-01
44 15 7.52073357414112742e-01
45 15 7.46190420465301818e-01
46 15 7.41287973007959122e-01
47 15 7.37366015042085099e-01
48 15 7.34424546567679748e-01
49 15 7.32463567584742292e-01
50 15 7.31483078093273953e-01
51 15 7.31483078093273953e-01
52 15 7.32463567584742736e-01
53 15 7.34424546567679637e-01
54 15 7.37366015042085099e-01
55 15 7.41287973007959122e-01
56 15 7.46190420465301818e-01
57 15 7.52073357414112742e-01
58 15 7.58936783854392560e-01
59 15 7.66780699786140607e-01
60 15 7.75605105209357215e-01
61 15 7.85410000124042273e-01
62 15 7.96195384530196115e-01
63 15 8.07961258427818518e-01
64 15 8.20707621816909150e-01
65 15 8.34434474697468120e-01
66 15 8.49141817069495874e-01
67 15 8.56985733001244254e-01
68 15 8.49141817069495874e-01
69 15 8.34434474697468231e-01
70 15 8.20707621816909150e-01
71 15 8.07961258427818518e-01
72 15 7.96195384530196115e-01
73 15 7.85410000124042273e-01
74 15 7.75605105209357215e-01
75 15 7.66780699786140496e-01
76 15 7.58936783854392782e-01
77 15 7.52073357414112742e-01
78 15 7.46190420465301818e-01
79 15 7.41287973007959122e-01
80 15 7.37366015042085099e-01
81 15 7.34424546567679748e-01
82 15 7.32463567584742292e-01
83 15 7.31483078093273953e-01
84 15 7.31483078093273953e-01
85 15 7.32463567584742736e-01
86 15 7.34424546567679637e-01
87 15 7.37366015042085099e-01
88 15 7.41287973007959122e-01
89 15 7.46190420465301818e-01
90 15 7.52073357414112742e-01
91 15 7.58936783854392560e-01
92 15 7.66780699786140607e-01
93 15 7.75605105209357215e-01
94 15 7.85410000124042273e-01
95 15 7.96195384530196115e-01
96 15 8.07961258427818518e-01
97 15 8.20707621816909150e-01
98 15 8.34434474697468120e-01
99 15 8.49141817069495874e-01
100 15 8.56985733001244254e-01
101 15 8.49141817069495874e-01
102 15 8.34434474697468231e-01
103 15 8.20707621816909150e-01
104 15 8.07961258427818518e-01
105 15 7.96195384530196115e-01
106 15 7.85410000124042273e-01
107 15 7.75605105209357215e-01
108 15 7.66780699786140496e-01
109 15 7.58936783854392782e-01
110 15 7.52073357414112742e-01
111 15 7.46190420465301818e-01
112 15 7.41287973007959122e-01
113 15 7.37366015042085099e-01
114 15 7.34424546567679748e-01
115 15 7.32463567584742292e-01
116 15 7.31483078093273953e-01
117 15 7.31483078093273953e-01
118 15 7.32463567584742736e-01
119 15 7.34424546567679637e-01
120 15 7.37366015042085099e-01
121 15 7.41287973007959122e-01
122 15 7.46190420465301818e-01
123 15 7.52073357414112742e-01
124 15 7.58936783854392560e-01
125 15 7.66780699786140607e-01
126 15 7.75605105209357215e-01
127 15 7.85410000124042273e-01
128 15 7.96195384530196115e-01
129 15 8.07961258427818518e-01
130 15 8.20707621816909150e-01
131 15 8.34434474697468120e-01
132 15 8.49141817069495874e-01
133 15 8.56985733001244254e-01
1 16 8.54697504729264090e-01
2 16 8.46874532752014408e-01
3 16 8.32206460294672046e-01
4 16 8.18516259334485685e-01
5 16 8.05803929871455660e-01
6 16 7.94069471905581303e-01
7 16 7.83312885436863282e-01
8 16 7.73534170465301596e-01
9 16 7.64733326990896023e-01
10 16 7.56910355013647118e-01
11 16 7.50065254533553438e-01
12 16 7.44198025550616538e-01
13 16 7.39308668064835639e-01
14 16 7.35397182076210965e-01
15 16 7.32463567584742736e-01
16 16 7.30507824590429955e-01
17 16 7.29529953093273842e-01
18 16 7.29529953093273842e-01
19 16 7.30507824590430399e-01
20 16 7.32463567584742514e-01
21 16 7.35397182076210965e-01
22 16 7.39308668064835639e-01
23 16 7.44198025550616538e-01
24 16 7.50065254533553438e-01
25 16 7.56910355013646896e-01
26 16 7.64733326990896134e-01
27 16 7.73534170465301596e-01
28 16 7.83312885436863282e-01
29 16 7.94069471905581303e-01
30 16 8.05803929871455660e-01
31 16 8.18516259334485685e-01
32 16 8.32206460294671935e-01
33 16 8.46874532752014408e-01
34 16 8.54697504729264090e-01
35 16 8.46874532752014408e-01
36 16 8.32206460294672046e-01
37 16 8.18516259334485685e-01
38 16 8.05803929871455660e-01
39 16 7.94069471905581303e-01
40 16 7.83312885436863282e-01
41 16 7.73534170465301596e-01
42 16 7.64733326990896023e-01
43 16 7.56910355013647118e-01
44 16 7.50065254533553438e-01
45 16 7.44198025550616538e-01
46 16 7.39308668064835639e-01
47 16 7.35397182076210965e-01
48 16 7.32463567584742736e-01
49 16 7.30507824590429955e-01
50 16 7.29529953093273842e-01
51 16 7.29529953093273842e-01
52 16 7.30507824590430399e-01
53 16 7.32463567584742514e-01
54 16 7.35397182076210965e-01
55 16 7.39308668064835639e-01
56 16 7.44198025550616538e-01
57 16 7.50065254533553438e-01
58 16 7.56910355013646896e-01
59 16 7.64733326990896134e-01
60 16 7.73534170465301596e-01
61 16 7.83312885436863282e-01
62 16 7.94069471905581303e-01
63 16 8.05803929871455660e-01
64 16 8.18516259334485685e-01
65 16 8.32206460294671935e-01
66 16 8.46874532752014408e-01
67 16 8.54697504729264090e-01
68 16 8.46874532752014408e-01
69 16 8.32206460294672046e-01
70 16 8.18516259334485685e-01
71 16 8.05803929871455660e-01
72 16 7.94069471905581303e-01
73 16 7.83312885436863282e-01
74 16 7.73534170465301596e-01
75 16 7.64733326990896023e-01
76 16 7.56910355013647118e-01
77 16 7.50065254533553438e-01
78 16 7.44198025550616538e-01
79 16 7.39308668064835639e-01
80 16 7.35397182076210965e-01
81 16 7.32463567584742736e-01
82 16 7.30507824590429955e-01
83 16 7.29529953093273842e-01
84 16 7.29529953093273842e-01
85 16 7.30507824590430399e-01
86 16 7.32463567584742514e-01
87 16 7.35397182076210965e-01
88 16 7.39308668064835639e-01
89 16 7.44198025550616538e-01
90 16 7.50065254533553438e-01
91 16 7.56910355013646896e-01
92 16 7.64733326990896134e-01
93 16 7.73534170465301596e-01
94 16 7.83312885436863282e-01
95 16 7.94069471905581303e-01
96 16 8.05803929871455660e-01
97 16 8.18516259334485685e-01
98 16 8.32206460294671935e-01
99 16 8.46874532752014408e-01
100 16 8.54697504729264090e-01
101 16 8.46874532752014408e-01
102 16 8.32206460294672046e-01
103 16 8.18516259334485685e-01
104 16 8.05803929871455660e-01
105 16 7.94069471905581303e-01
106 16 7.83312885436863282e-01
107 16 7.73534170465301596e-01
108 16 7.64733326990896023e-01
109 16 7.56910355013647118e-01
110 16 7.50065254533553438e-01
111 16 7.44198025550616538e-01
112 16 7.39308668064835639e-01
113 16 7.35397182076210965e-01
114 16 7.32463567584742736e-01
115 16 7.30507824590429955e-01
116 16 7.29529953093273842e-01
117 16 7.29529953093273842e-01
118 16 7.30507824590430399e-01
119 16 7.32463567584742514e-01
120 16 7.35397182076210965e-01
121 16 7.39308668064835639e-01
122 16 7.44198025550616538e-01
123 16 7.50065254533553438e-01
124 16 7.56910355013646896e-01
125 16 7.64733326990896134e-01
126 16 7.73534170465301596e-01
127 16 7.83312885436863282e-01
128 16 7.94069471905581303e-01
129 16 8.05803929871455660e-01
130 16 8.18516259334485685e-01
131 16 8.32206460294671935e-01
132 16 8.46874532752014408e-01
133 16 8.54697504729264090e-01
1 17 8.53553390593274064e-01
2 17 8.45740890593273731e-01
3 17 8.31092453093273953e-01
4 17 8.17420578093274064e-01
5 17 8.04725265593274175e-01
6 17 7.93006515593273953e-01
7 17 7.82264328093273842e-01
8 17 7.72498703093273842e-01
9 17 7.63709640593273842e-01
10 17 7.55897140593274286e-01
11 17 7.49061203093273842e-01
12 17 7.43201828093273953e-01
13 17 7.38319015593273953e-01
14 17 7.34412765593273953e-01
15 17 7.31483078093274175e-01
16 17 7.29529953093273842e-01
17 17 7.28553390593273842e-01
18 17 7.28553390593273842e-01
19 17 7.29529953093274175e-01
20 17 7.31483078093273953e-01
21 17 7.34412765593273953e-01
22 17 7.38319015593273953e-01
23 17 7.43201828093273953e-01
24 17 7.49061203093273842e-01
25 17 7.55897140593274064e-01
26 17 7.63709640593273953e-01
27 17 7.72498703093273842e-01
28 17 7.82264328093273842e-01
29 17 7.93006515593273953e-01
30 17 8.04725265593274175e-01
31 17 8.17420578093273953e-01
32 17 8.31092453093273842e-01
33 17 8.45740890593273731e-01
34 17 8.53553390593274064e-01
35 17 8.45740890593273731e-01
36 17 8.31092453093273953e-01
37 17 8.17420578093274064e-01
38 17 8.04725265593274175e-01
39 17 7.93006515593273953e-01
40 17 7.82264328093273842e-01
41 17 7.72498703093273842e-01
42 17 7.63709640593273842e-01
43 17 7.55897140593274286e-01
44 17 7.49061203093273842e-01
45 17 7.43201828093273953e-01
46 17 7.38319015593273953e-01
47 17 7.34412765593273953e-01
48 17 7.31483078093274175e-01
49 17 7.29529953093273842e-01
50 17 7.28553390593273842e-01
51 17 7.28553390593273842e-01
52 17 7.29529953093274175e-01
53 17 7.31483078093273953e-01
54 17 7.34412765593273953e-01
55 17 7.38319015593273953e-01
56 17 7.43201828093273953e-01
57 17 7.49061203093273842e-01
58 17 7.55897140593274064e-01
59 17 7.63709640593273953e-01
60 17 7.72498703093273842e-01
61 17 7.82264328093273842e-01
62 17 7.93006515593273953e-01
63 17 8.04725265593274175e-01
64 17 8.17420578093273953e-01
65 17 8.31092453093273842e-01
66 17 8.45740890593273731e-01
67 17 8.53553390593274064e-01
68 17 8.45740890593273731e-01
69 17 8.31092453093273953e-01
70 17 8.17420578093274064e-01
71 17 8.04725265593274175e-01
72 17 7.93006515593273953e-01
73 17 7.82264328093273842e-01
74 17 7.72498703093273842e-01
75 17 7.63709640593273842e-01
76 17 7.55897140593274286e-01
77 17 7.49061203093273842e-01
78 17 7.43201828093273953e-01
79 17 7.38319015593273953e-01
80 17 7.34412765593273953e-01
81 17 7.31483078093274175e-01
82 17 7.29529953093273842e-01
83 17 7.28553390593273842e-01
84 17 7.28553390593273842e-01
85 17 7.29529953093274175e-01
86 17 7.31483078093273953e-01
87 17 7.34412765593273953e-01
88 17 7.38319015593273953e-01
89 17 7.43201828093273953e-01
90 17 7.49061203093273842e-01
91 17 7.55897140593274064e-01
92 17 7.63709640593273953e-01
93 17 7.72498703093273842e-01
94 17 7.82264328093273842e-01
95 17 7.93006515593273953e-01
96 17 8.04725265593274175e-01
97 17 8.17420578093273953e-01
98 17 8.31092453093273842e-01
99 17 8.45740890593273731e-01
100 17 8.53553390593274064e-01
101 17 8.45740890593273731e-01
102 17 8.31092453093273953e-01
103 17 8.17420578093274064e-01
104 17 8.04725265593274175e-01
105 17 7.93006515593273953e-01
106 17 7.82264328093273842e-01
107 17 7.72498703093273842e-01
108 17 7.63709640593273842e-01
109 17 7.55897140593274286e-01
110 17 7.49061203093273842e-01
111 17 7.43201828093273953e-01
112 17 7.38319015593273953e-01
113 17 7.34412765593273953e-01
114 17 7.31483078093274175e-01
115 17 7.29529953093273842e-01
116 17 7.28553390593273842e-01
117 17 7.28553390593273842e-01
118 17 7.29529953093274175e-01
119 17 7.31483078093273953e-01
120 17 7.34412765593273953e-01
121 17 7.38319015593273953e-01
122 17 7.43201828093273953e-01
123 17 7.49061203093273842e-01
124 17 7.55897140593274064e-01
125 17 7.63709640593273953e-01
126 17 7.72498703093273842e-01
127 17 7.82264328093273842e-01
128 17 7.93006515593273953e-01
129 17 8.04725265593274175e-01
130 17 8.17420578093273953e-01
131 17 8.31092453093273842e-01
132 17 8.45740890593273731e-01
133 17 8.53553390593274064e-01
1 18 8.53553390593274064e-01
2 18 8.45740890593273842e-01
3 18 8.31092453093274064e-01
4 18 8.17420578093274175e-01
5 18 8.04725265593274286e-01
6 18 7.93006515593273953e-01
7 18 7.82264328093273953e-01
8 18 7.72498703093273842e-01
9 18 7.63709640593273953e-01
10 18 7.55897140593274286e-01
11 18 7.49061203093273842e-01
12 18 7.43201828093273953e-01
13 18 7.38319015593273953e-01
14 18 7.34412765593274064e-01
15 18 7.31483078093274175e-01
16 18 7.29529953093273953e-01
17 18 7.28553390593273842e-01
18 18 7.28553390593273842e-01
19 18 7.29529953093274175e-01
20 18 7.31483078093274064e-01
21 18 7.34412765593274064e-01
22 18 7.38319015593273953e-01
23 18 7.43201828093273953e-01
24 18 7.49061203093273842e-01
25 18 7.55897140593274064e-01
26 18 7.63709640593273953e-01
27 18 7.72498703093273842e-01
28 18 7.82264328093273953e-01
29 18 7.93006515593273953e-01
30 18 8.04725265593274175e-01
31 18 8.17420578093274064e-01
32 18 8.31092453093273953e-01
33 18 8.45740890593273842e-01
34 18 8.53553390593274064e-01
35 18 8.45740890593273842e-01
36 18 8.31092453093274064e-01
37 18 8.17420578093274175e-01
38 18 8.04725265593274286e-01
39 18 7.93006515593273953e-01
40 18 7.82264328093273953e-01
41 18 7.72498703093273842e-01
42 18 7.63709640593273953e-01
43 18 7.55897140593274286e-01
44 18 7.49061203093273842e-01
45 18 7.43201828093273953e-01
46 18 7.38319015593273953e-01
47 18 7.34412765593274064e-01
48 18 7.31483078093274175e-01
49 18 7.29529953093273953e-01
50 18 7.28553390593273842e-01
51 18 7.28553390593273842e-01
52 18 7.29529953093274175e-01
53 18 7.31483078093274064e-01
54 18 7.34412765593274064e-01
55 18 7.38319015593273953e-01
56 18 7.43201828093273953e-01
57 18 7.49061203093273842e-01
58 18 7.55897140593274064e-01
59 18 7.63709640593273953e-01
60 18 7.72498703093273842e-01
61 18 7.82264328093273953e-01
62 18 7.93006515593273953e-01
63 18 8.04725265593274175e-01
64 18 8.17420578093274064e-01
65 18 8.31092453093273953e-01
66 18 8.45740890593273842e-01
67 18 8.53553390593274064e-01
68 18 8.45740890593273842e-01
69 18 8.31092453093274064e-01
70 18 8.17420578093274175e-01
71 18 8.04725265593274286e-01
72 18 7.93006515593273953e-01
73 18 7.82264328093273953e-01
74 18 7.72498703093273842e-01
75 18 7.63709640593273953e-01
76 18 7.55897140593274286e-01
77 18 7.49061203093273842e-01
78 18 7.43201828093273953e-01
79 18 7.38319015593273953e-01
80 18 7.34412765593274064e-01
81 18 7.31483078093274175e-01
82 18 7.29529953093273953e-01
83 18 7.28553390593273842e-01
84 18 7.28553390593273842e-01
85 18 7.29529953093274175e-01
86 18 7.31483078093274064e-01
87 18 7.34412765593274064e-01
88 18 7.38319015593273953e-01
89 18 7.43201828093273953e-01
90 18 7.49061203093273842e-01
91 18 7.55897140593274064e-01
92 18 7.63709640593273953e-01
93 18 7.72498703093273842e-01
94 18 7.82264328093273953e-01
95 18 7.93006515593273953e-01
96 18 8.04725265593274175e-01
97 18 8.17420578093274064e-01
98 18 8.31092453093273953e-01
99 18 8.45740890593273842e-01
100 18 8.53553390593274064e-01
101 18 8.45740890593273842e-01
102 18 8.31092453093274064e-01
103 18 8.17420578093274175e-01
104 18 8.04725265593274286e-01
105 18 7.93006515593273953e-01
106 18 7.82264328093273953e-01
107 18 7.72498703093273842e-01
108 18 7.63709640593273953e-01
109 18 7.55897140593274286e-01
110 18 7.49061203093273842e-01
111 18 7.43201828093273953e-01
112 18 7.38319015593273953e-01
113 18 7.34412765593274064e-01
114 18 7.31483078093274175e-01
115 18 7.29529953093273953e-01
116 18 7.28553390593273842e-01
117 18 7.28553390593273842e-01
118 18 7.29529953093274175e-01
119 18 7.31483078093274064e-01
120 18 7.34412765593274064e-01
121 18 7.38319015593273953e-01
122 18 7.43201828093273953e-01
123 18 7.49061203093273842e-01
124 18 7.55897140593274064e-01
125 18 7.63709640593273953e-01
126 18 7.72498703093273842e-01
127 18 7.82264328093273953e-01
128 18 7.93006515593273953e-01
129 18 8.04725265593274175e-01
130 18 8.17420578093274064e-01
131 18 8.31092453093273953e-01
132 18 8.45740890593273842e-01
133 18 8.53553390593274064e-01
1 19 8.54697504729264201e-01
2 19 8.46874532752014630e-01
3 19 8.32206460294672157e-01
4 19 8.18516259334485907e-01
5 19 8.05803929871455771e-01
6 19 7.94069471905581414e-01
7 19 7.83312885436863504e-01
8 19 7.73534170465301596e-01
9 19 7.64733326990896245e-01
10 19 7.56910355013647118e-01
11 19 7.50065254533553549e-01
12 19 7.44198025550616649e-01
13 19 7.39308668064835750e-01
14 19 7.35397182076211076e-01
15 19 7.32463567584742736e-01
16 19 7.30507824590430288e-01
17 19 7.29529953093273953e-01
18 19 7.29529953093273953e-01
19 19 7.30507824590430399e-01
20 19 7.32463567584742625e-01
21 19 7.35397182076211076e-01
22 19 7.39308668064835750e-01
23 19 7.44198025550616649e-01
24 19 7.50065254533553549e-01
25 19 7.56910355013646896e-01
26 19 7.64733326990896245e-01
27 19 7.73534170465301596e-01
28 19 7.83312885436863504e-01
29 19 7.94069471905581414e-01
30 19 8.05803929871455660e-01
31 19 8.18516259334485796e-01
32 19 8.32206460294672046e-01
33 19 8.46874532752014630e-01
34 19 8.54697504729264201e-01
35 19 8.46874532752014630e-01
36 19 8.32206460294672157e-01
37 19 8.18516259334485907e-01
38 19 8.05803929871455771e-01
39 19 7.94069471905581414e-01
40 19 7.83312885436863504e-01
41 19 7.73534170465301596e-01
42 19 7.64733326990896245e-01
43 19 7.56910355013647118e-01
44 19 7.50065254533553549e-01
45 19 7.44198025550616649e-01
46 19 7.39308668064835750e-01
47 19 7.35397182076211076e-01
48 19 7.32463567584742736e-01
49 19 7.30507824590430288e-01
50 19 7.29529953093273953e-01
51 19 7.29529953093273953e-01
52 19 7.30507824590430399e-01
53 19 7.32463567584742625e-01
54 19 7.35397182076211076e-01
55 19 7.39308668064835750e-01
56 19 7.44198025550616649e-01
57 19 7.50065254533553549e-01
58 19 7.56910355013646896e-01
59 19 7.64733326990896245e-01
60 19 7.73534170465301596e-01
61 19 7.83312885436863504e-01
62 19 7.94069471905581414e-01
63 19 8.05803929871455660e-01
64 19 8.18516259334485796e-01
65 19 8.32206460294672046e-01
66 19 8.46874532752014630e-01
67 19 8.54697504729264201e-01
68 19 8.46874532752014630e-01
69 19 8.32206460294672157e-01
70 19 8.18516259334485907e-01
71 19 8.05803929871455771e-01
72 19 7.94069471905581414e-01
73 19 7.83312885436863504e-01
74 19 7.73534170465301596e-01
75 19 7.64733326990896245e-01
76 19 7.56910355013647118e-01
77 19 7.50065254533553549e-01
78 19 7.44198025550616649e-01
79 19 7.39308668064835750e-01
80 19 7.35397182076211076e-01
81 19 7.32463567584742736e-01
82 19 7.30507824590430288e-01
83 19 7.29529953093273953e-01
84 19 7.29529953093273953e-01
85 19 7.30507824590430399e-01
86 19 7.32463567584742625e-01
87 19 7.35397182076211076e-01
88 19 7.39308668064835750e-01
89 19 7.44198025550616649e-01
90 19 7.50065254533553549e-01
91 19 7.56910355013646896e-01
92 19 7.64733326990896245e-01
93 19 7.73534170465301596e-01
94 19 7.83312885436863504e-01
95 19 7.94069471905581414e-01
96 19 8.05803929871455660e-01
97 19 8.18516259334485796e-01
98 19 8.32206460294672046e-01
99 19 8.46874532752014630e-01
100 19 8.54697504729264201e-01
101 19 8.46874532752014630e-01
102 19 8.32206460294672157e-01
103 19 8.18516259334485907e-01
104 19 8.05803929871455771e-01
105 19 7.94069471905581414e-01
106 19 7.83312885436863504e-01
107 19 7.73534170465301596e-01
108 19 7.64733326990896245e-01
109 19 7.56910355013647118e-01
110 19 7.50065254533553549e-01
111 19 7.44198025550616649e-01
112 19 7.39308668064835750e-01
113 19 7.35397182076211076e-01
114 19 7.32463567584742736e-01
115 19 7.30507824590430288e-01
116 19 7.29529953093273953e-01
117 19 7.29529953093273953e-01
118 19 7.30507824590430399e-01
119 19 7.32463567584742625e-01
120 19 7.35397182076211076e-01
121 19 7.39308668064835750e-01
122 19 7.44198025550616649e-01
123 19 7.50065254533553549e-01
124 19 7.56910355013646896e-01
125 19 7.64733326990896245e-01
126 19 7.73534170465301596e-01
127 19 7.83312885436863504e-01
128 19 7.94069471905581414e-01
129 19 8.05803929871455660e-01
130 19 8.18516259334485796e-01
131 19 8.32206460294672046e-01
132 19 8.46874532752014630e-01
133 19 8.54697504729264201e-01
1 20 8.56985733001244254e-01
2 20 8.49141817069495985e-01
3 20 8.34434474697468342e-01
4 20 8.20707621816909261e-01
5 20 8.07961258427818629e-01
6 20 7.96195384530196226e-01
7 20 7.85410000124042496e-01
8 20 7.75605105209357104e-01
9 20 7.66780699786140718e-01
10 20 7.58936783854392782e-01
11 20 7.52073357414112853e-01
12 20 7.46190420465301818e-01
13 20 7.41287973007959122e-01
14 20 7.37366015042085099e-01
15 20 7.34424546567679859e-01
16 20 7.32463567584742625e-01
17 20 7.31483078093273953e-01
18 20 7.31483078093273953e-01
19 20 7.32463567584742736e-01
20 20 7.34424546567679637e-01
21 20 7.37366015042085099e-01
22 20 7.41287973007959122e-01
23 20 7.46190420465301818e-01
24 20 7.52073357414112853e-01
25 20 7.58936783854392560e-01
26 20 7.66780699786140718e-01
27 20 7.75605105209357104e-01
28 20 7.85410000124042496e-01
29 20 7.96195384530196226e-01
30 20 8.07961258427818518e-01
31 20 8.20707621816909150e-01
32 20 8.34434474697468120e-01
33 20 8.49141817069495985e-01
34 20 8.56985733001244254e-01
35 20 8.49141817069495985e-01
36 20 8.34434474697468342e-01
37 20 8.20707621816909261e-01
38 20 8.07961258427818629e-01
39 20 7.96195384530196226e-01
40 20 7.85410000124042496e-01
41 20 7.75605105209357104e-01
42 20 7.66780699786140718e-01
43 20 7.58936783854392782e-01
44 20 7.52073357414112853e-01
45 20 7.46190420465301818e-01
46 20 7.41287973007959122e-01
47 20 7.37366015042085099e-01
48 20 7.34424546567679859e-01
49 20 7.32463567584742625e-01
50 20 7.31483078093273953e-01
51 20 7.31483078093273953e-01
52 20 7.32463567584742736e-01
53 20 7.34424546567679637e-01
54 20 7.37366015042085099e-01
55 20 7.41287973007959122e-01
56 20 7.46190420465301818e-01
57 20 7.52073357414112853e-01
58 20 7.58936783854392560e-01
59 20 7.66780699786140718e-01
60 20 7.75605105209357104e-01
61 20 7.85410000124042496e-01
62 20 7.96195384530196226e-01
63 20 8.07961258427818518e-01
64 20 8.20707621816909150e-01
65 20 8.34434474697468120e-01
66 20 8.49141817069495985e-01
67 20 8.56985733001244254e-01
68 20 8.49141817069495985e-01
69 20 8.34434474697468342e-01
70 20 8.20707621816909261e-01
71 20 8.07961258427818629e-01
72 20 7.96195384530196226e-01
73 20 7.85410000124042496e-01
74 20 7.75605105209357104e-01
75 20 7.66780699786140718e-01
76 20 7.58936783854392782e-01
77 20 7.52073357414112853e-01
78 20 7.46190420465301818e-01
79 20 7.41287973007959122e-01
80 20 7.37366015042085099e-01
81 20 7.34424546567679859e-01
82 20 7.32463567584742625e-01
83 20 7.31483078093273953e-01
84 20 7.31483078093273953e-01
85 20 7.32463567584742736e-01
86 20 7.34424546567679637e-01
87 20 7.37366015042085099e-01
88 20 7.41287973007959122e-01
89 20 7.46190420465301818e-01
90 20 7.52073357414112853e-01
91 20 7.58936783854392560e-01
92 20 7.66780699786140718e-01
93 20 7.75605105209357104e-01
94 20 7.85410000124042496e-01
95 20 7.96195384530196226e-01
96 20 8.07961258427818518e-01
97 20 8.20707621816909150e-01
98 20 8.34434474697468120e-01
99 20 8.49141817069495985e-01
100 20 8.56985733001244254e-01
101 20 8.49141817069495985e-01
102 20 8.34434474697468342e-01
103 20 8.20707621816909261e-01
104 20 8.07961258427818629e-01
105 20 7.96195384530196226e-01
106 20 7.85410000124042496e-01
107 20 7.75605105209357104e-01
108 20 7.66780699786140718e-01
109 20 7.58936783854392782e-01
110 20 7.52073357414112853e-01
111 20 7.46190420465301818e-01
112 20 7.41287973007959122e-01
113 20 7.37366015042085099e-01
114 20 7.34424546567679859e-01
115 20 7.32463567584742625e-01
116 20 7.31483078093273953e-01
117 20 7.31483078093273953e-01
118 20 7.32463567584742736e-01
119 20 7.34424546567679637e-01
120 20 7.37366015042085099e-01
121 20 7.41287973007959122e-01
122 20 7.46190420465301818e-01
123 20 7.52073357414112853e-01
124 20 7.58936783854392560e-01
125 20 7.66780699786140718e-01
126 20 7.75605105209357104e-01
127 20 7.85410000124042496e-01
128 20 7.96195384530196226e-01
129 20 8.07961258427818518e-01
130 20 8.20707621816909150e-01
131 20 8.34434474697468120e-01
132 20 8.49141817069495985e-01
133 20 8.56985733001244254e-01
1 21 8.60418075409214334e-01
2 21 8.52542743545718018e-01
3 21 8.37776496301662510e-01
4 21 8.23994665540544236e-01
5 21 8.11197251262362862e-01
6 21 7.99384253467118278e-01
7 21 7.88555672154810816e-01
8 21 7.78711507325440366e-01
9 21 7.69851758979007372e-01
10 21 7.61976427115511279e-01
11 21 7.55085511734951753e-01
12 21 7.49179012837329572e-01
13 21 7.44256930422644292e-01
14 21 7.40319264490896245e-01
15 21 7.37366015042085321e-01
16 21 7.35397182076211076e-01
17 21 7.34412765593273953e-01
18 21 7.34412765593273953e-01
19 21 7.35397182076211187e-01
20 21 7.37366015042085099e-01
21 21 7.40319264490896245e-01
22 21 7.44256930422644292e-01
23 21 7.49179012837329572e-01
24 21 7.55085511734951753e-01
25 21 7.61976427115510946e-01
26 21 7.69851758979007261e-01
27 21 7.78711507325440366e-01
28 21 7.88555672154810816e-01
29 21 7.99384253467118278e-01
30 21 8.11197251262362751e-01
31 21 8.23994665540544124e-01
32 21 8.37776496301662288e-01
33 21 8.52542743545718018e-01
34 21 8.60418075409214334e-01
35 21 8.52542743545718018e-01
36 21 8.37776496301662510e-01
37 21 8.23994665540544236e-01
38 21 8.11197251262362862e-01
39 21 7.99384253467118278e-01
40 21 7.88555672154810816e-01
41 21 7.78711507325440366e-01
42 21 7.69851758979007372e-01
43 21 7.61976427115511279e-01
44 21 7.55085511734951753e-01
45 21 7.49179012837329572e-01
46 21 7.44256930422644292e-01
47 21 7.40319264490896245e-01
48 21 7.37366015042085321e-01
49 21 7.35397182076211076e-01
50 21 7.34412765593273953e-01
51 21 7.34412765593273953e-01
52 21 7.35397182076211187e-01
53 21 7.37366015042085099e-01
54 21 7.40319264490896245e-01
55 21 7.44256930422644292e-01
56 21 7.49179012837329572e-01
57 21 7.55085511734951753e-01
58 21 7.61976427115510946e-01
59 21 7.69851758979007261e-01
60 21 7.78711507325440366e-01
61 21 7.88555672154810816e-01
62 21 7.99384253467118278e-01
63 21 8.11197251262362751e-01
64 21 8.23994665540544124e-01
65 21 8.37776496301662288e-01
66 21 8.52542743545718018e-01
67 21 8.60418075409214334e-01
68 21 8.52542743545718018e-01
69 21 8.37776496301662510e-01
70 21 8.23994665540544236e-01
71 21 8.11197251262362862e-01
72 21 7.99384253467118278e-01
73 21 7.88555672154810816e-01
74 21 7.78711507325440366e-01
75 21 7.69851758979007372e-01
76 21 7.61976427115511279e-01
77 21 7.55085511734951753e-01
78 21 7.49179012837329572e-01
79 21 7.44256930422644292e-01
80 21 7.40319264490896245e-01
81 21 7.37366015042085321e-01
82 21 7.35397182076211076e-01
83 21 7.34412765593273953e-01
84 21 7.34412765593273953e-01
85 21 7.35397182076211187e-01
86 21 7.37366015042085099e-01
87 21 7.40319264490896245e-01
88 21 7.44256930422644292e-01
89 21 7.49179012837329572e-01
90 21 7.55085511734951753e-01
91 21 7.61976427115510946e-01
92 21 7.69851758979007261e-01
93 21 7.78711507325440366e-01
94 21 7.88555672154810816e-01
95 21 7.99384253467118278e-01
96 21 8.11197251262362751e-01
97 21 8.23994665540544124e-01
98 21 8.37776496301662288e-01
99 21 8.52542743545718018e-01
100 21 8.60418075409214334e-01
101 21 8.52542743545718018e-01
102 21 8.37776496301662510e-01
103 21 8.23994665540544236e-01
104 21 8.11197251262362862e-01
105 21 7.99384253467118278e-01
106 21 7.88555672154810816e-01
107 21 7.78711507325440366e-01
108 21 7.69851758979007372e-01
109 21 7.61976427115511279e-01
110 21 7.55085511734951753e-01
111 21 7.49179012837329572e-01
112 21 7.44256930422644292e-01
113 21 7.40319264490896245e-01
114 21 7.37366015042085321e-01
115 21 7.35397182076211076e-01
116 21 7.34412765593273953e-01
117 21 7.34412765593273953e-01
118 21 7.35397182076211187e-01
119 21 7.37366015042085099e-01
120 21 7.40319264490896245e-01
121 21 7.44256930422644292e-01
122 21 7.49179012837329572e-01
123 21 7.55085511734951753e-01
124 21 7.61976427115510946e-01
125 21 7.69851758979007261e-01
126 21 7.78711507325440366e-01
127 21 7.88555672154810816e-01
128 21 7.99384253467118278e-01
129 21 8.11197251262362751e-01
130 21 8.23994665540544124e-01
131 21 8.37776496301662288e-01
132 21 8.52542743545718018e-01
133 21 8.60418075409214334e-01
1 22 8.64994531953174550e-01
2 22 8.57077312180680728e-01
3 22 8.42232525107254881e-01
4 22 8.28377390505390943e-01
5 22 8.15511908375088579e-01
6 22 8.03636078716347790e-01
7 22 7.92749901529168688e-01
8 22 7.82853376813551383e-01
9 22 7.73946504569496208e-01
10 22 7.66029284797002497e-01
11 22 7.59101717496070139e-01
12 22 7.53163802666699911e-01
13 22 7.48215540308891147e-01
14 22 7.44256930422644403e-01
15 22 7.41287973007959455e-01
16 22 7.39308668064835750e-01
17 22 7.38319015593273953e-01
18 22 7.38319015593273953e-01
19 22 7.39308668064835861e-01
20 22 7.41287973007959233e-01
21 22 7.44256930422644403e-01
22 22 7.48215540308891147e-01
23 22 7.53163802666699911e-01
24 22 7.59101717496070139e-01
25 22 7.66029284797002274e-01
26 22 7.73946504569496097e-01
27 22 7.82853376813551383e-01
28 22 7.92749901529168688e-01
29 22 8.03636078716347790e-01
30 22 8.15511908375088468e-01
31 22 8.28377390505390832e-01
32 22 8.42232525107254659e-01
33 22 8.57077312180680728e-01
34 22 8.64994531953174550e-01
35 22 8.57077312180680728e-01
36 22 8.42232525107254881e-01
37 22 8.28377390505390943e-01
38 22 8.15511908375088579e-01
39 22 8.03636078716347790e-01
40 22 7.92749901529168688e-01
41 22 7.82853376813551383e-01
42 22 7.73946504569496208e-01
43 22 7.66029284797002497e-01
44 22 7.59101717496070139e-01
45 22 7.53163802666699911e-01
46 22 7.48215540308891147e-01
47 22 7.44256930422644403e-01
48 22 7.41287973007959455e-01
49 22 7.39308668064835750e-01
50 22 7.38319015593273953e-01
51 22 7.38319015593273953e-01
52 22 7.39308668064835861e-01
53 22 7.41287973007959233e-01
54 22 7.44256930422644403e-01
55 22 7.48215540308891147e-01
56 22 7.53163802666699911e-01
57 22 7.59101717496070139e-01
58 22 7.66029284797002274e-01
59 22 7.73946504569496097e-01
60 22 7.82853376813551383e-01
61 22 7.92749901529168688e-01
62 22 8.03636078716347790e-01
63 22 8.15511908375088468e-01
64 22 8.28377390505390832e-01
65 22 8.42232525107254659e-01
66 22 8.57077312180680728e-01
67 22 8.64994531953174550e-01
68 22 8.57077312180680728e-01
69 22 8.42232525107254881e-01
70 22 8.28377390505390943e-01
71 22 8.15511908375088579e-01
72 22 8.03636078716347790e-01
73 22 7.92749901529168688e-01
74 22 7.82853376813551383e-01
75 22 7.73946504569496208e-01
76 22 7.66029284797002497e-01
77 22 7.59101717496070139e-01
78 22 7.53163802666699911e-01
79 22 7.48215540308891147e-01
80 22 7.44256930422644403e-01
81 22 7.41287973007959455e-01
82 22 7.39308668064835750e-01
83 22 7.38319015593273953e-01
84 22 7.38319015593273953e-01
85 22 7.39308668064835861e-01
86 22 7.41287973007959233e-01
87 22 7.44256930422644403e-01
88 22 7.48215540308891147e-01
89 22 7.53163802666699911e-01
90 22 7.59101717496070139e-01
91 22 7.66029284797002274e-01
92 22 7.73946504569496097e-01
93 22 7.82853376813551383e-01
94 22 7.92749901529168688e-01
95 22 8.03636078716347790e-01
96 22 8.15511908375088468e-01
97 22 8.28377390505390832e-01
98 22 8.42232525107254659e-01
99 22 8.57077312180680728e-01
100 22 8.64994531953174550e-01
101 22 8.57077312180680728e-01
102 22 8.42232525107254881e-01
103 22 8.28377390505390943e-01
104 22 8.15511908375088579e-01
105 22 8.03636078716347790e-01
106 22 7.92749901529168688e-01
107 22 7.82853376813551383e-01
108 22 7.73946504569496208e-01
109 22 7.66029284797002497e-01
110 22 7.59101717496070139e-01
111 22 7.53163802666699911e-01
112 22 7.48215540308891147e-01
113 22 7.44256930422644403e-01
114 22 7.41287973007959455e-01
115 22 7.39308668064835750e-01
116 22 7.38319015593273953e-01
117 22 7.38319015593273953e-01
118 22 7.39308668064835861e-01
119 22 7.41287973007959233e-01
120 22 7.44256930422644403e-01
121 22 7.48215540308891147e-01
122 22 7.53163802666699911e-01
123 22 7.59101717496070139e-01
124 22 7.66029284797002274e-01
125 22 7.73946504569496097e-01
126 22 7.82853376813551383e-01
127 22 7.92749901529168688e-01
128 22 8.03636078716347790e-01
129 22 8.15511908375088468e-01
130 22 8.28377390505390832e-01
131 22 8.42232525107254659e-01
132 22 8.57077312180680728e-01
133 22 8.64994531953174550e-01
1 23 8.70715102633124793e-01
2 23 8.62745522974384116e-01
3 23 8.47802561114245345e-01
4 23 8.33855796711449271e-01
5 23 8.20905229765995781e-01
6 23 8.08950860277884654e-01
7 23 7.97992688247116111e-01
8 23 7.88030713673690153e-01
9 23 7.79064936557607224e-01
10 23 7.71095356898866546e-01
11 23 7.64121974697468231e-01
12 23 7.58144789953412834e-01
13 23 7.53163802666699800e-01
14 23 7.49179012837329572e-01
15 23 7.46190420465302040e-01
16 23 7.44198025550616649e-01
17 23 7.43201828093273953e-01
18 23 7.43201828093273953e-01
19 23 7.44198025550616760e-01
20 23 7.46190420465301818e-01
21 23 7.49179012837329572e-01
22 23 7.53163802666699800e-01
23 23 7.58144789953412834e-01
24 23 7.64121974697468231e-01
25 23 7.71095356898866435e-01
26 23 7.79064936557607113e-01
27 23 7.88030713673690153e-01
28 23 7.97992688247116111e-01
29 23 8.08950860277884654e-01
30 23 8.20905229765995670e-01
31 23 8.33855796711449271e-01
32 23 8.47802561114245123e-01
33 23 8.62745522974384116e-01
34 23 8.70715102633124793e-01
35 23 8.62745522974384116e-01
36 23 8.47802561114245345e-01
37 23 8.33855796711449271e-01
38 23 8.20905229765995781e-01
39 23 8.08950860277884654e-01
40 23 7.97992688247116111e-01
41 23 7.88030713673690153e-01
42 23 7.79064936557607224e-01
43 23 7.71095356898866546e-01
44 23 7.64121974697468231e-01
45 23 7.58144789953412834e-01
46 23 7.53163802666699800e-01
47 23 7.49179012837329572e-01
48 23 7.46190420465302040e-01
49 23 7.44198025550616649e-01
50 23 7.43201828093273953e-01
51 23 7.43201828093273953e-01
52 23 7.44198025550616760e-01
53 23 7.46190420465301818e-01
54 23 7.49179012837329572e-01
55 23 7.53163802666699800e-01
56 23 7.58144789953412834e-01
57 23 7.64121974697468231e-01
58 23 7.71095356898866435e-01
59 23 7.79064936557607113e-01
60 23 7.88030713673690153e-01
61 23 7.97992688247116111e-01
62 23 8.08950860277884654e-01
63 23 8.20905229765995670e-01
64 23 8.33855796711449271e-01
65 23 8.47802561114245123e-01
66 23 8.62745522974384116e-01
67 23 8.70715102633124793e-01
68 23 8.62745522974384116e-01
69 23 8.47802561114245345e-01
70 23 8.33855796711449271e-01
71 23 8.20905229765995781e-01
72 23 8.08950860277884654e-01
73 23 7.97992688247116111e-01
74 23 7.88030713673690153e-01
75 23 7.79064936557607224e-01
76 23 7.71095356898866546e-01
77 23 7.64121974697468231e-01
78 23 7.58144789953412834e-01
79 23 7.53163802666699800e-01
80 23 7.49179012837329572e-01
81 23 7.46190420465302040e-01
82 23 7.44198025550616649e-01
83 23 7.43201828093273953e-01
84 23 7.43201828093273953e-01
85 23 7.44198025550616760e-01
86 23 7.46190420465301818e-01
87 23 7.49179012837329572e-01
88 23 7.53163802666699800e-01
89 23 7.58144789953412834e-01
90 23 7.64121974697468231e-01
91 23 7.71095356898866435e-01
92 23 7.79064936557607113e-01
93 23 7.88030713673690153e-01
94 23 7.97992688247116111e-01
95 23 8.08950860277884654e-01
96 23 8.20905229765995670e-01
97 23 8.33855796711449271e-01
98 23 8.47802561114245123e-01
99 23 8.62745522974384116e-01
100 23 8.70715102633124793e-01
101 23 8.62745522974384116e-01
102 23 8.47802561114245345e-01
103 23 8.33855796711449271e-01
104 23 8.20905229765995781e-01
105 23 8.08950860277884654e-01
106 23 7.97992688247116111e-01
107 23 7.88030713673690153e-01
108 23 7.79064936557607224e-01
109 23 7.71095356898866546e-01
110 23 7.64121974697468231e-01
111 23 7.58144789953412834e-01
112 23 7.53163802666699800e-01
113 23 7.49179012837329572e-01
114 23 7.46190420465302040e-01
115 23 7.44198025550616649e-01
116 23 7.43201828093273953e-01
117 23 7.43201828093273953e-01
118 23 7.44198025550616760e-01
119 23 7.46190420465301818e-01
120 23 7.49179012837329572e-01
121 23 7.53163802666699800e-01
122 23 7.58144789953412834e-01
123 23 7.64121974697468231e-01
124 23 7.71095356898866435e-01
125 23 7.79064936557607113e-01
126 23 7.88030713673690153e-01
127 23 7.97992688247116111e-01
128 23 8.08950860277884654e-01
129 23 8.20905229765995670e-01
130 23 8.33855796711449271e-01
131 23 8.47802561114245123e-01
132 23 8.62745522974384116e-01
133 23 8.70715102633124793e-01
1 24 8.77579787449065063e-01
2 24 8.69547375926828181e-01
3 24 8.54486604322633791e-01
4 24 8.40429884158719331e-01
5 24 8.27377215435084357e-01
6 24 8.15328598151728867e-01
7 24 8.04284032308652863e-01
8 24 7.94243517905856677e-01
9 24 7.85207054943340421e-01
10 24 7.77174643421103539e-01
11 24 7.70146283339145921e-01
12 24 7.64121974697468342e-01
13 24 7.59101717496070028e-01
14 24 7.55085511734951753e-01
15 24 7.52073357414113075e-01
16 24 7.50065254533553660e-01
17 24 7.49061203093273953e-01
18 24 7.49061203093273953e-01
19 24 7.50065254533553660e-01
20 24 7.52073357414112964e-01
21 24 7.55085511734951753e-01
22 24 7.59101717496070028e-01
23 24 7.64121974697468342e-01
24 24 7.70146283339145921e-01
25 24 7.77174643421103317e-01
26 24 7.85207054943340310e-01
27 24 7.94243517905856677e-01
28 24 8.04284032308652863e-01
29 24 8.15328598151728867e-01
30 24 8.27377215435084246e-01
31 24 8.40429884158719220e-01
32 24 8.54486604322633569e-01
33 24 8.69547375926828070e-01
34 24 8.77579787449065063e-01
35 24 8.69547375926828181e-01
36 24 8.54486604322633791e-01
37 24 8.40429884158719331e-01
38 24 8.27377215435084357e-01
39 24 8.15328598151728867e-01
40 24 8.04284032308652863e-01
41 24 7.94243517905856677e-01
42 24 7.85207054943340421e-01
43 24 7.77174643421103539e-01
44 24 7.70146283339145921e-01
45 24 7.64121974697468342e-01
46 24 7.59101717496070028e-01
47 24 7.55085511734951753e-01
48 24 7.52073357414113075e-01
49 24 7.50065254533553660e-01
50 24 7.49061203093273953e-01
51 24 7.49061203093273953e-01
52 24 7.50065254533553660e-01
53 24 7.52073357414112964e-01
54 24 7.55085511734951753e-01
55 24 7.59101717496070028e-01
56 24 7.64121974697468342e-01
57 24 7.70146283339145921e-01
58 24 7.77174643421103317e-01
59 24 7.85207054943340310e-01
60 24 7.94243517905856677e-01
61 24 8.04284032308652863e-01
62 24 8.15328598151728867e-01
63 24 8.27377215435084246e-01
64 24 8.40429884158719220e-01
65 24 8.54486604322633569e-01
66 24 8.69547375926828070e-01
67 24 8.77579787449065063e-01
68 24 8.69547375926828181e-01
69 24 8.54486604322633791e-01
70 24 8.40429884158719331e-01
71 24 8.27377215435084357e-01
72 24 8.15328598151728867e-01
73 24 8.04284032308652863e-01
74 24 7.94243517905856677e-01
75 24 7.85207054943340421e-01
76 24 7.77174643421103539e-01
77 24 7.70146283339145921e-01
78 24 7.64121974697468342e-01
79 24 7.59101717496070028e-01
80 24 7.55085511734951753e-01
81 24 7.52073357414113075e-01
82 24 7.50065254533553660e-01
83 24 7.49061203093273953e-01
84 24 7.49061203093273953e-01
85 24 7.50065254533553660e-01
86 24 7.52073357414112964e-01
87 24 7.55085511734951753e-01
88 24 7.59101717496070028e-01
89 24 7.64121974697468342e-01
90 24 7.70146283339145921e-01
91 24 7.77174643421103317e-01
92 24 7.85207054943340310e-01
93 24 7.94243517905856677e-01
94 24 8.04284032308652863e-01
95 24 8.15328598151728867e-01
96 24 8.27377215435084246e-01
97 24 8.40429884158719220e-01
98 24 8.54486604322633569e-01
99 24 8.69547375926828070e-01
100 24 8.77579787449065063e-01
101 24 8.69547375926828181e-01
102 24 8.54486604322633791e-01
103 24 8.40429884158719331e-01
104 24 8.27377215435084357e-01
105 24 8.15328598151728867e-01
106 24 8.04284032308652863e-01
107 24 7.94243517905856677e-01
108 24 7.85207054943340421e-01
109 24 7.77174643421103539e-01
110 24 7.70146283339145921e-01
111 24 7.64121974697468342e-01
112 24 7.59101717496070028e-01
113 24 7.55085511734951753e-01
114 24 7.52073357414113075e-01
115 24 7.50065254533553660e-01
116 24 7.49061203093273953e-01
117 24 7.49061203093273953e-01
118 24 7.50065254533553660e-01
119 24 7.52073357414112964e-01
120 24 7.55085511734951753e-01
121 24 7.59101717496070028e-01
122 24 7.64121974697468342e-01
123 24 7.70146283339145921e-01
124 24 7.77174643421103317e-01
125 24 7.85207054943340310e-01
126 24 7.94243517905856677e-01
127 24 8.04284032308652863e-01
128 24 8.15328598151728867e-01
129 24 8.27377215435084246e-01
130 24 8.40429884158719220e-01
131 24 8.54486604322633569e-01
132 24 8.69547375926828070e-01
133 24 8.77579787449065063e-01
1 25 8.85588586400995359e-01
2 25 8.77482871038012924e-01
3 25 8.62284654732420441e-01
4 25 8.48099652847201124e-01
5 25 8.34927865382354528e-01
6 25 8.22769292337880542e-01
7 25 8.11623933713779278e-01
8 25 8.01491789510050956e-01
9 25 7.92372859726695911e-01
10 25 7.84267144363713253e-01
11 25 7.77174643421103206e-01
12 25 7.71095356898866435e-01
13 25 7.66029284797002163e-01
14 25 7.61976427115511057e-01
15 25 7.58936783854392671e-01
16 25 7.56910355013646896e-01
17 25 7.55897140593273953e-01
18 25 7.55897140593273953e-01
19 25 7.56910355013646896e-01
20 25 7.58936783854392560e-01
21 25 7.61976427115511057e-01
22 25 7.66029284797002163e-01
23 25 7.71095356898866435e-01
24 25 7.77174643421103206e-01
25 25 7.84267144363713142e-01
26 25 7.92372859726695800e-01
27 25 8.01491789510050956e-01
28 25 8.11623933713779278e-01
29 25 8.22769292337880431e-01
30 25 8.34927865382354306e-01
31 25 8.48099652847201013e-01
32 25 8.62284654732420219e-01
33 25 8.77482871038012702e-01
34 25 8.85588586400995359e-01
35 25 8.77482871038012924e-01
36 25 8.62284654732420441e-01
37 25 8.48099652847201124e-01
38 25 8.34927865382354528e-01
39 25 8.22769292337880542e-01
40 25 8.11623933713779278e-01
41 25 8.01491789510050956e-01
42 25 7.92372859726695911e-01
43 25 7.84267144363713253e-01
44 25 7.77174643421103206e-01
45 25 7.71095356898866435e-01
46 25 7.66029284797002163e-01
47 25 7.61976427115511057e-01
48 25 7.58936783854392671e-01
49 25 7.56910355013646896e-01
50 25 7.55897140593273953e-01
51 25 7.55897140593273953e-01
52 25 7.56910355013646896e-01
53 25 7.58936783854392560e-01
54 25 7.61976427115511057e-01
55 25 7.66029284797002163e-01
56 25 7.71095356898866435e-01
57 25 7.77174643421103206e-01
58 25 7.84267144363713142e-01
59 25 7.92372859726695800e-01
60 25 8.01491789510050956e-01
61 25 8.11623933713779278e-01
62 25 8.22769292337880431e-01
63 25 8.34927865382354306e-01
64 25 8.48099652847201013e-01
65 25 8.62284654732420219e-01
66 25 8.77482871038012702e-01
67 25 8.85588586400995359e-01
68 25 8.77482871038012924e-01
69 25 8.62284654732420441e-01
70 25 8.48099652847201124e-01
71 25 8.34927865382354528e-01
72 25 8.22769292337880542e-01
73 25 8.11623933713779278e-01
74 25 8.01491789510050956e-01
75 25 7.92372859726695911e-01
76 25 7.84267144363713253e-01
77 25 7.77174643421103206e-01
78 25 7.71095356898866435e-01
79 25 7.66029284797002163e-01
80 25 7.61976427115511057e-01
81 25 7.58936783854392671e-01
82 25 7.56910355013646896e-01
83 25 7.55897140593273953e-01
84 25 7.55897140593273953e-01
85 25 7.56910355013646896e-01
86 25 7.58936783854392560e-01
87 25 7.61976427115511057e-01
88 25 7.66029284797002163e-01
89 25 7.71095356898866435e-01
90 25 7.77174643421103206e-01
91 25 7.84267144363713142e-01
92 25 7.92372859726695800e-01
93 25 8.01491789510050956e-01
94 25 8.11623933713779278e-01
95 25 8.22769292337880431e-01
96 25 8.34927865382354306e-01
97 25 8.48099652847201013e-01
98 25 8.62284654732420219e-01
99 25 8.77482871038012702e-01
100 25 8.85588586400995359e-01
101 25 8.77482871038012924e-01
102 25 8.62284654732420441e-01
103 25 8.48099652847201124e-01
104 25 8.34927865382354528e-01
105 25 8.22769292337880542e-01
106 25 8.11623933713779278e-01
107 25 8.01491789510050956e-01
108 25 7.92372859726695911e-01
109 25 7.84267144363713253e-01
110 25 7.77174643421103206e-01
111 25 7.71095356898866435e-01
112 25 7.66029284797002163e-01
113 25 7.61976427115511057e-01
114 25 7.58936783854392671e-01
115 25 7.56910355013646896e-01
116 25 7.55897140593273953e-01
117 25 7.55897140593273953e-01
118 25 7.56910355013646896e-01
119 25 7.58936783854392560e-01
120 25 7.61976427115511057e-01
121 25 7.66029284797002163e-01
122 25 7.71095356898866435e-01
123 25 7.77174643421103206e-01
124 25 7.84267144363713142e-01
125 25 7.92372859726695800e-01
126 25 8.01491789510050956e-01
127 25 8.11623933713779278e-01
128 25 8.22769292337880431e-01
129 25 8.34927865382354306e-01
130 25 8.48099652847201013e-01
131 25 8.62284654732420219e-01
132 25 8.77482871038012702e-01
133 25 8.85588586400995359e-01
1 26 8.94741499488915792e-01
2 26 8.86552008307938233e-01
3 26 8.71196712343605073e-01
4 26 8.56865102776894427e-01
5 26 8.43557179607805963e-01
6 26 8.31272942836339457e-01
7 26 8.20012392462495021e-01
8 26 8.09775528486272989e-01
9 26 8.00562350907673470e-01
10 26 7.92372859726695800e-01
11 26 7.85207054943340199e-01
12 26 7.79064936557607113e-01
13 26 7.73946504569495985e-01
14 26 7.69851758979007261e-01
15 26 7.66780699786140829e-01
16 26 7.64733326990896245e-01
17 26 7.63709640593273842e-01
18 26 7.63709640593273842e-01
19 26 7.64733326990896245e-01
20 26 7.66780699786140718e-01
21 26 7.69851758979007261e-01
22 26 7.73946504569495985e-01
23 26 7.79064936557607113e-01
24 26 7.85207054943340199e-01
25 26 7.92372859726695689e-01
26 26 8.00562350907673359e-01
27 26 8.09775528486272989e-01
28 26 8.20012392462495021e-01
29 26 8.31272942836339346e-01
30 26 8.43557179607805740e-01
31 26 8.56865102776894316e-01
32 26 8.71196712343604851e-01
33 26 8.86552008307938011e-01
34 26 8.94741499488915792e-01
35 26 8.86552008307938233e-01
36 26 8.71196712343605073e-01
37 26 8.56865102776894427e-01
38 26 8.43557179607805963e-01
39 26 8.31272942836339457e-01
40 26 8.20012392462495021e-01
41 26 8.09775528486272989e-01
42 26 8.00562350907673470e-01
43 26 7.92372859726695800e-01
44 26 7.85207054943340199e-01
45 26 7.79064936557607113e-01
46 26 7.73946504569495985e-01
47 26 7.69851758979007261e-01
48 26 7.66780699786140829e-01
49 26 7.64733326990896245e-01
50 26 7.63709640593273842e-01
51 26 7.63709640593273842e-01
52 26 7.64733326990896245e-01
53 26 7.66780699786140718e-01
54 26 7.69851758979007261e-01
55 26 7.73946504569495985e-01
56 26 7.79064936557607113e-01
57 26 7.85207054943340199e-01
58 26 7.92372859726695689e-01
59 26 8.00562350907673359e-01
60 26 8.09775528486272989e-01
61 26 8.20012392462495021e-01
62 26 8.31272942836339346e-01
63 26 8.43557179607805740e-01
64 26 8.56865102776894316e-01
65 26 8.71196712343604851e-01
66 26 8.86552008307938011e-01
67 26 8.94741499488915792e-01
68 26 8.86552008307938233e-01
69 26 8.71196712343605073e-01
70 26 8.56865102776894427e-01
71 26 8.43557179607805963e-01
72 26 8.31272942836339457e-01
73 26 8.20012392462495021e-01
74 26 8.09775528486272989e-01
75 26 8.00562350907673470e-01
76 26 7.92372859726695800e-01
77 26 7.85207054943340199e-01
78 26 7.79064936557607113e-01
79 26 7.73946504569495985e-01
80 26 7.69851758979007261e-01
81 26 7.66780699786140829e-01
82 26 7.64733326990896245e-01
83 26 7.63709640593273842e-01
84 26 7.63709640593273842e-01
85 26 7.64733326990896245e-01
86 26 7.66780699786140718e-01
87 26 7.69851758979007261e-01
88 26 7.73946504569495985e-01
89 26 7.79064936557607113e-01
90 26 7.85207054943340199e-01
91 26 7.92372859726695689e-01
92 26 8.00562350907673359e-01
93 26 8.09775528486272989e-01
94 26 8.20012392462495021e-01
95 26 8.31272942836339346e-01
96 26 8.43557179607805740e-01
97 26 8.56865102776894316e-01
98 26 8.71196712343604851e-01
99 26 8.86552008307938011e-01
100 26 8.94741499488915792e-01
101 26 8.86552008307938233e-01
102 26 8.71196712343605073e-01
103 26 8.56865102776894427e-01
104 26 8.43557179607805963e-01
105 26 8.31272942836339457e-01
106 26 8.20012392462495021e-01
107 26 8.09775528486272989e-01
108 26 8.00562350907673470e-01
109 26 7.92372859726695800e-01
110 26 7.85207054943340199e-01
111 26 7.79064936557607113e-01
112 26 7.73946504569495985e-01
113 26 7.69851758979007261e-01
114 26 7.66780699786140829e-01
115 26 7.64733326990896245e-01
116 26 7.63709640593273842e-01
117 26 7.63709640593273842e-01
118 26 7.64733326990896245e-01
119 26 7.66780699786140718e-01
120 26 7.69851758979007261e-01
121 26 7.73946504569495985e-01
122 26 7.79064936557607113e-01
123 26 7.85207054943340199e-01
124 26 7.92372859726695689e-01
125 26 8.00562350907673359e-01
126 26 8.09775528486272989e-01
127 26 8.20012392462495021e-01
128 26 8.31272942836339346e-01
129 26 8.43557179607805740e-01
130 26 8.56865102776894316e-01
131 26 8.71196712343604851e-01
132 26 8.86552008307938011e-01
133 26 8.94741499488915792e-01
1 27 9.05038526712826141e-01
2 27 8.96754787736604220e-01
3 27 8.81222777156187798e-01
4 27 8.66726233947799352e-01
5 27 8.53265158111438882e-01
6 27 8.40839549647105722e-01
7 27 8.29449408554800316e-01
8 27 8.19094734834522664e-01
9 27 8.09775528486273322e-01
10 27 8.01491789510051178e-01
11 27 7.94243517905856788e-01
12 27 7.88030713673690375e-01
13 27 7.82853376813551494e-01
14 27 7.78711507325440588e-01
15 27 7.75605105209357437e-01
16 27 7.73534170465301818e-01
17 27 7.72498703093273842e-01
18 27 7.72498703093273842e-01
19 27 7.73534170465301818e-01
20 27 7.75605105209357326e-01
21 27 7.78711507325440588e-01
22 27 7.82853376813551494e-01
23 27 7.88030713673690375e-01
24 27 7.94243517905856788e-01
25 27 8.01491789510051067e-01
26 27 8.09775528486273211e-01
27 27 8.19094734834522664e-01
28 27 8.29449408554800316e-01
29 27 8.40839549647105722e-01
30 27 8.53265158111438660e-01
31 27 8.66726233947799241e-01
32 27 8.81222777156187576e-01
33 27 8.96754787736603998e-01
34 27 9.05038526712826141e-01
35 27 8.96754787736604220e-01
36 27 8.81222777156187798e-01
37 27 8.66726233947799352e-01
38 27 8.53265158111438882e-01
39 27 8.40839549647105722e-01
40 27 8.29449408554800316e-01
41 27 8.19094734834522664e-01
42 27 8.09775528486273322e-01
43 27 8.01491789510051178e-01
44 27 7.94243517905856788e-01
45 27 7.88030713673690375e-01
46 27 7.82853376813551494e-01
47 27 7.78711507325440588e-01
48 27 7.75605105209357437e-01
49 27 7.73534170465301818e-01
50 27 7.72498703093273842e-01
51 27 7.72498703093273842e-01
52 27 7.73534170465301818e-01
53 27 7.75605105209357326e-01
54 27 7.78711507325440588e-01
55 27 7.82853376813551494e-01
56 27 7.88030713673690375e-01
57 27 7.94243517905856788e-01
58 27 8.01491789510051067e-01
59 27 8.09775528486273211e-01
60 27 8.19094734834522664e-01
61 27 8.29449408554800316e-01
62 27 8.40839549647105722e-01
63 27 8.53265158111438660e-01
64 27 8.66726233947799241e-01
65 27 8.81222777156187576e-01
66 27 8.96754787736603998e-01
67 27 9.05038526712826141e-01
68 27 8.96754787736604220e-01
69 27 8.81222777156187798e-01
70 27 8.66726233947799352e-01
71 27 8.53265158111438882e-01
72 27 8.40839549647105722e-01
73 27 8.29449408554800316e-01
74 27 8.19094734834522664e-01
75 27 8.09775528486273322e-01
76 27 8.01491789510051178e-01
77 27 7.94243517905856788e-01
78 27 7.88030713673690375e-01
79 27 7.82853376813551494e-01
80 27 7.78711507325440588e-01
81 27 7.75605105209357437e-01
82 27 7.73534170465301818e-01
83 27 7.72498703093273842e-01
84 27 7.72498703093273842e-01
85 27 7.73534170465301818e-01
86 27 7.75605105209357326e-01
87 27 7.78711507325440588e-01
88 27 7.82853376813551494e-01
89 27 7.88030713673690375e-01
90 27 7.94243517905856788e-01
91 27 8.01491789510051067e-01
92 27 8.09775528486273211e-01
93 27 8.19094734834522664e-01
94 27 8.29449408554800316e-01
95 27 8.40839549647105722e-01
96 27 8.53265158111438660e-01
97 27 8.66726233947799241e-01
98 27 8.81222777156187576e-01
99 27 8.96754787736603998e-01
100 27 9.05038526712826141e-01
101 27 8.96754787736604220e-01
102 27 8.81222777156187798e-01
103 27 8.66726233947799352e-01
104 27 8.53265158111438882e-01
105 27 8.40839549647105722e-01
106 27 8.29449408554800316e-01
107 27 8.19094734834522664e-01
108 27 8.09775528486273322e-01
109 27 8.01491789510051178e-01
110 27 7.94243517905856788e-01
111 27 7.88030713673690375e-01
112 27 7.82853376813551494e-01
113 27 7.78711507325440588e-01
114 27 7.75605105209357437e-01
115 27 7.73534170465301818e-01
116 27 7.72498703093273842e-01
117 27 7.72498703093273842e-01
118 27 7.73534170465301818e-01
119 27 7.75605105209357326e-01
120 27 7.78711507325440588e-01
121 27 7.82853376813551494e-01
122 27 7.88030713673690375e-01
123 27 7.94243517905856788e-01
124 27 8.01491789510051067e-01
125 27 8.09775528486273211e-01
126 27 8.19094734834522664e-01
127 27 8.29449408554800316e-01
128 27 8.40839549647105722e-01
129 27 8.53265158111438660e-01
130 27 8.66726233947799241e-01
131 27 8.81222777156187576e-01
132 27 8.96754787736603998e-01
133 27 9.05038526712826141e-01
1 28 9.16479668072726628e-01
2 28 9.08091209324010884e-01
3 28 8.92362849170168726e-01
4 28 8.77683046359916119e-01
5 28 8.64051800893253175e-01
6 28 8.51469112770179448e-01
7 28 8.39934981990694940e-01
8 28 8.29449408554800205e-01
9 28 8.20012392462495243e-01
10 28 8.11623933713779389e-01
11 28 8.04284032308652974e-01
12 28 7.97992688247116222e-01
13 28 7.92749901529168799e-01
14 28 7.88555672154810927e-01
15 28 7.85410000124042607e-01
16 28 7.83312885436863504e-01
17 28 7.82264328093273842e-01
18 28 7.82264328093273842e-01
19 28 7.83312885436863504e-01
20 28 7.85410000124042496e-01
21 28 7.88555672154810927e-01
22 28 7.92749901529168799e-01
23 28 7.97992688247116111e-01
24 28 8.04284032308652974e-01
25 28 8.11623933713779278e-01
26 28 8.20012392462495243e-01
27 28 8.29449408554800205e-01
28 28 8.39934981990695051e-01
29 28 8.51469112770179448e-01
30 28 8.64051800893252953e-01
31 28 8.77683046359915897e-01
32 28 8.92362849170168504e-01
33 28 9.08091209324010662e-01
34 28 9.16479668072726628e-01
35 28 9.08091209324010884e-01
36 28 8.92362849170168726e-01
37 28 8.77683046359916119e-01
38 28 8.64051800893253175e-01
39 28 8.51469112770179448e-01
40 28 8.39934981990694940e-01
41 28 8.29449408554800205e-01
42 28 8.20012392462495243e-01
43 28 8.11623933713779389e-01
44 28 8.04284032308652974e-01
45 28 7.97992688247116222e-01
46 28 7.92749901529168799e-01
47 28 7.88555672154810927e-01
48 28 7.85410000124042607e-01
49 28 7.83312885436863504e-01
50 28 7.82264328093273842e-01
51 28 7.82264328093273842e-01
52 28 7.83312885436863504e-01
53 28 7.85410000124042496e-01
54 28 7.88555672154810927e-01
55 28 7.92749901529168799e-01
56 28 7.97992688247116111e-01
57 28 8.04284032308652974e-01
58 28 8.11623933713779278e-01
59 28 8.20012392462495243e-01
60 28 8.29449408554800205e-01
61 28 8.39934981990695051e-01
62 28 8.51469112770179448e-01
63 28 8.64051800893252953e-01
64 28 8.77683046359915897e-01
65 28 8.92362849170168504e-01
66 28 9.08091209324010662e-01
67 28 9.16479668072726628e-01
68 28 9.08091209324010884e-01
69 28 8.92362849170168726e-01
70 28 8.77683046359916119e-01
71 28 8.64051800893253175e-01
72 28 8.51469112770179448e-01
73 28 8.39934981990694940e-01
74 28 8.29449408554800205e-01
75 28 8.20012392462495243e-01
76 28 8.11623933713779389e-01
77 28 8.04284032308652974e-01
78 28 7.97992688247116222e-01
79 28 7.92749901529168799e-01
80 28 7.88555672154810927e-01
81 28 7.85410000124042607e-01
82 28 7.83312885436863504e-01
83 28 7.82264328093273842e-01
84 28 7.82264328093273842e-01
85 28 7.83312885436863504e-01
86 28 7.85410000124042496e-01
87 28 7.88555672154810927e-01
88 28 7.92749901529168799e-01
89 28 7.97992688247116111e-01
90 28 8.04284032308652974e-01
91 28 8.11623933713779278e-01
92 28 8.20012392462495243e-01
93 28 8.29449408554800205e-01
94 28 8.39934981990695051e-01
95 28 8.51469112770179448e-01
96 28 8.64051800893252953e-01
97 28 8.77683046359915897e-01
98 28 8.92362849170168504e-01
99 28 9.08091209324010662e-01
100 28 9.16479668072726628e-01
101 28 9.08091209324010884e-01
102 28 8.92362849170168726e-01
103 28 8.77683046359916119e-01
104 28 8.64051800893253175e-01
105 28 8.51469112770179448e-01
106 28 8.39934981990694940e-01
107 28 8.29449408554800205e-01
108 28 8.20012392462495243e-01
109 28 8.11623933713779389e-01
110 28 8.04284032308652974e-01
111 28 7.97992688247116222e-01
112 28 7.92749901529168799e-01
113 28 7.88555672154810927e-01
114 28 7.85410000124042607e-01
115 28 7.83312885436863504e-01
116 28 7.82264328093273842e-01
117 28 7.82264328093273842e-01
118 28 7.83312885436863504e-01
119 28 7.85410000124042496e-01
120 28 7.88555672154810927e-01
121 28 7.92749901529168799e-01
122 28 7.97992688247116111e-01
123 28 8.04284032308652974e-01
124 28 8.11623933713779278e-01
125 28 8.20012392462495243e-01
126 28 8.29449408554800205e-01
127 28 8.39934981990695051e-01
128 28 8.51469112770179448e-01
129 28 8.64051800893252953e-01
130 28 8.77683046359915897e-01
131 28 8.92362849170168504e-01
132 28 9.08091209324010662e-01
133 28 9.16479668072726628e-01
1 29 9.29064923568617140e-01
2 29 9.20561273070158226e-01
3 29 9.04616928385547636e-01
4 29 8.89735540013244397e-01
5 29 8.75917107953248841e-01
6 29 8.63161632205560414e-01
7 29 8.51469112770179115e-01
8 29 8.40839549647105500e-01
9 29 8.31272942836339457e-01
10 29 8.22769292337880431e-01
11 29 8.15328598151728756e-01
12 29 8.08950860277884543e-01
13 29 8.03636078716347790e-01
14 29 7.99384253467118167e-01
15 29 7.96195384530196226e-01
16 29 7.94069471905581414e-01
17 29 7.93006515593273842e-01
18 29 7.93006515593273842e-01
19 29 7.94069471905581414e-01
20 29 7.96195384530196115e-01
21 29 7.99384253467118167e-01
22 29 8.03636078716347790e-01
23 29 8.08950860277884543e-01
24 29 8.15328598151728756e-01
25 29 8.22769292337880320e-01
26 29 8.31272942836339457e-01
27 29 8.40839549647105500e-01
28 29 8.51469112770179226e-01
29 29 8.63161632205560414e-01
30 29 8.75917107953248619e-01
31 29 8.89735540013244286e-01
32 29 9.04616928385547525e-01
33 29 9.20561273070158004e-01
34 29 9.29064923568617140e-01
35 29 9.20561273070158226e-01
36 29 9.04616928385547636e-01
37 29 8.89735540013244397e-01
38 29 8.75917107953248841e-01
39 29 8.63161632205560414e-01
40 29 8.51469112770179115e-01
41 29 8.40839549647105500e-01
42 29 8.31272942836339457e-01
43 29 8.22769292337880431e-01
44 29 8.15328598151728756e-01
45 29 8.08950860277884543e-01
46 29 8.03636078716347790e-01
47 29 7.99384253467118167e-01
48 29 7.96195384530196226e-01
49 29 7.94069471905581414e-01
50 29 7.93006515593273842e-01
51 29 7.93006515593273842e-01
52 29 7.94069471905581414e-01
53 29 7.96195384530196115e-01
54 29 7.99384253467118167e-01
55 29 8.03636078716347790e-01
56 29 8.08950860277884543e-01
57 29 8.15328598151728756e-01
58 29 8.22769292337880320e-01
59 29 8.31272942836339457e-01
60 29 8.40839549647105500e-01
61 29 8.51469112770179226e-01
62 29 8.63161632205560414e-01
63 29 8.75917107953248619e-01
64 29 8.89735540013244286e-01
65 29 9.04616928385547525e-01
66 29 9.20561273070158004e-01
67 29 9.29064923568617140e-01
68 29 9.20561273070158226e-01
69 29 9.04616928385547636e-01
70 29 8.89735540013244397e-01
71 29 8.75917107953248841e-01
72 29 8.63161632205560414e-01
73 29 8.51469112770179115e-01
74 29 8.40839549647105500e-01
75 29 8.31272942836339457e-01
76 29 8.22769292337880431e-01
77 29 8.15328598151728756e-01
78 29 8.08950860277884543e-01
79 29 8.03636078716347790e-01
80 29 7.99384253467118167e-01
81 29 7.96195384530196226e-01
82 29 7.94069471905581414e-01
83 29 7.93006515593273842e-01
84 29 7.93006515593273842e-01
85 29 7.94069471905581414e-01
86 29 7.96195384530196115e-01
87 29 7.99384253467118167e-01
88 29 8.03636078716347790e-01
89 29 8.08950860277884543e-01
90 29 8.15328598151728756e-01
91 29 8.22769292337880320e-01
92 29 8.31272942836339457e-01
93 29 8.40839549647105500e-01
94 29 8.51469112770179226e-01
95 29 8.63161632205560414e-01
96 29 8.75917107953248619e-01
97 29 8.89735540013244286e-01
98 29 9.04616928385547525e-01
99 29 9.20561273070158004e-01
100 29 9.29064923568617140e-01
101 29 9.20561273070158226e-01
102 29 9.04616928385547636e-01
103 29 8.89735540013244397e-01
104 29 8.75917107953248841e-01
105 29 8.63161632205560414e-01
106 29 8.51469112770179115e-01
107 29 8.40839549647105500e-01
108 29 8.31272942836339457e-01
109 29 8.22769292337880431e-01
110 29 8.15328598151728756e-01
111 29 8.08950860277884543e-01
112 29 8.03636078716347790e-01
113 29 7.99384253467118167e-01
114 29 7.96195384530196226e-01
115 29 7.94069471905581414e-01
116 29 7.93006515593273842e-01
117 29 7.93006515593273842e-01
118 29 7.94069471905581414e-01
119 29 7.96195384530196115e-01
120 29 7.99384253467118167e-01
121 29 8.03636078716347790e-01
122 29 8.08950860277884543e-01
123 29 8.15328598151728756e-01
124 29 8.22769292337880320e-01
125 29 8.31272942836339457e-01
126 29 8.40839549647105500e-01
127 29 8.51469112770179226e-01
128 29 8.63161632205560414e-01
129 29 8.75917107953248619e-01
130 29 8.89735540013244286e-01
131 29 9.04616928385547525e-01
132 29 9.20561273070158004e-01
133 29 9.29064923568617140e-01
1 30 9.42794293200497679e-01
2 30 9.34164978975046245e-01
3 30 9.17985014802324750e-01
4 30 9.02883714907784518e-01
5 30 8.88861079291426104e-01
6 30 8.75917107953248841e-01
7 30 8.64051800893252842e-01
8 30 8.53265158111438549e-01
9 30 8.43557179607805852e-01
10 30 8.34927865382354306e-01
11 30 8.27377215435084135e-01
12 30 8.20905229765995559e-01
13 30 8.15511908375088468e-01
14 30 8.11197251262362640e-01
15 30 8.07961258427818518e-01
16 30 8.05803929871455549e-01
17 30 8.04725265593273953e-01
18 30 8.04725265593273953e-01
19 30 8.05803929871455549e-01
20 30 8.07961258427818407e-01
21 30 8.11197251262362640e-01
22 30 8.15511908375088468e-01
23 30 8.20905229765995559e-01
24 30 8.27377215435084135e-01
25 30 8.34927865382354306e-01
26 30 8.43557179607805963e-01
27 30 8.53265158111438549e-01
28 30 8.64051800893252953e-01
29 30 8.75917107953248841e-01
30 30 8.88861079291425882e-01
31 30 9.02883714907784407e-01
32 30 9.17985014802324528e-01
33 30 9.34164978975046023e-01
34 30 9.42794293200497679e-01
35 30 9.34164978975046245e-01
36 30 9.17985014802324750e-01
37 30 9.02883714907784518e-01
38 30 8.88861079291426104e-01
39 30 8.75917107953248841e-01
40 30 8.64051800893252842e-01
41 30 8.53265158111438549e-01
42 30 8.43557179607805852e-01
43 30 8.34927865382354306e-01
44 30 8.27377215435084135e-01
45 30 8.20905229765995559e-01
46 30 8.15511908375088468e-01
47 30 8.11197251262362640e-01
48 30 8.07961258427818518e-01
49 30 8.05803929871455549e-01
50 30 8.04725265593273953e-01
51 30 8.04725265593273953e-01
52 30 8.05803929871455549e-01
53 30 8.07961258427818407e-01
54 30 8.11197251262362640e-01
55 30 8.15511908375088468e-01
56 30 8.20905229765995559e-01
57 30 8.27377215435084135e-01
58 30 8.34927865382354306e-01
59 30 8.43557179607805963e-01
60 30 8.53265158111438549e-01
61 30 8.64051800893252953e-01
62 30 8.75917107953248841e-01
63 30 8.88861079291425882e-01
64 30 9.02883714907784407e-01
65 30 9.17985014802324528e-01
66 30 9.34164978975046023e-01
67 30 9.42794293200497679e-01
68 30 9.34164978975046245e-01
69 30 9.17985014802324750e-01
70 30 9.02883714907784518e-01
71 30 8.88861079291426104e-01
72 30 8.75917107953248841e-01
73 30 8.64051800893252842e-01
74 30 8.53265158111438549e-01
75 30 8.43557179607805852e-01
76 30 8.34927865382354306e-01
77 30 8.27377215435084135e-01
78 30 8.20905229765995559e-01
79 30 8.15511908375088468e-01
80 30 8.11197251262362640e-01
81 30 8.07961258427818518e-01
82 30 8.05803929871455549e-01
83 30 8.04725265593273953e-01
84 30 8.04725265593273953e-01
85 30 8.05803929871455549e-01
86 30 8.07961258427818407e-01
87 30 8.11197251262362640e-01
88 30 8.15511908375088468e-01
89 30 8.20905229765995559e-01
90 30 8.27377215435084135e-01
91 30 8.34927865382354306e-01
92 30 8.43557179607805963e-01
93 30 8.53265158111438549e-01
94 30 8.64051800893252953e-01
95 30 8.75917107953248841e-01
96 30 8.88861079291425882e-01
97 30 9.02883714907784407e-01
98 30 9.17985014802324528e-01
99 30 9.34164978975046023e-01
100 30 9.42794293200497679e-01
101 30 9.34164978975046245e-01
102 30 9.17985014802324750e-01
103 30 9.02883714907784518e-01
104 30 8.88861079291426104e-01
105 30 8.75917107953248841e-01
106 30 8.64051800893252842e-01
107 30 8.53265158111438549e-01
108 30 8.43557179607805852e-01
109 30 8.34927865382354306e-01
110 30 8.27377215435084135e-01
111 30 8.20905229765995559e-01
112 30 8.15511908375088468e-01
113 30 8.11197251262362640e-01
114 30 8.07961258427818518e-01
115 30 8.05803929871455549e-01
116 30 8.04725265593273953e-01
117 30 8.04725265593273953e-01
118 30 8.05803929871455549e-01
119 30 8.07961258427818407e-01
120 30 8.11197251262362640e-01
121 30 8.15511908375088468e-01
122 30 8.20905229765995559e-01
123 30 8.27377215435084135e-01
124 30 8.34927865382354306e-01
125 30 8.43557179607805963e-01
126 30 8.53265158111438549e-01
127 30 8.64051800893252953e-01
128 30 8.75917107953248841e-01
129 30 8.88861079291425882e-01
130 30 9.02883714907784407e-01
131 30 9.17985014802324528e-01
132 30 9.34164978975046023e-01
133 30 9.42794293200497679e-01
1 31 9.57667776968368245e-01
2 31 9.48902327038674942e-01
3 31 9.32467108420499846e-01
4 31 9.17127571043536260e-01
5 31 9.02883714907784740e-01
6 31 8.89735540013244619e-01
7 31 8.77683046359916008e-01
8 31 8.66726233947799241e-01
9 31 8.56865102776894427e-01
10 31 8.48099652847201013e-01
11 31 8.40429884158719220e-01
12 31 8.33855796711449160e-01
13 31 8.28377390505390832e-01
14 31 8.23994665540544013e-01
15 31 8.20707621816909150e-01
16 31 8.18516259334485796e-01
17 31 8.17420578093273953e-01
18 31 8.17420578093273953e-01
19 31 8.18516259334485796e-01
20 31 8.20707621816909150e-01
21 31 8.23994665540544013e-01
22 31 8.28377390505390832e-01
23 31 8.33855796711449160e-01
24 31 8.40429884158719220e-01
25 31 8.48099652847201013e-01
26 31 8.56865102776894538e-01
27 31 8.66726233947799352e-01
28 31 8.77683046359916119e-01
29 31 8.89735540013244619e-01
30 31 9.02883714907784629e-01
31 31 9.17127571043536149e-01
32 31 9.32467108420499624e-01
33 31 9.48902327038674720e-01
34 31 9.57667776968368245e-01
35 31 9.48902327038674942e-01
36 31 9.32467108420499846e-01
37 31 9.17127571043536260e-01
38 31 9.02883714907784740e-01
39 31 8.89735540013244619e-01
40 31 8.77683046359916008e-01
41 31 8.66726233947799241e-01
42 31 8.56865102776894427e-01
43 31 8.48099652847201013e-01
44 31 8.40429884158719220e-01
45 31 8.33855796711449160e-01
46 31 8.28377390505390832e-01
47 31 8.23994665540544013e-01
48 31 8.20707621816909150e-01
49 31 8.18516259334485796e-01
50 31 8.17420578093273953e-01
51 31 8.17420578093273953e-01
52 31 8.18516259334485796e-01
53 31 8.20707621816909150e-01
54 31 8.23994665540544013e-01
55 31 8.28377390505390832e-01
56 31 8.33855796711449160e-01
57 31 8.40429884158719220e-01
58 31 8.48099652847201013e-01
59 31 8.56865102776894538e-01
60 31 8.66726233947799352e-01
61 31 8.77683046359916119e-01
62 31 8.89735540013244619e-01
63 31 9.02883714907784629e-01
64 31 9.17127571043536149e-01
65 31 9.32467108420499624e-01
66 31 9.48902327038674720e-01
67 31 9.57667776968368245e-01
68 31 9.48902327038674942e-01
69 31 9.32467108420499846e-01
70 31 9.17127571043536260e-01
71 31 9.02883714907784740e-01
72 31 8.89735540013244619e-01
73 31 8.77683046359916008e-01
74 31 8.66726233947799241e-01
75 31 8.56865102776894427e-01
76 31 8.48099652847201013e-01
77 31 8.40429884158719220e-01
78 31 8.33855796711449160e-01
79 31 8.28377390505390832e-01
80 31 8.23994665540544013e-01
81 31 8.20707621816909150e-01
82 31 8.18516259334485796e-01
83 31 8.17420578093273953e-01
84 31 8.17420578093273953e-01
85 31 8.18516259334485796e-01
86 31 8.20707621816909150e-01
87 31 8.23994665540544013e-01
88 31 8.28377390505390832e-01
89 31 8.33855796711449160e-01
90 31 8.40429884158719220e-01
91 31 8.48099652847201013e-01
92 31 8.56865102776894538e-01
93 31 8.66726233947799352e-01
94 31 8.77683046359916119e-01
95 31 8.89735540013244619e-01
96 31 9.02883714907784629e-01
97 31 9.17127571043536149e-01
98 31 9.32467108420499624e-01
99 31 9.48902327038674720e-01
100 31 9.57667776968368245e-01
101 31 9.48902327038674942e-01
102 31 9.32467108420499846e-01
103 31 9.17127571043536260e-01
104 31 9.02883714907784740e-01
105 31 8.89735540013244619e-01
106 31 8.77683046359916008e-01
107 31 8.66726233947799241e-01
108 31 8.56865102776894427e-01
109 31 8.48099652847201013e-01
110 31 8.40429884158719220e-01
111 31 8.33855796711449160e-01
112 31 8.28377390505390832e-01
113 31 8.23994665540544013e-01
114 31 8.20707621816909150e-01
115 31 8.18516259334485796e-01
116 31 8.17420578093273953e-01
117 31 8.17420578093273953e-01
118 31 8.18516259334485796e-01
119 31 8.20707621816909150e-01
120 31 8.23994665540544013e-01
121 31 8.28377390505390832e-01
122 31 8.33855796711449160e-01
123 31 8.40429884158719220e-01
124 31 8.48099652847201013e-01
125 31 8.56865102776894538e-01
126 31 8.66726233947799352e-01
127 31 8.77683046359916119e-01
128 31 8.89735540013244619e-01
129 31 9.02883714907784629e-01
130 31 9.17127571043536149e-01
131 31 9.32467108420499624e-01
132 31 9.48902327038674720e-01
133 31 9.57667776968368245e-01
1 32 9.73685374872228837e-01
2 32 9.64773317261044316e-01
3 32 9.48063209240073035e-01
4 32 9.32467108420499735e-01
5 32 9.17985014802324750e-01
6 32 9.04616928385547747e-01
7 32 8.92362849170168615e-01
8 32 8.81222777156187687e-01
9 32 8.71196712343605184e-01
10 32 8.62284654732420552e-01
11 32 8.54486604322633791e-01
12 32 8.47802561114245345e-01
13 32 8.42232525107254881e-01
14 32 8.37776496301662510e-01
15 32 8.34434474697468342e-01
16 32 8.32206460294672157e-01
17 32 8.31092453093273953e-01
18 32 8.31092453093273953e-01
19 32 8.32206460294672268e-01
20 32 8.34434474697468342e-01
21 32 8.37776496301662510e-01
22 32 8.42232525107254881e-01
23 32 8.47802561114245345e-01
24 32 8.54486604322633791e-01
25 32 8.62284654732420552e-01
26 32 8.71196712343605295e-01
27 32 8.81222777156187798e-01
28 32 8.92362849170168726e-01
29 32 9.04616928385547747e-01
30 32 9.17985014802324750e-01
31 32 9.32467108420499624e-01
32 32 9.48063209240072813e-01
33 32 9.64773317261044094e-01
34 32 9.73685374872228837e-01
35 32 9.64773317261044316e-01
36 32 9.48063209240073035e-01
37 32 9.32467108420499735e-01
38 32 9.17985014802324750e-01
39 32 9.04616928385547747e-01
40 32 8.92362849170168615e-01
41 32 8.81222777156187687e-01
42 32 8.71196712343605184e-01
43 32 8.62284654732420552e-01
44 32 8.54486604322633791e-01
45 32 8.47802561114245345e-01
46 32 8.42232525107254881e-01
47 32 8.37776496301662510e-01
48 32 8.34434474697468342e-01
49 32 8.32206460294672157e-01
50 32 8.31092453093273953e-01
51 32 8.31092453093273953e-01
52 32 8.32206460294672268e-01
53 32 8.34434474697468342e-01
54 32 8.37776496301662510e-01
55 32 8.42232525107254881e-01
56 32 8.47802561114245345e-01
57 32 8.54486604322633791e-01
58 32 8.62284654732420552e-01
59 32 8.71196712343605295e-01
60 32 8.81222777156187798e-01
61 32 8.92362849170168726e-01
62 32 9.04616928385547747e-01
63 32 9.17985014802324750e-01
64 32 9.32467108420499624e-01
65 32 9.48063209240072813e-01
66 32 9.64773317261044094e-01
67 32 9.73685374872228837e-01
68 32 9.64773317261044316e-01
69 32 9.48063209240073035e-01
70 32 9.32467108420499735e-01
71 32 9.17985014802324750e-01
72 32 9.04616928385547747e-01
73 32 8.92362849170168615e-01
74 32 8.81222777156187687e-01
75 32 8.71196712343605184e-01
76 32 8.62284654732420552e-01
77 32 8.54486604322633791e-01
78 32 8.47802561114245345e-01
79 32 8.42232525107254881e-01
80 32 8.37776496301662510e-01
81 32 8.34434474697468342e-01
82 32 8.32206460294672157e-01
83 32 8.31092453093273953e-01
84 32 8.31092453093273953e-01
85 32 8.32206460294672268e-01
86 32 8.34434474697468342e-01
87 32 8.37776496301662510e-01
88 32 8.42232525107254881e-01
89 32 8.47802561114245345e-01
90 32 8.54486604322633791e-01
91 32 8.62284654732420552e-01
92 32 8.71196712343605295e-01
93 32 8.81222777156187798e-01
94 32 8.92362849170168726e-01
95 32 9.04616928385547747e-01
96 32 9.17985014802324750e-01
97 32 9.32467108420499624e-01
98 32 9.48063209240072813e-01
99 32 9.64773317261044094e-01
100 32 9.73685374872228837e-01
101 32 9.64773317261044316e-01
102 32 9.48063209240073035e-01
103 32 9.32467108420499735e-01
104 32 9.17985014802324750e-01
105 32 9.04616928385547747e-01
106 32 8.92362849170168615e-01
107 32 8.81222777156187687e-01
108 32 8.71196712343605184e-01
109 32 8.62284654732420552e-01
110 32 8.54486604322633791e-01
111 32 8.47802561114245345e-01
112 32 8.42232525107254881e-01
113 32 8.37776496301662510e-01
114 32 8.34434474697468342e-01
115 32 8.32206460294672157e-01
116 32 8.31092453093273953e-01
117 32 8.31092453093273953e-01
118 32 8.32206460294672268e-01
119 32 8.34434474697468342e-01
120 32 8.37776496301662510e-01
121 32 8.42232525107254881e-01
122 32 8.47802561114245345e-01
123 32 8.54486604322633791e-01
124 32 8.62284654732420552e-01
125 32 8.71196712343605295e-01
126 32 8.81222777156187798e-01
127 32 8.92362849170168726e-01
128 32 9.04616928385547747e-01
129 32 9.17985014802324750e-01
130 32 9.32467108420499624e-01
131 32 9.48063209240072813e-01
132 32 9.64773317261044094e-01
133 32 9.73685374872228837e-01
1 33 9.90847086912079567e-01
2 33 9.81777949642154368e-01
3 33 9.64773317261044427e-01
4 33 9.48902327038674942e-01
5 33 9.34164978975046245e-01
6 33 9.20561273070158226e-01
7 33 9.08091209324010773e-01
8 33 8.96754787736603998e-01
9 33 8.86552008307938122e-01
10 33 8.77482871038012813e-01
11 33 8.69547375926828070e-01
12 33 8.62745522974384116e-01
13 33 8.57077312180680617e-01
14 33 8.52542743545718018e-01
15 33 8.49141817069496097e-01
16 33 8.46874532752014741e-01
17 33 8.45740890593274064e-01
18 33 8.45740890593274064e-01
19 33 8.46874532752014852e-01
20 33 8.49141817069496097e-01
21 33 8.52542743545718018e-01
22 33 8.57077312180680728e-01
23 33 8.62745522974384116e-01
24 33 8.69547375926828070e-01
25 33 8.77482871038012813e-01
26 33 8.86552008307938233e-01
27 33 8.96754787736604109e-01
28 33 9.08091209324010884e-01
29 33 9.20561273070158226e-01
30 33 9.34164978975046245e-01
31 33 9.48902327038674831e-01
32 33 9.64773317261044094e-01
33 33 9.81777949642154146e-01
34 33 9.90847086912079567e-01
35 33 9.81777949642154368e-01
36 33 9.64773317261044427e-01
37 33 9.48902327038674942e-01
38 33 9.34164978975046245e-01
39 33 9.20561273070158226e-01
40 33 9.08091209324010773e-01
41 33 8.96754787736603998e-01
42 33 8.86552008307938122e-01
43 33 8.77482871038012813e-01
44 33 8.69547375926828070e-01
45 33 8.62745522974384116e-01
46 33 8.57077312180680617e-01
47 33 8.52542743545718018e-01
48 33 8.49141817069496097e-01
49 33 8.46874532752014741e-01
50 33 8.45740890593274064e-01
51 33 8.45740890593274064e-01
52 33 8.46874532752014852e-01
53 33 8.49141817069496097e-01
54 33 8.52542743545718018e-01
55 33 8.57077312180680728e-01
56 33 8.62745522974384116e-01
57 33 8.69547375926828070e-01
58 33 8.77482871038012813e-01
59 33 8.86552008307938233e-01
60 33 8.96754787736604109e-01
61 33 9.08091209324010884e-01
62 33 9.20561273070158226e-01
63 33 9.34164978975046245e-01
64 33 9.48902327038674831e-01
65 33 9.64773317261044094e-01
66 33 9.81777949642154146e-01
67 33 9.90847086912079567e-01
68 33 9.81777949642154368e-01
69 33 9.64773317261044427e-01
70 33 9.48902327038674942e-01
71 33 9.34164978975046245e-01
72 33 9.20561273070158226e-01
73 33 9.08091209324010773e-01
74 33 8.96754787736603998e-01
75 33 8.86552008307938122e-01
76 33 8.77482871038012813e-01
77 33 8.69547375926828070e-01
78 33 8.62745522974384116e-01
79 33 8.57077312180680617e-01
80 33 8.52542743545718018e-01
81 33 8.49141817069496097e-01
82 33 8.46874532752014741e-01
83 33 8.45740890593274064e-01
84 33 8.45740890593274064e-01
85 33 8.46874532752014852e-01
86 33 8.49141817069496097e-01
87 33 8.52542743545718018e-01
88 33 8.57077312180680728e-01
89 33 8.62745522974384116e-01
90 33 8.69547375926828070e-01
91 33 8.77482871038012813e-01
92 33 8.86552008307938233e-01
93 33 8.96754787736604109e-01
94 33 9.08091209324010884e-01
95 33 9.20561273070158226e-01
96 33 9.34164978975046245e-01
97 33 9.48902327038674831e-01
98 33 9.64773317261044094e-01
99 33 9.81777949642154146e-01
100 33 9.90847086912079567e-01
101 33 9.81777949642154368e-01
102 33 9.64773317261044427e-01
103 33 9.48902327038674942e-01
104 33 9.34164978975046245e-01
105 33 9.20561273070158226e-01
106 33 9.08091209324010773e-01
107 33 8.96754787736603998e-01
108 33 8.86552008307938122e-01
109 33 8.77482871038012813e-01
110 33 8.69547375926828070e-01
111 33 8.62745522974384116e-01
112 33 8.57077312180680617e-01
113 33 8.52542743545718018e-01
114 33 8.49141817069496097e-01
115 33 8.46874532752014741e-01
116 33 8.45740890593274064e-01
117 33 8.45740890593274064e-01
118 33 8.46874532752014852e-01
119 33 8.49141817069496097e-01
120 33 8.52542743545718018e-01
121 33 8.57077312180680728e-01
122 33 8.62745522974384116e-01
123 33 8.69547375926828070e-01
124 33 8.77482871038012813e-01
125 33 8.86552008307938233e-01
126 33 8.96754787736604109e-01
127 33 9.08091209324010884e-01
128 33 9.20561273070158226e-01
129 33 9.34164978975046245e-01
130 33 9.48902327038674831e-01
131 33 9.64773317261044094e-01
132 33 9.81777949642154146e-01
133 33 9.90847086912079567e-01
1 34 1.00000000000000000e+00
2 34 9.90847086912079678e-01
3 34 9.73685374872229059e-01
4 34 9.57667776968368356e-01
5 34 9.42794293200497679e-01
6 34 9.29064923568617140e-01
7 34 9.16479668072726517e-01
8 34 9.05038526712826030e-01
9 34 8.94741499488915681e-01
10 34 8.85588586400995359e-01
11 34 8.77579787449064952e-01
12 34 8.70715102633124793e-01
13 34 8.64994531953174439e-01
14 34 8.60418075409214334e-01
15 34 8.56985733001244254e-01
16 34 8.54697504729264090e-01
17 34 8.53553390593274064e-01
18 34 8.53553390593274064e-01
19 34 8.54697504729264201e-01
20 34 8.56985733001244254e-01
21 34 8.60418075409214334e-01
22 34 8.64994531953174550e-01
23 34 8.70715102633124793e-01
24 34 8.77579787449065063e-01
25 34 8.85588586400995359e-01
26 34 8.94741499488915792e-01
27 34 9.05038526712826141e-01
28 34 9.16479668072726628e-01
29 34 9.29064923568617140e-01
30 34 9.42794293200497679e-01
31 34 9.57667776968368245e-01
32 34 9.73685374872228837e-01
33 34 9.90847086912079567e-01
34 34 1.00000000000000000e+00
35 34 9.90847086912079678e-01
36 34 9.73685374872229059e-01
37 34 9.57667776968368356e-01
38 34 9.42794293200497679e-01
39 34 9.29064923568617140e-01
40 34 9.16479668072726517e-01
41 34 9.05038526712826030e-01
42 34 8.94741499488915681e-01
43 34 8.85588586400995359e-01
44 34 8.77579787449064952e-01
45 34 8.70715102633124793e-01
46 34 8.64994531953174439e-01
47 34 8.60418075409214334e-01
48 34 8.56985733001244254e-01
49 34 8.54697504729264090e-01
50 34 8.53553390593274064e-01
51 34 8.53553390593274064e-01
52 34 8.54697504729264201e-01
53 34 8.56985733001244254e-01
54 34 8.60418075409214334e-01
55 34 8.64994531953174550e-01
56 34 8.70715102633124793e-01
57 34 8.77579787449065063e-01
58 34 8.85588586400995359e-01
59 34 8.94741499488915792e-01
60 34 9.05038526712826141e-01
61 34 9.16479668072726628e-01
62 34 9.29064923568617140e-01
63 34 9.42794293200497679e-01
64 34 9.57667776968368245e-01
65 34 9.73685374872228837e-01
66 34 9.90847086912079567e-01
67 34 1.00000000000000000e+00
68 34 9.90847086912079678e-01
69 34 9.73685374872229059e-01
70 34 9.57667776968368356e-01
71 34 9.42794293200497679e-01
72 34 9.29064923568617140e-01
73 34 9.16479668072726517e-01
74 34 9.05038526712826030e-01
75 34 8.94741499488915681e-01
76 34 8.85588586400995359e-01
77 34 8.77579787449064952e-01
78 34 8.70715102633124793e-01
79 34 8.64994531953174439e-01
80 34 8.60418075409214334e-01
81 34 8.56985733001244254e-01
82 34 8.54697504729264090e-01
83 34 8.53553390593274064e-01
84 34 8.53553390593274064e-01
85 34 8.54697504729264201e-01
86 34 8.56985733001244254e-01
87 34 8.60418075409214334e-01
88 34 8.64994531953174550e-01
89 34 8.70715102633124793e-01
90 34 8.77579787449065063e-01
91 34 8.85588586400995359e-01
92 34 8.94741499488915792e-01
93 34 9.05038526712826141e-01
94 34 9.16479668072726628e-01
95 34 9.29064923568617140e-01
96 34 9.42794293200497679e-01
97 34 9.57667776968368245e-01
98 34 9.73685374872228837e-01
99 34 9.90847086912079567e-01
100 34 1.00000000000000000e+00
101 34 9.90847086912079678e-01
102 34 9.73685374872229059e-01
103 34 9.57667776968368356e-01
104 34 9.42794293200497679e-01
105 34 9.29064923568617140e-01
106 34 9.16479668072726517e-01
107 34 9.05038526712826030e-01
108 34 8.94741499488915681e-01
109 34 8.85588586400995359e-01
110 34 8.77579787449064952e-01
111 34 8.70715102633124793e-01
112 34 8.64994531953174439e-01
113 34 8.60418075409214334e-01
114 34 8.56985733001244254e-01
115 34 8.54697504729264090e-01
116 34 8.53553390593274064e-01
117 34 8.53553390593274064e-01
118 34 8.54697504729264201e-01
119 34 8.56985733001244254e-01
120 34 8.60418075409214334e-01
121 34 8.64994531953174550e-01
122 34 8.70715102633124793e-01
123 34 8.77579787449065063e-01
124 34 8.85588586400995359e-01
125 34 8.94741499488915792e-01
126 34 9.05038526712826141e-01
127 34 9.16479668072726628e-01
128 34 9.29064923568617140e-01
129 34 9.42794293200497679e-01
130 34 9.57667776968368245e-01
131 34 9.73685374872228837e-01
132 34 9.90847086912079567e-01
133 34 1.00000000000000000e+00
1 35 9.90847086912079678e-01
2 35 9.81777949642154368e-01
3 35 9.64773317261044427e-01
4 35 9.48902327038675053e-01
5 35 9.34164978975046134e-01
6 35 9.20561273070158226e-01
7 35 9.08091209324010773e-01
8 35 8.96754787736603998e-01
9 35 8.86552008307938122e-01
10 35 8.77482871038012924e-01
11 35 8.69547375926828070e-01
12 35 8.62745522974384227e-01
13 35 8.57077312180680728e-01
14 35 8.52542743545718129e-01
15 35 8.49141817069496208e-01
16 35 8.46874532752014852e-01
17 35 8.45740890593274175e-01
18 35 8.45740890593274175e-01
19 35 8.46874532752014852e-01
20 35 8.49141817069496208e-01
21 35 8.52542743545718129e-01
22 35 8.57077312180680950e-01
23 35 8.62745522974384227e-01
24 35 8.69547375926828181e-01
25 35 8.77482871038012924e-01
26 35 8.86552008307938233e-01
27 35 8.96754787736604220e-01
28 35 9.08091209324010884e-01
29 35 9.20561273070158226e-01
30 35 9.34164978975046134e-01
31 35 9.48902327038674942e-01
32 35 9.64773317261044205e-01
33 35 9.81777949642154368e-01
34 35 9.90847086912079678e-01
35 35 9.81777949642154368e-01
36 35 9.64773317261044427e-01
37 35 9.48902327038675053e-01
38 35 9.34164978975046134e-01
39 35 9.20561273070158226e-01
40 35 9.08091209324010773e-01
41 35 8.96754787736603998e-01
42 35 8.86552008307938122e-01
43 35 8.77482871038012924e-01
44 35 8.69547375926828070e-01
45 35 8.62745522974384227e-01
46 35 8.57077312180680728e-01
47 35 8.52542743545718129e-01
48 35 8.49141817069496208e-01
49 35 8.46874532752014852e-01
50 35 8.45740890593274175e-01
51 35 8.45740890593274175e-01
52 35 8.46874532752014852e-01
53 35 8.49141817069496208e-01
54 35 8.52542743545718129e-01
55 35 8.57077312180680950e-01
56 35 8.62745522974384227e-01
57 35 8.69547375926828181e-01
58 35 8.77482871038012924e-01
59 35 8.86552008307938233e-01
60 35 8.96754787736604220e-01
61 35 9.08091209324010884e-01
62 35 9.20561273070158226e-01
63 35 9.34164978975046134e-01
64 35 9.48902327038674942e-01
65 35 9.64773317261044205e-01
66 35 9.81777949642154368e-01
67 35 9.90847086912079678e-01
68 35 9.81777949642154368e-01
69 35 9.64773317261044427e-01
70 35 9.48902327038675053e-01
71 35 9.34164978975046134e-01
72 35 9.20561273070158226e-01
73 35 9.08091209324010773e-01
74 35 8.96754787736603998e-01
75 35 8.86552008307938122e-01
76 35 8.77482871038012924e-01
77 35 8.69547375926828070e-01
78 35 8.62745522974384227e-01
79 35 8.57077312180680728e-01
80 35 8.52542743545718129e-01
81 35 8.49141817069496208e-01
82 35 8.46874532752014852e-01
83 35 8.45740890593274175e-01
84 35 8.45740890593274175e-01
85 35 8.46874532752014852e-01
86 35 8.49141817069496208e-01
87 35 8.52542743545718129e-01
88 35 8.57077312180680950e-01
89 35 8.62745522974384227e-01
90 35 8.69547375926828181e-01
91 35 8.77482871038012924e-01
92 35 8.86552008307938233e-01
93 35 8.96754787736604220e-01
94 35 9.08091209324010884e-01
95 35 9.20561273070158226e-01
96 35 9.34164978975046134e-01
97 35 9.48902327038674942e-01
98 35 9.64773317261044205e-01
99 35 9.81777949642154368e-01
100 35 9.90847086912079678e-01
101 35 9.81777949642154368e-01
102 35 9.64773317261044427e-01
103 35 9.48902327038675053e-01
104 35 9.34164978975046134e-01
105 35 9.20561273070158226e-01
106 35 9.08091209324010773e-01
107 35 8.96754787736603998e-01
108 35 8.86552008307938122e-01
109 35 8.77482871038012924e-01
110 35 8.69547375926828070e-01
111 35 8.62745522974384227e-01
112 35 8.57077312180680728e-01
113 35 8.52542743545718129e-01
114 35 8.49141817069496208e-01
115 35 8.46874532752014852e-01
116 35 8.45740890593274175e-01
117 35 8.45740890593274175e-01
118 35 8.46874532752014852e-01
119 35 8.49141817069496208e-01
120 35 8.52542743545718129e-01
121 35 8.57077312180680950e-01
122 35 8.62745522974384227e-01
123 35 8.69547375926828181e-01
124 35 8.77482871038012924e-01
125 35 8.86552008307938233e-01
126 35 8.96754787736604220e-01
127 35 9.08091209324010884e-01
128 35 9.20561273070158226e-01
129 35 9.34164978975046134e-01
130 35 9.48902327038674942e-01
131 35 9.64773317261044205e-01
132 35 9.81777949642154368e-01
133 35 9.90847086912079678e-01
1 36 9.73685374872229059e-01
2 36 9.64773317261044427e-01
3 36 9.48063209240073146e-01
4 36 9.32467108420500068e-01
5 36 9.17985014802324639e-01
6 36 9.04616928385547858e-01
7 36 8.92362849170168726e-01
8 36 8.81222777156187798e-01
9 36 8.71196712343605295e-01
10 36 8.62284654732420774e-01
11 36 8.54486604322633791e-01
12 36 8.47802561114245457e-01
13 36 8.42232525107254881e-01
14 36 8.37776496301662732e-01
15 36 8.34434474697468342e-01
16 36 8.32206460294672268e-01
17 36 8.31092453093274175e-01
18 36 8.31092453093274175e-01
19 36 8.32206460294672379e-01
20 36 8.34434474697468342e-01
21 36 8.37776496301662732e-01
22 36 8.42232525107255214e-01
23 36 8.47802561114245457e-01
24 36 8.54486604322633903e-01
25 36 8.62284654732420774e-01
26 36 8.71196712343605295e-01
27 36 8.81222777156187798e-01
28 36 8.92362849170168726e-01
29 36 9.04616928385547858e-01
30 36 9.17985014802324639e-01
31 36 9.32467108420499846e-01
32 36 9.48063209240073146e-01
33 36 9.64773317261044427e-01
34 36 9.73685374872229059e-01
35 36 9.64773317261044427e-01
36 36 9.48063209240073146e-01
37 36 9.32467108420500068e-01
38 36 9.17985014802324639e-01
39 36 9.04616928385547858e-01
40 36 8.92362849170168726e-01
41 36 8.81222777156187798e-01
42 36 8.71196712343605295e-01
43 36 8.62284654732420774e-01
44 36 8.54486604322633791e-01
45 36 8.47802561114245457e-01
46 36 8.42232525107254881e-01
47 36 8.37776496301662732e-01
48 36 8.34434474697468342e-01
49 36 8.32206460294672268e-01
50 36 8.31092453093274175e-01
51 36 8.31092453093274175e-01
52 36 8.32206460294672379e-01
53 36 8.34434474697468342e-01
54 36 8.37776496301662732e-01
55 36 8.42232525107255214e-01
56 36 8.47802561114245457e-01
57 36 8.54486604322633903e-01
58 36 8.62284654732420774e-01
59 36 8.71196712343605295e-01
60 36 8.81222777156187798e-01
61 36 8.92362849170168726e-01
62 36 9.04616928385547858e-01
63 36 9.17985014802324639e-01
64 36 9.32467108420499846e-01
65 36 9.48063209240073146e-01
66 36 9.64773317261044427e-01
67 36 9.73685374872229059e-01
68 36 9.64773317261044427e-01
69 36 9.48063209240073146e-01
70 36 9.32467108420500068e-01
71 36 9.17985014802324639e-01
72 36 9.04616928385547858e-01
73 36 8.92362849170168726e-01
74 36 8.81222777156187798e-01
75 36 8.71196712343605295e-01
76 36 8.62284654732420774e-01
77 36 8.54486604322633791e-01
78 36 8.47802561114245457e-01
79 36 8.42232525107254881e-01
80 36 8.37776496301662732e-01
81 36 8.34434474697468342e-01
82 36 8.32206460294672268e-01
83 36 8.31092453093274175e-01
84 36 8.31092453093274175e-01
85 36 8.32206460294672379e-01
86 36 8.34434474697468342e-01
87 36 8.37776496301662732e-01
88 36 8.42232525107255214e-01
89 36 8.47802561114245457e-01
90 36 8.54486604322633903e-01
91 36 8.62284654732420774e-01
92 36 8.71196712343605295e-01
93 36 8.81222777156187798e-01
94 36 8.92362849170168726e-01
95 36 9.04616928385547858e-01
96 36 9.17985014802324639e-01
97 36 9.32467108420499846e-01
98 36 9.48063209240073146e-01
99 36 9.64773317261044427e-01
100 36 9.73685374872229059e-01
101 36 9.64773317261044427e-01
102 36 9.48063209240073146e-01
103 36 9.32467108420500068e-01
104 36 9.17985014802324639e-01
105 36 9.04616928385547858e-01
106 36 8.92362849170168726e-01
107 36 8.81222777156187798e-01
108 36 8.71196712343605295e-01
109 36 8.62284654732420774e-01
110 36 8.54486604322633791e-01
111 36 8.47802561114245457e-01
112 36 8.42232525107254881e-01
113 36 8.37776496301662732e-01
114 36 8.34434474697468342e-01
115 36 8.32206460294672268e-01
116 36 8.31092453093274175e-01
117 36 8.31092453093274175e-01
118 36 8.32206460294672379e-01
119 36 8.34434474697468342e-01
120 36 8.37776496301662732e-01
121 36 8.42232525107255214e-01
122 36 8.47802561114245457e-01
123 36 8.54486604322633903e-01
124 36 8.62284654732420774e-01
125 36 8.71196712343605295e-01
126 36 8.81222777156187798e-01
127 36 8.92362849170168726e-01
128 36 9.04616928385547858e-01
129 36 9.17985014802324639e-01
130 36 9.32467108420499846e-01
131 36 9.48063209240073146e-01
132 36 9.64773317261044427e-01
133 36 9.73685374872229059e-01
1 37 9.57667776968368356e-01
2 37 9.48902327038675053e-01
3 37 9.32467108420499846e-01
4 37 9.17127571043536594e-01
5 37 9.02883714907784629e-01
6 37 8.89735540013244730e-01
7 37 8.77683046359916119e-01
8 37 8.66726233947799241e-01
9 37 8.56865102776894538e-01
10 37 8.48099652847201124e-01
11 37 8.40429884158719109e-01
12 37 8.33855796711449382e-01
13 37 8.28377390505390720e-01
14 37 8.23994665540544124e-01
15 37 8.20707621816909150e-01
16 37 8.18516259334485796e-01
17 37 8.17420578093274175e-01
18 37 8.17420578093274175e-01
19 37 8.18516259334485907e-01
20 37 8.20707621816909150e-01
21 37 8.23994665540544124e-01
22 37 8.28377390505391054e-01
23 37 8.33855796711449382e-01
24 37 8.40429884158719220e-01
25 37 8.48099652847201124e-01
26 37 8.56865102776894538e-01
27 37 8.66726233947799352e-01
28 37 8.77683046359916119e-01
29 37 8.89735540013244619e-01
30 37 9.02883714907784629e-01
31 37 9.17127571043536371e-01
32 37 9.32467108420499846e-01
33 37 9.48902327038675053e-01
34 37 9.57667776968368356e-01
35 37 9.48902327038675053e-01
36 37 9.32467108420499846e-01
37 37 9.17127571043536594e-01
38 37 9.02883714907784629e-01
39 37 8.89735540013244730e-01
40 37 8.77683046359916119e-01
41 37 8.66726233947799241e-01
42 37 8.56865102776894538e-01
43 37 8.48099652847201124e-01
44 37 8.40429884158719109e-01
45 37 8.33855796711449382e-01
46 37 8.28377390505390720e-01
47 37 8.23994665540544124e-01
48 37 8.20707621816909150e-01
49 37 8.18516259334485796e-01
50 37 8.17420578093274175e-01
51 37 8.17420578093274175e-01
52 37 8.18516259334485907e-01
53 37 8.20707621816909150e-01
54 37 8.23994665540544124e-01
55 37 8.28377390505391054e-01
56 37 8.33855796711449382e-01
57 37 8.40429884158719220e-01
58 37 8.48099652847201124e-01
59 37 8.56865102776894538e-01
60 37 8.66726233947799352e-01
61 37 8.77683046359916119e-01
62 37 8.89735540013244619e-01
63 37 9.02883714907784629e-01
64 37 9.17127571043536371e-01
65 37 9.32467108420499846e-01
66 37 9.48902327038675053e-01
67 37 9.57667776968368356e-01
68 37 9.48902327038675053e-01
69 37 9.32467108420499846e-01
70 37 9.17127571043536594e-01
71 37 9.02883714907784629e-01
72 37 8.89735540013244730e-01
73 37 8.77683046359916119e-01
74 37 8.66726233947799241e-01
75 37 8.56865102776894538e-01
76 37 8.48099652847201124e-01
77 37 8.40429884158719109e-01
78 37 8.33855796711449382e-01
79 37 8.28377390505390720e-01
80 37 8.23994665540544124e-01
81 37 8.20707621816909150e-01
82 37 8.18516259334485796e-01
83 37 8.17420578093274175e-01
84 37 8.17420578093274175e-01
85 37 8.18516259334485907e-01
86 37 8.20707621816909150e-01
87 37 8.23994665540544124e-01
88 37 8.28377390505391054e-01
89 37 8.33855796711449382e-01
90 37 8.40429884158719220e-01
91 37 8.48099652847201124e-01
92 37 8.56865102776894538e-01
93 37 8.66726233947799352e-01
94 37 8.77683046359916119e-01
95 37 8.89735540013244619e-01
96 37 9.02883714907784629e-01
97 37 9.17127571043536371e-01
98 37 9.32467108420499846e-01
99 37 9.48902327038675053e-01
100 37 9.57667776968368356e-01
101 37 9.48902327038675053e-01
102 37 9.32467108420499846e-01
103 37 9.17127571043536594e-01
104 37 9.02883714907784629e-01
105 37 8.89735540013244730e-01
106 37 8.77683046359916119e-01
107 37 8.66726233947799241e-01
108 37 8.56865102776894538e-01
109 37 8.48099652847201124e-01
110 37 8.40429884158719109e-01
111 37 8.33855796711449382e-01
112 37 8.28377390505390720e-01
113 37 8.23994665540544124e-01
114 37 8.20707621816909150e-01
115 37 8.18516259334485796e-01
116 37 8.17420578093274175e-01
117 37 8.17420578093274175e-01
118 37 8.18516259334485907e-01
119 37 8.20707621816909150e-01
120 37 8.23994665540544124e-01
121 37 8.28377390505391054e-01
122 37 8.33855796711449382e-01
123 37 8.40429884158719220e-01
124 37 8.48099652847201124e-01
125 37 8.56865102776894538e-01
126 37 8.66726233947799352e-01
127 37 8.77683046359916119e-01
128 37 8.89735540013244619e-01
129 37 9.02883714907784629e-01
130 37 9.17127571043536371e-01
131 37 9.32467108420499846e-01
132 37 9.48902327038675053e-01
133 37 9.57667776968368356e-01
1 38 9.42794293200497679e-01
2 38 9.34164978975046356e-01
3 38 9.17985014802324750e-01
4 38 9.02883714907784851e-01
5 38 8.88861079291426104e-01
6 38 8.75917107953249063e-01
7 38 8.64051800893252953e-01
8 38 8.53265158111438549e-01
9 38 8.43557179607805852e-01
10 38 8.34927865382354417e-01
11 38 8.27377215435084024e-01
12 38 8.20905229765995781e-01
13 38 8.15511908375088357e-01
14 38 8.11197251262362751e-01
15 38 8.07961258427818518e-01
16 38 8.05803929871455549e-01
17 38 8.04725265593274175e-01
18 38 8.04725265593274175e-01
19 38 8.05803929871455660e-01
20 38 8.07961258427818407e-01
21 38 8.11197251262362751e-01
22 38 8.15511908375088579e-01
23 38 8.20905229765995781e-01
24 38 8.27377215435084135e-01
25 38 8.34927865382354417e-01
26 38 8.43557179607805963e-01
27 38 8.53265158111438549e-01
28 38 8.64051800893252953e-01
29 38 8.75917107953248841e-01
30 38 8.88861079291426104e-01
31 38 9.02883714907784629e-01
32 38 9.17985014802324750e-01
33 38 9.34164978975046356e-01
34 38 9.42794293200497679e-01
35 38 9.34164978975046356e-01
36 38 9.17985014802324750e-01
37 38 9.02883714907784851e-01
38 38 8.88861079291426104e-01
39 38 8.75917107953249063e-01
40 38 8.64051800893252953e-01
41 38 8.53265158111438549e-01
42 38 8.43557179607805852e-01
43 38 8.34927865382354417e-01
44 38 8.27377215435084024e-01
45 38 8.20905229765995781e-01
46 38 8.15511908375088357e-01
47 38 8.11197251262362751e-01
48 38 8.07961258427818518e-01
49 38 8.05803929871455549e-01
50 38 8.04725265593274175e-01
51 38 8.04725265593274175e-01
52 38 8.05803929871455660e-01
53 38 8.07961258427818407e-01
54 38 8.11197251262362751e-01
55 38 8.15511908375088579e-01
56 38 8.20905229765995781e-01
57 38 8.27377215435084135e-01
58 38 8.34927865382354417e-01
59 38 8.43557179607805963e-01
60 38 8.53265158111438549e-01
61 38 8.64051800893252953e-01
62 38 8.75917107953248841e-01
63 38 8.88861079291426104e-01
64 38 9.02883714907784629e-01
65 38 9.17985014802324750e-01
66 38 9.34164978975046356e-01
67 38 9.42794293200497679e-01
68 38 9.34164978975046356e-01
69 38 9.17985014802324750e-01
70 38 9.02883714907784851e-01
71 38 8.88861079291426104e-01
72 38 8.75917107953249063e-01
73 38 8.64051800893252953e-01
74 38 8.53265158111438549e-01
75 38 8.43557179607805852e-01
76 38 8.34927865382354417e-01
77 38 8.27377215435084024e-01
78 38 8.20905229765995781e-01
79 38 8.15511908375088357e-01
80 38 8.11197251262362751e-01
81 38 8.07961258427818518e-01
82 38 8.05803929871455549e-01
83 38 8.04725265593274175e-01
84 38 8.04725265593274175e-01
85 38 8.05803929871455660e-01
86 38 8.07961258427818407e-01
87 38 8.11197251262362751e-01
88 38 8.15511908375088579e-01
89 38 8.20905229765995781e-01
90 38 8.27377215435084135e-01
91 38 8.34927865382354417e-01
92 38 8.43557179607805963e-01
93 38 8.53265158111438549e-01
94 38 8.64051800893252953e-01
95 38 8.75917107953248841e-01
96 38 8.88861079291426104e-01
97 38 9.02883714907784629e-01
98 38 9.17985014802324750e-01
99 38 9.34164978975046356e-01
100 38 9.42794293200497679e-01
101 38 9.34164978975046356e-01
102 38 9.17985014802324750e-01
103 38 9.02883714907784851e-01
104 38 8.88861079291426104e-01
105 38 8.75917107953249063e-01
106 38 8.64051800893252953e-01
107 38 8.53265158111438549e-01
108 38 8.43557179607805852e-01
109 38 8.34927865382354417e-01
110 38 8.27377215435084024e-01
111 38 8.20905229765995781e-01
112 38 8.15511908375088357e-01
113 38 8.11197251262362751e-01
114 38 8.07961258427818518e-01
115 38 8.05803929871455549e-01
116 38 8.04725265593274175e-01
117 38 8.04725265593274175e-01
118 38 8.05803929871455660e-01
119 38 8.07961258427818407e-01
120 38 8.11197251262362751e-01
121 38 8.15511908375088579e-01
122 38 8.20905229765995781e-01
123 38 8.27377215435084135e-01
124 38 8.34927865382354417e-01
125 38 8.43557179607805963e-01
126 38 8.53265158111438549e-01
127 38 8.64051800893252953e-01
128 38 8.75917107953248841e-01
129 38 8.88861079291426104e-01
130 38 9.02883714907784629e-01
131 38 9.17985014802324750e-01
132 38 9.34164978975046356e-01
133 38 9.42794293200497679e-01
1 39 9.29064923568617140e-01
2 39 9.20561273070158226e-01
3 39 9.04616928385547747e-01
4 39 8.89735540013244730e-01
5 39 8.75917107953248841e-01
6 39 8.63161632205560636e-01
7 39 8.51469112770179226e-01
8 39 8.40839549647105500e-01
9 39 8.31272942836339457e-01
10 39 8.22769292337880542e-01
11 39 8.15328598151728645e-01
12 39 8.08950860277884765e-01
13 39 8.03636078716347790e-01
14 39 7.99384253467118389e-01
15 39 7.96195384530196337e-01
16 39 7.94069471905581414e-01
17 39 7.93006515593274175e-01
18 39 7.93006515593274175e-01
19 39 7.94069471905581636e-01
20 39 7.96195384530196115e-01
21 39 7.99384253467118389e-01
22 39 8.03636078716347901e-01
23 39 8.08950860277884765e-01
24 39 8.15328598151728645e-01
25 39 8.22769292337880542e-01
26 39 8.31272942836339568e-01
27 39 8.40839549647105500e-01
28 39 8.51469112770179226e-01
29 39 8.63161632205560414e-01
30 39 8.75917107953248841e-01
31 39 8.89735540013244619e-01
32 39 9.04616928385547636e-01
33 39 9.20561273070158226e-01
34 39 9.29064923568617140e-01
35 39 9.20561273070158226e-01
36 39 9.04616928385547747e-01
37 39 8.89735540013244730e-01
38 39 8.75917107953248841e-01
39 39 8.63161632205560636e-01
40 39 8.51469112770179226e-01
41 39 8.40839549647105500e-01
42 39 8.31272942836339457e-01
43 39 8.22769292337880542e-01
44 39 8.15328598151728645e-01
45 39 8.08950860277884765e-01
46 39 8.03636078716347790e-01
47 39 7.99384253467118389e-01
48 39 7.96195384530196337e-01
49 39 7.94069471905581414e-01
50 39 7.93006515593274175e-01
51 39 7.93006515593274175e-01
52 39 7.94069471905581636e-01
53 39 7.96195384530196115e-01
54 39 7.99384253467118389e-01
55 39 8.03636078716347901e-01
56 39 8.08950860277884765e-01
57 39 8.15328598151728645e-01
58 39 8.22769292337880542e-01
59 39 8.31272942836339568e-01
60 39 8.40839549647105500e-01
61 39 8.51469112770179226e-01
62 39 8.63161632205560414e-01
63 39 8.75917107953248841e-01
64 39 8.89735540013244619e-01
65 39 9.04616928385547636e-01
66 39 9.20561273070158226e-01
67 39 9.29064923568617140e-01
68 39 9.20561273070158226e-01
69 39 9.04616928385547747e-01
70 39 8.89735540013244730e-01
71 39 8.75917107953248841e-01
72 39 8.63161632205560636e-01
73 39 8.51469112770179226e-01
74 39 8.40839549647105500e-01
75 39 8.31272942836339457e-01
76 39 8.22769292337880542e-01
77 39 8.15328598151728645e-01
78 39 8.08950860277884765e-01
79 39 8.03636078716347790e-01
80 39 7.99384253467118389e-01
81 39 7.96195384530196337e-01
82 39 7.94069471905581414e-01
83 39 7.93006515593274175e-01
84 39 7.93006515593274175e-01
85 39 7.94069471905581636e-01
86 39 7.96195384530196115e-01
87 39 7.99384253467118389e-01
88 39 8.03636078716347901e-01
89 39 8.08950860277884765e-01
90 39 8.15328598151728645e-01
91 39 8.22769292337880542e-01
92 39 8.31272942836339568e-01
93 39 8.40839549647105500e-01
94 39 8.51469112770179226e-01
95 39 8.63161632205560414e-01
96 39 8.75917107953248841e-01
97 39 8.89735540013244619e-01
98 39 9.04616928385547636e-01
99 39 9.20561273070158226e-01
100 39 9.29064923568617140e-01
101 39 9.20561273070158226e-01
102 39 9.04616928385547747e-01
103 39 8.89735540013244730e-01
104 39 8.75917107953248841e-01
105 39 8.63161632205560636e-01
106 39 8.51469112770179226e-01
107 39 8.40839549647105500e-01
108 39 8.31272942836339457e-01
109 39 8.22769292337880542e-01
110 39 8.15328598151728645e-01
111 39 8.08950860277884765e-01
112 39 8.03636078716347790e-01
113 39 7.99384253467118389e-01
114 39 7.96195384530196337e-01
115 39 7.94069471905581414e-01
116 39 7.93006515593274175e-01
117 39 7.93006515593274175e-01
118 39 7.94069471905581636e-01
119 39 7.96195384530196115e-01
120 39 7.99384253467118389e-01
121 39 8.03636078716347901e-01
122 39 8.08950860277884765e-01
123 39 8.15328598151728645e-01
124 39 8.22769292337880542e-01
125 39 8.31272942836339568e-01
126 39 8.40839549647105500e-01
127 39 8.51469112770179226e-01
128 39 8.63161632205560414e-01
129 39 8.75917107953248841e-01
130 39 8.89735540013244619e-01
131 39 9.04616928385547636e-01
132 39 9.20561273070158226e-01
133 39 9.29064923568617140e-01
1 40 9.16479668072726517e-01
2 40 9.08091209324010773e-01
3 40 8.92362849170168726e-01
4 40 8.77683046359916119e-01
5 40 8.64051800893252953e-01
6 40 8.51469112770179448e-01
7 40 8.39934981990694940e-01
8 40 8.29449408554800205e-01
9 40 8.20012392462495132e-01
10 40 8.11623933713779389e-01
11 40 8.04284032308652752e-01
12 40 7.97992688247116222e-01
13 40 7.92749901529168799e-01
14 40 7.88555672154810927e-01
15 40 7.85410000124042607e-01
16 40 7.83312885436863393e-01
17 40 7.82264328093274175e-01
18 40 7.82264328093274175e-01
19 40 7.83312885436863615e-01
20 40 7.85410000124042385e-01
21 40 7.88555672154810927e-01
22 40 7.92749901529168799e-01
23 40 7.97992688247116222e-01
24 40 8.04284032308652752e-01
25 40 8.11623933713779389e-01
26 40 8.20012392462495354e-01
27 40 8.29449408554800205e-01
28 40 8.39934981990694940e-01
29 40 8.51469112770179226e-01
30 40 8.64051800893252953e-01
31 40 8.77683046359916119e-01
32 40 8.92362849170168504e-01
33 40 9.08091209324010773e-01
34 40 9.16479668072726517e-01
35 40 9.08091209324010773e-01
36 40 8.92362849170168726e-01
37 40 8.77683046359916119e-01
38 40 8.64051800893252953e-01
39 40 8.51469112770179448e-01
40 40 8.39934981990694940e-01
41 40 8.29449408554800205e-01
42 40 8.20012392462495132e-01
43 40 8.11623933713779389e-01
44 40 8.04284032308652752e-01
45 40 7.97992688247116222e-01
46 40 7.92749901529168799e-01
47 40 7.88555672154810927e-01
48 40 7.85410000124042607e-01
49 40 7.83312885436863393e-01
50 40 7.82264328093274175e-01
51 40 7.82264328093274175e-01
52 40 7.83312885436863615e-01
53 40 7.85410000124042385e-01
54 40 7.88555672154810927e-01
55 40 7.92749901529168799e-01
56 40 7.97992688247116222e-01
57 40 8.04284032308652752e-01
58 40 8.11623933713779389e-01
59 40 8.20012392462495354e-01
60 40 8.29449408554800205e-01
61 40 8.39934981990694940e-01
62 40 8.51469112770179226e-01
63 40 8.64051800893252953e-01
64 40 8.77683046359916119e-01
65 40 8.92362849170168504e-01
66 40 9.08091209324010773e-01
67 40 9.16479668072726517e-01
68 40 9.08091209324010773e-01
69 40 8.92362849170168726e-01
70 40 8.77683046359916119e-01
71 40 8.64051800893252953e-01
72 40 8.51469112770179448e-01
73 40 8.39934981990694940e-01
74 40 8.29449408554800205e-01
75 40 8.20012392462495132e-01
76 40 8.11623933713779389e-01
77 40 8.04284032308652752e-01
78 40 7.97992688247116222e-01
79 40 7.92749901529168799e-01
80 40 7.88555672154810927e-01
81 40 7.85410000124042607e-01
82 40 7.83312885436863393e-01
83 40 7.82264328093274175e-01
84 40 7.82264328093274175e-01
85 40 7.83312885436863615e-01
86 40 7.85410000124042385e-01
87 40 7.88555672154810927e-01
88 40 7.92749901529168799e-01
89 40 7.97992688247116222e-01
90 40 8.04284032308652752e-01
91 40 8.11623933713779389e-01
92 40 8.20012392462495354e-01
93 40 8.29449408554800205e-01
94 40 8.39934981990694940e-01
95 40 8.51469112770179226e-01
96 40 8.64051800893252953e-01
97 40 8.77683046359916119e-01
98 40 8.92362849170168504e-01
99 40 9.08091209324010773e-01
100 40 9.16479668072726517e-01
101 40 9.08091209324010773e-01
102 40 8.92362849170168726e-01
103 40 8.77683046359916119e-01
104 40 8.64051800893252953e-01
105 40 8.51469112770179448e-01
106 40 8.39934981990694940e-01
107 40 8.29449408554800205e-01
108 40 8.20012392462495132e-01
109 40 8.11623933713779389e-01
110 40 8.04284032308652752e-01
111 40 7.97992688247116222e-01
112 40 7.92749901529168799e-01
113 40 7.88555672154810927e-01
114 40 7.85410000124042607e-01
115 40 7.83312885436863393e-01
116 40 7.82264328093274175e-01
117 40 7.82264328093274175e-01
118 40 7.83312885436863615e-01
119 40 7.85410000124042385e-01
120 40 7.88555672154810927e-01
121 40 7.92749901529168799e-01
122 40 7.97992688247116222e-01
123 40 8.04284032308652752e-01
124 40 8.11623933713779389e-01
125 40 8.20012392462495354e-01
126 40 8.29449408554800205e-01
127 40 8.39934981990694940e-01
128 40 8.51469112770179226e-01
129 40 8.64051800893252953e-01
130 40 8.77683046359916119e-01
131 40 8.92362849170168504e-01
132 40 9.08091209324010773e-01
133 40 9.16479668072726517e-01
1 41 9.05038526712826030e-01
2 41 8.96754787736604109e-01
3 41 8.81222777156187909e-01
4 41 8.66726233947799352e-01
5 41 8.53265158111438660e-01
6 41 8.40839549647105722e-01
7 41 8.29449408554800205e-01
8 41 8.19094734834522664e-01
9 41 8.09775528486273100e-01
10 41 8.01491789510051178e-01
11 41 7.94243517905856566e-01
12 41 7.88030713673690375e-01
13 41 7.82853376813551605e-01
14 41 7.78711507325440699e-01
15 41 7.75605105209357437e-01
16 41 7.73534170465301596e-01
17 41 7.72498703093274175e-01
18 41 7.72498703093274175e-01
19 41 7.73534170465301929e-01
20 41 7.75605105209357215e-01
21 41 7.78711507325440699e-01
22 41 7.82853376813551605e-01
23 41 7.88030713673690375e-01
24 41 7.94243517905856566e-01
25 41 8.01491789510051178e-01
26 41 8.09775528486273322e-01
27 41 8.19094734834522775e-01
28 41 8.29449408554800205e-01
29 41 8.40839549647105611e-01
30 41 8.53265158111438660e-01
31 41 8.66726233947799352e-01
32 41 8.81222777156187798e-01
33 41 8.96754787736604109e-01
34 41 9.05038526712826030e-01
35 41 8.96754787736604109e-01
36 41 8.81222777156187909e-01
37 41 8.66726233947799352e-01
38 41 8.53265158111438660e-01
39 41 8.40839549647105722e-01
40 41 8.29449408554800205e-01
41 41 8.19094734834522664e-01
42 41 8.09775528486273100e-01
43 41 8.01491789510051178e-01
44 41 7.94243517905856566e-01
45 41 7.88030713673690375e-01
46 41 7.82853376813551605e-01
47 41 7.78711507325440699e-01
48 41 7.75605105209357437e-01
49 41 7.73534170465301596e-01
50 41 7.72498703093274175e-01
51 41 7.72498703093274175e-01
52 41 7.73534170465301929e-01
53 41 7.75605105209357215e-01
54 41 7.78711507325440699e-01
55 41 7.82853376813551605e-01
56 41 7.88030713673690375e-01
57 41 7.94243517905856566e-01
58 41 8.01491789510051178e-01
59 41 8.09775528486273322e-01
60 41 8.19094734834522775e-01
61 41 8.29449408554800205e-01
62 41 8.40839549647105611e-01
63 41 8.53265158111438660e-01
64 41 8.66726233947799352e-01
65 41 8.81222777156187798e-01
66 41 8.96754787736604109e-01
67 41 9.05038526712826030e-01
68 41 8.96754787736604109e-01
69 41 8.81222777156187909e-01
70 41 8.66726233947799352e-01
71 41 8.53265158111438660e-01
72 41 8.40839549647105722e-01
73 41 8.29449408554800205e-01
74 41 8.19094734834522664e-01
75 41 8.09775528486273100e-01
76 41 8.01491789510051178e-01
77 41 7.94243517905856566e-01
78 41 7.88030713673690375e-01
79 41 7.82853376813551605e-01
80 41 7.78711507325440699e-01
81 41 7.75605105209357437e-01
82 41 7.73534170465301596e-01
83 41 7.72498703093274175e-01
84 41 7.72498703093274175e-01
85 41 7.73534170465301929e-01
86 41 7.75605105209357215e-01
87 41 7.78711507325440699e-01
88 41 7.82853376813551605e-01
89 41 7.88030713673690375e-01
90 41 7.94243517905856566e-01
91 41 8.01491789510051178e-01
92 41 8.09775528486273322e-01
93 41 8.19094734834522775e-01
94 41 8.29449408554800205e-01
95 41 8.40839549647105611e-01
96 41 8.53265158111438660e-01
97 41 8.66726233947799352e-01
98 41 8.81222777156187798e-01
99 41 8.96754787736604109e-01
100 41 9.05038526712826030e-01
101 41 8.96754787736604109e-01
102 41 8.81222777156187909e-01
103 41 8.66726233947799352e-01
104 41 8.53265158111438660e-01
105 41 8.40839549647105722e-01
106 41 8.29449408554800205e-01
107 41 8.19094734834522664e-01
108 41 8.09775528486273100e-01
109 41 8.01491789510051178e-01
110 41 7.94243517905856566e-01
111 41 7.88030713673690375e-01
112 41 7.82853376813551605e-01
113 41 7.78711507325440699e-01
114 41 7.75605105209357437e-01
115 41 7.73534170465301596e-01
116 41 7.72498703093274175e-01
117 41 7.72498703093274175e-01
118 41 7.73534170465301929e-01
119 41 7.75605105209357215e-01
120 41 7.78711507325440699e-01
121 41 7.82853376813551605e-01
122 41 7.88030713673690375e-01
123 41 7.94243517905856566e-01
124 41 8.01491789510051178e-01
125 41 8.09775528486273322e-01
126 41 8.19094734834522775e-01
127 41 8.29449408554800205e-01
128 41 8.40839549647105611e-01
129 41 8.53265158111438660e-01
130 41 8.66726233947799352e-01
131 41 8.81222777156187798e-01
132 41 8.96754787736604109e-01
133 41 9.05038526712826030e-01
1 42 8.94741499488915681e-01
2 42 8.86552008307938122e-01
3 42 8.71196712343605073e-01
4 42 8.56865102776894316e-01
5 42 8.43557179607805740e-01
6 42 8.31272942836339346e-01
7 42 8.20012392462495021e-01
8 42 8.09775528486272878e-01
9 42 8.00562350907673359e-01
10 42 7.92372859726695800e-01
11 42 7.85207054943340088e-01
12 42 7.79064936557607224e-01
13 42 7.73946504569496097e-01
14 42 7.69851758979007372e-01
15 42 7.66780699786140829e-01
16 42 7.64733326990896023e-01
17 42 7.63709640593274064e-01
18 42 7.63709640593274064e-01
19 42 7.64733326990896356e-01
20 42 7.66780699786140607e-01
21 42 7.69851758979007372e-01
22 42 7.73946504569496097e-01
23 42 7.79064936557607224e-01
24 42 7.85207054943339977e-01
25 42 7.92372859726695800e-01
26 42 8.00562350907673470e-01
27 42 8.09775528486272878e-01
28 42 8.20012392462495021e-01
29 42 8.31272942836339346e-01
30 42 8.43557179607805740e-01
31 42 8.56865102776894316e-01
32 42 8.71196712343604962e-01
33 42 8.86552008307938122e-01
34 42 8.94741499488915681e-01
35 42 8.86552008307938122e-01
36 42 8.71196712343605073e-01
37 42 8.56865102776894316e-01
38 42 8.43557179607805740e-01
39 42 8.31272942836339346e-01
40 42 8.20012392462495021e-01
41 42 8.09775528486272878e-01
42 42 8.00562350907673359e-01
43 42 7.92372859726695800e-01
44 42 7.85207054943340088e-01
45 42 7.79064936557607224e-01
46 42 7.73946504569496097e-01
47 42 7.69851758979007372e-01
48 42 7.66780699786140829e-01
49 42 7.64733326990896023e-01
50 42 7.63709640593274064e-01
51 42 7.63709640593274064e-01
52 42 7.64733326990896356e-01
53 42 7.66780699786140607e-01
54 42 7.69851758979007372e-01
55 42 7.73946504569496097e-01
56 42 7.79064936557607224e-01
57 42 7.85207054943339977e-01
58 42 7.92372859726695800e-01
59 42 8.00562350907673470e-01
60 42 8.09775528486272878e-01
61 42 8.20012392462495021e-01
62 42 8.31272942836339346e-01
63 42 8.43557179607805740e-01
64 42 8.56865102776894316e-01
65 42 8.71196712343604962e-01
66 42 8.86552008307938122e-01
67 42 8.94741499488915681e-01
68 42 8.86552008307938122e-01
69 42 8.71196712343605073e-01
70 42 8.56865102776894316e-01
71 42 8.43557179607805740e-01
72 42 8.31272942836339346e-01
73 42 8.20012392462495021e-01
74 42 8.09775528486272878e-01
75 42 8.00562350907673359e-01
76 42 7.92372859726695800e-01
77 42 7.85207054943340088e-01
78 42 7.79064936557607224e-01
79 42 7.73946504569496097e-01
80 42 7.69851758979007372e-01
81 42 7.66780699786140829e-01
82 42 7.64733326990896023e-01
83 42 7.63709640593274064e-01
84 42 7.63709640593274064e-01
85 42 7.64733326990896356e-01
86 42 7.66780699786140607e-01
87 42 7.69851758979007372e-01
88 42 7.73946504569496097e-01
89 42 7.79064936557607224e-01
90 42 7.85207054943339977e-01
91 42 7.92372859726695800e-01
92 42 8.00562350907673470e-01
93 42 8.09775528486272878e-01
94 42 8.20012392462495021e-01
95 42 8.31272942836339346e-01
96 42 8.43557179607805740e-01
97 42 8.56865102776894316e-01
98 42 8.71196712343604962e-01
99 42 8.86552008307938122e-01
100 42 8.94741499488915681e-01
101 42 8.86552008307938122e-01
102 42 8.71196712343605073e-01
103 42 8.56865102776894316e-01
104 42 8.43557179607805740e-01
105 42 8.31272942836339346e-01
106 42 8.20012392462495021e-01
107 42 8.09775528486272878e-01
108 42 8.00562350907673359e-01
109 42 7.92372859726695800e-01
110 42 7.85207054943340088e-01
111 42 7.79064936557607224e-01
112 42 7.73946504569496097e-01
113 42 7.69851758979007372e-01
114 42 7.66780699786140829e-01
115 42 7.64733326990896023e-01
116 42 7.63709640593274064e-01
117 42 7.63709640593274064e-01
118 42 7.64733326990896356e-01
119 42 7.66780699786140607e-01
120 42 7.69851758979007372e-01
121 42 7.73946504569496097e-01
122 42 7.79064936557607224e-01
123 42 7.85207054943339977e-01
124 42 7.92372859726695800e-01
125 42 8.00562350907673470e-01
126 42 8.09775528486272878e-01
127 42 8.20012392462495021e-01
128 42 8.31272942836339346e-01
129 42 8.43557179607805740e-01
130 42 8.56865102776894316e-01
131 42 8.71196712343604962e-01
132 42 8.86552008307938122e-01
133 42 8.94741499488915681e-01
1 43 8.85588586400995359e-01
2 43 8.77482871038012813e-01
3 43 8.62284654732420441e-01
4 43 8.48099652847201013e-01
5 43 8.34927865382354417e-01
6 43 8.22769292337880431e-01
7 43 8.11623933713779278e-01
8 43 8.01491789510050956e-01
9 43 7.92372859726695689e-01
10 43 7.84267144363713253e-01
11 43 7.77174643421103095e-01
12 43 7.71095356898866546e-01
13 43 7.66029284797002274e-01
14 43 7.61976427115511168e-01
15 43 7.58936783854392671e-01
16 43 7.56910355013646674e-01
17 43 7.55897140593274064e-01
18 43 7.55897140593274064e-01
19 43 7.56910355013646896e-01
20 43 7.58936783854392560e-01
21 43 7.61976427115511168e-01
22 43 7.66029284797002274e-01
23 43 7.71095356898866546e-01
24 43 7.77174643421103095e-01
25 43 7.84267144363713253e-01
26 43 7.92372859726695800e-01
27 43 8.01491789510050956e-01
28 43 8.11623933713779278e-01
29 43 8.22769292337880431e-01
30 43 8.34927865382354417e-01
31 43 8.48099652847201013e-01
32 43 8.62284654732420330e-01
33 43 8.77482871038012813e-01
34 43 8.85588586400995359e-01
35 43 8.77482871038012813e-01
36 43 8.62284654732420441e-01
37 43 8.48099652847201013e-01
38 43 8.34927865382354417e-01
39 43 8.22769292337880431e-01
40 43 8.11623933713779278e-01
41 43 8.01491789510050956e-01
42 43 7.92372859726695689e-01
43 43 7.84267144363713253e-01
44 43 7.77174643421103095e-01
45 43 7.71095356898866546e-01
46 43 7.66029284797002274e-01
47 43 7.61976427115511168e-01
48 43 7.58936783854392671e-01
49 43 7.56910355013646674e-01
50 43 7.55897140593274064e-01
51 43 7.55897140593274064e-01
52 43 7.56910355013646896e-01
53 43 7.58936783854392560e-01
54 43 7.61976427115511168e-01
55 43 7.66029284797002274e-01
56 43 7.71095356898866546e-01
57 43 7.77174643421103095e-01
58 43 7.84267144363713253e-01
59 43 7.92372859726695800e-01
60 43 8.01491789510050956e-01
61 43 8.11623933713779278e-01
62 43 8.22769292337880431e-01
63 43 8.34927865382354417e-01
64 43 8.48099652847201013e-01
65 43 8.62284654732420330e-01
66 43 8.77482871038012813e-01
67 43 8.85588586400995359e-01
68 43 8.77482871038012813e-01
69 43 8.62284654732420441e-01
70 43 8.48099652847201013e-01
71 43 8.34927865382354417e-01
72 43 8.22769292337880431e-01
73 43 8.11623933713779278e-01
74 43 8.01491789510050956e-01
75 43 7.92372859726695689e-01
76 43 7.84267144363713253e-01
77 43 7.77174643421103095e-01
78 43 7.71095356898866546e-01
79 43 7.66029284797002274e-01
80 43 7.61976427115511168e-01
81 43 7.58936783854392671e-01
82 43 7.56910355013646674e-01
83 43 7.55897140593274064e-01
84 43 7.55897140593274064e-01
85 43 7.56910355013646896e-01
86 43 7.58936783854392560e-01
87 43 7.61976427115511168e-01
88 43 7.66029284797002274e-01
89 43 7.71095356898866546e-01
90 43 7.77174643421103095e-01
91 43 7.84267144363713253e-01
92 43 7.92372859726695800e-01
93 43 8.01491789510050956e-01
94 43 8.11623933713779278e-01
95 43 8.22769292337880431e-01
96 43 8.34927865382354417e-01
97 43 8.48099652847201013e-01
98 43 8.62284654732420330e-01
99 43 8.77482871038012813e-01
100 43 8.85588586400995359e-01
101 43 8.77482871038012813e-01
102 43 8.62284654732420441e-01
103 43 8.48099652847201013e-01
104 43 8.34927865382354417e-01
105 43 8.22769292337880431e-01
106 43 8.11623933713779278e-01
107 43 8.01491789510050956e-01
108 43 7.92372859726695689e-01
109 43 7.84267144363713253e-01
110 43 7.77174643421103095e-01
111 43 7.71095356898866546e-01
112 43 7.66029284797002274e-01
113 43 7.61976427115511168e-01
114 43 7.58936783854392671e-01
115 43 7.56910355013646674e-01
116 43 7.55897140593274064e-01
117 43 7.55897140593274064e-01
118 43 7.56910355013646896e-01
119 43 7.58936783854392560e-01
120 43 7.61976427115511168e-01
121 43 7.66029284797002274e-01
122 43 7.71095356898866546e-01
123 43 7.77174643421103095e-01
124 43 7.84267144363713253e-01
125 43 7.92372859726695800e-01
126 43 8.01491789510050956e-01
127 43 8.11623933713779278e-01
128 43 8.22769292337880431e-01
129 43 8.34927865382354417e-01
130 43 8.48099652847201013e-01
131 43 8.62284654732420330e-01
132 43 8.77482871038012813e-01
133 43 8.85588586400995359e-01
1 44 8.77579787449064952e-01
2 44 8.69547375926828070e-01
3 44 8.54486604322633791e-01
4 44 8.40429884158719220e-01
5 44 8.27377215435084357e-01
6 44 8.15328598151728867e-01
7 44 8.04284032308652863e-01
8 44 7.94243517905856677e-01
9 44 7.85207054943340199e-01
10 44 7.77174643421103428e-01
11 44 7.70146283339145699e-01
12 44 7.64121974697468342e-01
13 44 7.59101717496070139e-01
14 44 7.55085511734951864e-01
15 44 7.52073357414112964e-01
16 44 7.50065254533553438e-01
17 44 7.49061203093273953e-01
18 44 7.49061203093273953e-01
19 44 7.50065254533553660e-01
20 44 7.52073357414112853e-01
21 44 7.55085511734951864e-01
22 44 7.59101717496070139e-01
23 44 7.64121974697468342e-01
24 44 7.70146283339145699e-01
25 44 7.77174643421103428e-01
26 44 7.85207054943340310e-01
27 44 7.94243517905856677e-01
28 44 8.04284032308652863e-01
29 44 8.15328598151728756e-01
30 44 8.27377215435084357e-01
31 44 8.40429884158719220e-01
32 44 8.54486604322633680e-01
33 44 8.69547375926828070e-01
34 44 8.77579787449064952e-01
35 44 8.69547375926828070e-01
36 44 8.54486604322633791e-01
37 44 8.40429884158719220e-01
38 44 8.27377215435084357e-01
39 44 8.15328598151728867e-01
40 44 8.04284032308652863e-01
41 44 7.94243517905856677e-01
42 44 7.85207054943340199e-01
43 44 7.77174643421103428e-01
44 44 7.70146283339145699e-01
45 44 7.64121974697468342e-01
46 44 7.59101717496070139e-01
47 44 7.55085511734951864e-01
48 44 7.52073357414112964e-01
49 44 7.50065254533553438e-01
50 44 7.49061203093273953e-01
51 44 7.49061203093273953e-01
52 44 7.50065254533553660e-01
53 44 7.52073357414112853e-01
54 44 7.55085511734951864e-01
55 44 7.59101717496070139e-01
56 44 7.64121974697468342e-01
57 44 7.70146283339145699e-01
58 44 7.77174643421103428e-01
59 44 7.85207054943340310e-01
60 44 7.94243517905856677e-01
61 44 8.04284032308652863e-01
62 44 8.15328598151728756e-01
63 44 8.27377215435084357e-01
64 44 8.40429884158719220e-01
65 44 8.54486604322633680e-01
66 44 8.69547375926828070e-01
67 44 8.77579787449064952e-01
68 44 8.69547375926828070e-01
69 44 8.54486604322633791e-01
70 44 8.40429884158719220e-01
71 44 8.27377215435084357e-01
72 44 8.15328598151728867e-01
73 44 8.04284032308652863e-01
74 44 7.94243517905856677e-01
75 44 7.85207054943340199e-01
76 44 7.77174643421103428e-01
77 44 7.70146283339145699e-01
78 44 7.64121974697468342e-01
79 44 7.59101717496070139e-01
80 44 7.55085511734951864e-01
81 44 7.52073357414112964e-01
82 44 7.50065254533553438e-01
83 44 7.49061203093273953e-01
84 44 7.49061203093273953e-01
85 44 7.50065254533553660e-01
86 44 7.52073357414112853e-01
87 44 7.55085511734951864e-01
88 44 7.59101717496070139e-01
89 44 7.64121974697468342e-01
90 44 7.70146283339145699e-01
91 44 7.77174643421103428e-01
92 44 7.85207054943340310e-01
93 44 7.94243517905856677e-01
94 44 8.04284032308652863e-01
95 44 8.15328598151728756e-01
96 44 8.27377215435084357e-01
97 44 8.40429884158719220e-01
98 44 8.54486604322633680e-01
99 44 8.69547375926828070e-01
100 44 8.77579787449064952e-01
101 44 8.69547375926828070e-01
102 44 8.54486604322633791e-01
103 44 8.40429884158719220e-01
104 44 8.27377215435084357e-01
105 44 8.15328598151728867e-01
106 44 8.04284032308652863e-01
107 44 7.94243517905856677e-01
108 44 7.85207054943340199e-01
109 44 7.77174643421103428e-01
110 44 7.70146283339145699e-01
111 44 7.64121974697468342e-01
112 44 7.59101717496070139e-01
113 44 7.55085511734951864e-01
114 44 7.52073357414112964e-01
115 44 7.50065254533553438e-01
116 44 7.49061203093273953e-01
117 44 7.49061203093273953e-01
118 44 7.50065254533553660e-01
119 44 7.52073357414112853e-01
120 44 7.55085511734951864e-01
121 44 7.59101717496070139e-01
122 44 7.64121974697468342e-01
123 44 7.70146283339145699e-01
124 44 7.77174643421103428e-01
125 44 7.85207054943340310e-01
126 44 7.94243517905856677e-01
127 44 8.04284032308652863e-01
128 44 8.15328598151728756e-01
129 44 8.27377215435084357e-01
130 44 8.40429884158719220e-01
131 44 8.54486604322633680e-01
132 44 8.69547375926828070e-01
133 44 8.77579787449064952e-01
1 45 8.70715102633124793e-01
2 45 8.62745522974384116e-01
3 45 8.47802561114245345e-01
4 45 8.33855796711449160e-01
5 45 8.20905229765995781e-01
6 45 8.08950860277884654e-01
7 45 7.97992688247116111e-01
8 45 7.88030713673690264e-01
9 45 7.79064936557607002e-01
10 45 7.71095356898866546e-01
11 45 7.64121974697468120e-01
12 45 7.58144789953412834e-01
13 45 7.53163802666699800e-01
14 45 7.49179012837329683e-01
15 45 7.46190420465301929e-01
16 45 7.44198025550616427e-01
17 45 7.43201828093273953e-01
18 45 7.43201828093273953e-01
19 45 7.44198025550616649e-01
20 45 7.46190420465301818e-01
21 45 7.49179012837329683e-01
22 45 7.53163802666699800e-01
23 45 7.58144789953412834e-01
24 45 7.64121974697468009e-01
25 45 7.71095356898866546e-01
26 45 7.79064936557607113e-01
27 45 7.88030713673690264e-01
28 45 7.97992688247116111e-01
29 45 8.08950860277884543e-01
30 45 8.20905229765995781e-01
31 45 8.33855796711449160e-01
32 45 8.47802561114245234e-01
33 45 8.62745522974384116e-01
34 45 8.70715102633124793e-01
35 45 8.62745522974384116e-01
36 45 8.47802561114245345e-01
37 45 8.33855796711449160e-01
38 45 8.20905229765995781e-01
39 45 8.08950860277884654e-01
40 45 7.97992688247116111e-01
41 45 7.88030713673690264e-01
42 45 7.79064936557607002e-01
43 45 7.71095356898866546e-01
44 45 7.64121974697468120e-01
45 45 7.58144789953412834e-01
46 45 7.53163802666699800e-01
47 45 7.49179012837329683e-01
48 45 7.46190420465301929e-01
49 45 7.44198025550616427e-01
50 45 7.43201828093273953e-01
51 45 7.43201828093273953e-01
52 45 7.44198025550616649e-01
53 45 7.46190420465301818e-01
54 45 7.49179012837329683e-01
55 45 7.53163802666699800e-01
56 45 7.58144789953412834e-01
57 45 7.64121974697468009e-01
58 45 7.71095356898866546e-01
59 45 7.79064936557607113e-01
60 45 7.88030713673690264e-01
61 45 7.97992688247116111e-01
62 45 8.08950860277884543e-01
63 45 8.20905229765995781e-01
64 45 8.33855796711449160e-01
65 45 8.47802561114245234e-01
66 45 8.62745522974384116e-01
67 45 8.70715102633124793e-01
68 45 8.62745522974384116e-01
69 45 8.47802561114245345e-01
70 45 8.33855796711449160e-01
71 45 8.20905229765995781e-01
72 45 8.08950860277884654e-01
73 45 7.97992688247116111e-01
74 45 7.88030713673690264e-01
75 45 7.79064936557607002e-01
76 45 7.71095356898866546e-01
77 45 7.64121974697468120e-01
78 45 7.58144789953412834e-01
79 45 7.53163802666699800e-01
80 45 7.49179012837329683e-01
81 45 7.46190420465301929e-01
82 45 7.44198025550616427e-01
83 45 7.43201828093273953e-01
84 45 7.43201828093273953e-01
85 45 7.44198025550616649e-01
86 45 7.46190420465301818e-01
87 45 7.49179012837329683e-01
88 45 7.53163802666699800e-01
89 45 7.58144789953412834e-01
90 45 7.64121974697468009e-01
91 45 7.71095356898866546e-01
92 45 7.79064936557607113e-01
93 45 7.88030713673690264e-01
94 45 7.97992688247116111e-01
95 45 8.08950860277884543e-01
96 45 8.20905229765995781e-01
97 45 8.33855796711449160e-01
98 45 8.47802561114245234e-01
99 45 8.62745522974384116e-01
100 45 8.70715102633124793e-01
101 45 8.62745522974384116e-01
102 45 8.47802561114245345e-01
103 45 8.33855796711449160e-01
104 45 8.20905229765995781e-01
105 45 8.08950860277884654e-01
106 45 7.97992688247116111e-01
107 45 7.88030713673690264e-01
108 45 7.79064936557607002e-01
109 45 7.71095356898866546e-01
110 45 7.64121974697468120e-01
111 45 7.58144789953412834e-01
112 45 7.53163802666699800e-01
113 45 7.49179012837329683e-01
114 45 7.46190420465301929e-01
115 45 7.44198025550616427e-01
116 45 7.43201828093273953e-01
117 45 7.43201828093273953e-01
118 45 7.44198025550616649e-01
119 45 7.46190420465301818e-01
120 45 7.49179012837329683e-01
121 45 7.53163802666699800e-01
122 45 7.58144789953412834e-01
123 45 7.64121974697468009e-01
124 45 7.71095356898866546e-01
125 45 7.79064936557607113e-01
126 45 7.88030713673690264e-01
127 45 7.97992688247116111e-01
128 45 8.08950860277884543e-01
129 45 8.20905229765995781e-01
130 45 8.33855796711449160e-01
131 45 8.47802561114245234e-01
132 45 8.62745522974384116e-01
133 45 8.70715102633124793e-01
1 46 8.64994531953174439e-01
2 46 8.57077312180680728e-01
3 46 8.42232525107254881e-01
4 46 8.28377390505390832e-01
5 46 8.15511908375088579e-01
6 46 8.03636078716347790e-01
7 46 7.92749901529168799e-01
8 46 7.82853376813551494e-01
9 46 7.73946504569495985e-01
10 46 7.66029284797002497e-01
11 46 7.59101717496070028e-01
12 46 7.53163802666699911e-01
13 46 7.48215540308891147e-01
14 46 7.44256930422644403e-01
15 46 7.41287973007959344e-01
16 46 7.39308668064835528e-01
17 46 7.38319015593273953e-01
18 46 7.38319015593273953e-01
19 46 7.39308668064835861e-01
20 46 7.41287973007959233e-01
21 46 7.44256930422644403e-01
22 46 7.48215540308891258e-01
23 46 7.53163802666699911e-01
24 46 7.59101717496069917e-01
25 46 7.66029284797002386e-01
26 46 7.73946504569496097e-01
27 46 7.82853376813551494e-01
28 46 7.92749901529168799e-01
29 46 8.03636078716347790e-01
30 46 8.15511908375088579e-01
31 46 8.28377390505390832e-01
32 46 8.42232525107254770e-01
33 46 8.57077312180680728e-01
34 46 8.64994531953174439e-01
35 46 8.57077312180680728e-01
36 46 8.42232525107254881e-01
37 46 8.28377390505390832e-01
38 46 8.15511908375088579e-01
39 46 8.03636078716347790e-01
40 46 7.92749901529168799e-01
41 46 7.82853376813551494e-01
42 46 7.73946504569495985e-01
43 46 7.66029284797002497e-01
44 46 7.59101717496070028e-01
45 46 7.53163802666699911e-01
46 46 7.48215540308891147e-01
47 46 7.44256930422644403e-01
48 46 7.41287973007959344e-01
49 46 7.39308668064835528e-01
50 46 7.38319015593273953e-01
51 46 7.38319015593273953e-01
52 46 7.39308668064835861e-01
53 46 7.41287973007959233e-01
54 46 7.44256930422644403e-01
55 46 7.48215540308891258e-01
56 46 7.53163802666699911e-01
57 46 7.59101717496069917e-01
58 46 7.66029284797002386e-01
59 46 7.73946504569496097e-01
60 46 7.82853376813551494e-01
61 46 7.92749901529168799e-01
62 46 8.03636078716347790e-01
63 46 8.15511908375088579e-01
64 46 8.28377390505390832e-01
65 46 8.42232525107254770e-01
66 46 8.57077312180680728e-01
67 46 8.64994531953174439e-01
68 46 8.57077312180680728e-01
69 46 8.42232525107254881e-01
70 46 8.28377390505390832e-01
71 46 8.15511908375088579e-01
72 46 8.03636078716347790e-01
73 46 7.92749901529168799e-01
74 46 7.82853376813551494e-01
75 46 7.73946504569495985e-01
76 46 7.66029284797002497e-01
77 46 7.59101717496070028e-01
78 46 7.53163802666699911e-01
79 46 7.48215540308891147e-01
80 46 7.44256930422644403e-01
81 46 7.41287973007959344e-01
82 46 7.39308668064835528e-01
83 46 7.38319015593273953e-01
84 46 7.38319015593273953e-01
85 46 7.39308668064835861e-01
86 46 7.41287973007959233e-01
87 46 7.44256930422644403e-01
88 46 7.48215540308891258e-01
89 46 7.53163802666699911e-01
90 46 7.59101717496069917e-01
91 46 7.66029284797002386e-01
92 46 7.73946504569496097e-01
93 46 7.82853376813551494e-01
94 46 7.92749901529168799e-01
95 46 8.03636078716347790e-01
96 46 8.15511908375088579e-01
97 46 8.28377390505390832e-01
98 46 8.42232525107254770e-01
99 46 8.57077312180680728e-01
100 46 8.64994531953174439e-01
101 46 8.57077312180680728e-01
102 46 8.42232525107254881e-01
103 46 8.28377390505390832e-01
104 46 8.15511908375088579e-01
105 46 8.03636078716347790e-01
106 46 7.92749901529168799e-01
107 46 7.82853376813551494e-01
108 46 7.73946504569495985e-01
109 46 7.66029284797002497e-01
110 46 7.59101717496070028e-01
111 46 7.53163802666699911e-01
112 46 7.48215540308891147e-01
113 46 7.44256930422644403e-01
114 46 7.41287973007959344e-01
115 46 7.39308668064835528e-01
116 46 7.38319015593273953e-01
117 46 7.38319015593273953e-01
118 46 7.39308668064835861e-01
119 46 7.41287973007959233e-01
120 46 7.44256930422644403e-01
121 46 7.48215540308891258e-01
122 46 7.53163802666699911e-01
123 46 7.59101717496069917e-01
124 46 7.66029284797002386e-01
125 46 7.73946504569496097e-01
126 46 7.82853376813551494e-01
127 46 7.92749901529168799e-01
128 46 8.03636078716347790e-01
129 46 8.15511908375088579e-01
130 46 8.28377390505390832e-01
131 46 8.42232525107254770e-01
132 46 8.57077312180680728e-01
133 46 8.64994531953174439e-01
1 47 8.60418075409214334e-01
2 47 8.52542743545718018e-01
3 47 8.37776496301662510e-01
4 47 8.23994665540544124e-01
5 47 8.11197251262362862e-01
6 47 7.99384253467118278e-01
7 47 7.88555672154810816e-01
8 47 7.78711507325440477e-01
9 47 7.69851758979007150e-01
10 47 7.61976427115511279e-01
11 47 7.55085511734951531e-01
12 47 7.49179012837329572e-01
13 47 7.44256930422644292e-01
14 47 7.40319264490896245e-01
15 47 7.37366015042085321e-01
16 47 7.35397182076210854e-01
17 47 7.34412765593273953e-01
18 47 7.34412765593273953e-01
19 47 7.35397182076211187e-01
20 47 7.37366015042085210e-01
21 47 7.40319264490896245e-01
22 47 7.44256930422644292e-01
23 47 7.49179012837329572e-01
24 47 7.55085511734951531e-01
25 47 7.61976427115511168e-01
26 47 7.69851758979007261e-01
27 47 7.78711507325440477e-01
28 47 7.88555672154810816e-01
29 47 7.99384253467118278e-01
30 47 8.11197251262362862e-01
31 47 8.23994665540544124e-01
32 47 8.37776496301662399e-01
33 47 8.52542743545718018e-01
34 47 8.60418075409214334e-01
35 47 8.52542743545718018e-01
36 47 8.37776496301662510e-01
37 47 8.23994665540544124e-01
38 47 8.11197251262362862e-01
39 47 7.99384253467118278e-01
40 47 7.88555672154810816e-01
41 47 7.78711507325440477e-01
42 47 7.69851758979007150e-01
43 47 7.61976427115511279e-01
44 47 7.55085511734951531e-01
45 47 7.49179012837329572e-01
46 47 7.44256930422644292e-01
47 47 7.40319264490896245e-01
48 47 7.37366015042085321e-01
49 47 7.35397182076210854e-01
50 47 7.34412765593273953e-01
51 47 7.34412765593273953e-01
52 47 7.35397182076211187e-01
53 47 7.37366015042085210e-01
54 47 7.40319264490896245e-01
55 47 7.44256930422644292e-01
56 47 7.49179012837329572e-01
57 47 7.55085511734951531e-01
58 47 7.61976427115511168e-01
59 47 7.69851758979007261e-01
60 47 7.78711507325440477e-01
61 47 7.88555672154810816e-01
62 47 7.99384253467118278e-01
63 47 8.11197251262362862e-01
64 47 8.23994665540544124e-01
65 47 8.37776496301662399e-01
66 47 8.52542743545718018e-01
67 47 8.60418075409214334e-01
68 47 8.52542743545718018e-01
69 47 8.37776496301662510e-01
70 47 8.23994665540544124e-01
71 47 8.11197251262362862e-01
72 47 7.99384253467118278e-01
73 47 7.88555672154810816e-01
74 47 7.78711507325440477e-01
75 47 7.69851758979007150e-01
76 47 7.61976427115511279e-01
77 47 7.55085511734951531e-01
78 47 7.49179012837329572e-01
79 47 7.44256930422644292e-01
80 47 7.40319264490896245e-01
81 47 7.37366015042085321e-01
82 47 7.35397182076210854e-01
83 47 7.34412765593273953e-01
84 47 7.34412765593273953e-01
85 47 7.35397182076211187e-01
86 47 7.37366015042085210e-01
87 47 7.40319264490896245e-01
88 47 7.44256930422644292e-01
89 47 7.49179012837329572e-01
90 47 7.55085511734951531e-01
91 47 7.61976427115511168e-01
92 47 7.69851758979007261e-01
93 47 7.78711507325440477e-01
94 47 7.88555672154810816e-01
95 47 7.99384253467118278e-01
96 47 8.11197251262362862e-01
97 47 8.23994665540544124e-01
98 47 8.37776496301662399e-01
99 47 8.52542743545718018e-01
100 47 8.60418075409214334e-01
101 47 8.52542743545718018e-01
102 47 8.37776496301662510e-01
103 47 8.23994665540544124e-01
104 47 8.11197251262362862e-01
105 47 7.99384253467118278e-01
106 47 7.88555672154810816e-01
107 47 7.78711507325440477e-01
108 47 7.69851758979007150e-01
109 47 7.61976427115511279e-01
110 47 7.55085511734951531e-01
111 47 7.49179012837329572e-01
112 47 7.44256930422644292e-01
113 47 7.40319264490896245e-01
114 47 7.37366015042085321e-01
115 47 7.35397182076210854e-01
116 47 7.34412765593273953e-01
117 47 7.34412765593273953e-01
118 47 7.35397182076211187e-01
119 47 7.37366015042085210e-01
120 47 7.40319264490896245e-01
121 47 7.44256930422644292e-01
122 47 7.49179012837329572e-01
123 47 7.55085511734951531e-01
124 47 7.61976427115511168e-01
125 47 7.69851758979007261e-01
126 47 7.78711507325440477e-01
127 47 7.88555672154810816e-01
128 47 7.99384253467118278e-01
129 47 8.11197251262362862e-01
130 47 8.23994665540544124e-01
131 47 8.37776496301662399e-01
132 47 8.52542743545718018e-01
133 47 8.60418075409214334e-01
1 48 8.56985733001244254e-01
2 48 8.49141817069495874e-01
3 48 8.34434474697468231e-01
4 48 8.20707621816909150e-01
5 48 8.07961258427818518e-01
6 48 7.96195384530196115e-01
7 48 7.85410000124042273e-01
8 48 7.75605105209357215e-01
9 48 7.66780699786140496e-01
10 48 7.58936783854392782e-01
11 48 7.52073357414112742e-01
12 48 7.46190420465301818e-01
13 48 7.41287973007959122e-01
14 48 7.37366015042085099e-01
15 48 7.34424546567679748e-01
16 48 7.32463567584742292e-01
17 48 7.31483078093273953e-01
18 48 7.31483078093273953e-01
19 48 7.32463567584742736e-01
20 48 7.34424546567679637e-01
21 48 7.37366015042085099e-01
22 48 7.41287973007959122e-01
23 48 7.46190420465301818e-01
24 48 7.52073357414112742e-01
25 48 7.58936783854392560e-01
26 48 7.66780699786140607e-01
27 48 7.75605105209357215e-01
28 48 7.85410000124042273e-01
29 48 7.96195384530196115e-01
30 48 8.07961258427818518e-01
31 48 8.20707621816909150e-01
32 48 8.34434474697468120e-01
33 48 8.49141817069495874e-01
34 48 8.56985733001244254e-01
35 48 8.49141817069495874e-01
36 48 8.34434474697468231e-01
37 48 8.20707621816909150e-01
38 48 8.07961258427818518e-01
39 48 7.96195384530196115e-01
40 48 7.85410000124042273e-01
41 48 7.75605105209357215e-01
42 48 7.66780699786140496e-01
43 48 7.58936783854392782e-01
44 48 7.52073357414112742e-01
45 48 7.46190420465301818e-01
46 48 7.41287973007959122e-01
47 48 7.37366015042085099e-01
48 48 7.34424546567679748e-01
49 48 7.32463567584742292e-01
50 48 7.31483078093273953e-01
51 48 7.31483078093273953e-01
52 48 7.32463567584742736e-01
53 48 7.34424546567679637e-01
54 48 7.37366015042085099e-01
55 48 7.41287973007959122e-01
56 48 7.46190420465301818e-01
57 48 7.52073357414112742e-01
58 48 7.58936783854392560e-01
59 48 7.66780699786140607e-01
60 48 7.75605105209357215e-01
61 48 7.85410000124042273e-01
62 48 7.96195384530196115e-01
63 48 8.07961258427818518e-01
64 48 8.20707621816909150e-01
65 48 8.34434474697468120e-01
66 48 8.49141817069495874e-01
67 48 8.56985733001244254e-01
68 48 8.49141817069495874e-01
69 48 8.34434474697468231e-01
70 48 8.20707621816909150e-01
71 48 8.07961258427818518e-01
72 48 7.96195384530196115e-01
73 48 7.85410000124042273e-01
74 48 7.75605105209357215e-01
75 48 7.66780699786140496e-01
76 48 7.58936783854392782e-01
77 48 7.52073357414112742e-01
78 48 7.46190420465301818e-01
79 48 7.41287973007959122e-01
80 48 7.37366015042085099e-01
81 48 7.34424546567679748e-01
82 48 7.32463567584742292e-01
83 48 7.31483078093273953e-01
84 48 7.31483078093273953e-01
85 48 7.32463567584742736e-01
86 48 7.34424546567679637e-01
87 48 7.37366015042085099e-01
88 48 7.41287973007959122e-01
89 48 7.46190420465301818e-01
90 48 7.52073357414112742e-01
91 48 7.58936783854392560e-01
92 48 7.66780699786140607e-01
93 48 7.75605105209357215e-01
94 48 7.85410000124042273e-01
95 48 7.96195384530196115e-01
96 48 8.07961258427818518e-01
97 48 8.20707621816909150e-01
98 48 8.34434474697468120e-01
99 48 8.49141817069495874e-01
100 48 8.56985733001244254e-01
101 48 8.49141817069495874e-01
102 48 8.34434474697468231e-01
103 48 8.20707621816909150e-01
104 48 8.07961258427818518e-01
105 48 7.96195384530196115e-01
106 48 7.85410000124042273e-01
107 48 7.75605105209357215e-01
108 48 7.66780699786140496e-01
109 48 7.58936783854392782e-01
110 48 7.52073357414112742e-01
111 48 7.46190420465301818e-01
112 48 7.41287973007959122e-01
113 48 7.37366015042085099e-01
114 48 7.34424546567679748e-01
115 48 7.32463567584742292e-01
116 48 7.31483078093273953e-01
117 48 7.31483078093273953e-01
118 48 7.32463567584742736e-01
119 48 7.34424546567679637e-01
120 48 7.37366015042085099e-01
121 48 7.41287973007959122e-01
122 48 7.46190420465301818e-01
123 48 7.52073357414112742e-01
124 48 7.58936783854392560e-01
125 48 7.66780699786140607e-01
126 48 7.75605105209357215e-01
127 48 7.85410000124042273e-01
128 48 7.96195384530196115e-01
129 48 8.07961258427818518e-01
130 48 8.20707621816909150e-01
131 48 8.34434474697468120e-01
132 48 8.49141817069495874e-01
133 48 8.56985733001244254e-01
1 49 8.54697504729264090e-01
2 49 8.46874532752014408e-01
3 49 8.32206460294672046e-01
4 49 8.18516259334485685e-01
5 49 8.05803929871455660e-01
6 49 7.94069471905581303e-01
7 49 7.83312885436863282e-01
8 49 7.73534170465301596e-01
9 49 7.64733326990896023e-01
10 49 7.56910355013647118e-01
11 49 7.50065254533553438e-01
12 49 7.44198025550616538e-01
13 49 7.39308668064835639e-01
14 49 7.35397182076210965e-01
15 49 7.32463567584742736e-01
16 49 7.30507824590429955e-01
17 49 7.29529953093273842e-01
18 49 7.29529953093273842e-01
19 49 7.30507824590430399e-01
20 49 7.32463567584742514e-01
21 49 7.35397182076210965e-01
22 49 7.39308668064835639e-01
23 49 7.44198025550616538e-01
24 49 7.50065254533553438e-01
25 49 7.56910355013646896e-01
26 49 7.64733326990896134e-01
27 49 7.73534170465301596e-01
28 49 7.83312885436863282e-01
29 49 7.94069471905581303e-01
30 49 8.05803929871455660e-01
31 49 8.18516259334485685e-01
32 49 8.32206460294671935e-01
33 49 8.46874532752014408e-01
34 49 8.54697504729264090e-01
35 49 8.46874532752014408e-01
36 49 8.32206460294672046e-01
37 49 8.18516259334485685e-01
38 49 8.05803929871455660e-01
39 49 7.94069471905581303e-01
40 49 7.83312885436863282e-01
41 49 7.73534170465301596e-01
42 49 7.64733326990896023e-01
43 49 7.56910355013647118e-01
44 49 7.50065254533553438e-01
45 49 7.44198025550616538e-01
46 49 7.39308668064835639e-01
47 49 7.35397182076210965e-01
48 49 7.32463567584742736e-01
49 49 7.30507824590429955e-01
50 49 7.29529953093273842e-01
51 49 7.29529953093273842e-01
52 49 7.30507824590430399e-01
53 49 7.32463567584742514e-01
54 49 7.35397182076210965e-01
55 49 7.39308668064835639e-01
56 49 7.44198025550616538e-01
57 49 7.50065254533553438e-01
58 49 7.56910355013646896e-01
59 49 7.64733326990896134e-01
60 49 7.73534170465301596e-01
61 49 7.83312885436863282e-01
62 49 7.94069471905581303e-01
63 49 8.05803929871455660e-01
64 49 8.18516259334485685e-01
65 49 8.32206460294671935e-01
66 49 8.46874532752014408e-01
67 49 8.54697504729264090e-01
68 49 8.46874532752014408e-01
69 49 8.32206460294672046e-01
70 49 8.18516259334485685e-01
71 49 8.05803929871455660e-01
72 49 7.94069471905581303e-01
73 49 7.83312885436863282e-01
74 49 7.73534170465301596e-01
75 49 7.64733326990896023e-01
76 49 7.56910355013647118e-01
77 49 7.50065254533553438e-01
78 49 7.44198025550616538e-01
79 49 7.39308668064835639e-01
80 49 7.35397182076210965e-01
81 49 7.32463567584742736e-01
82 49 7.30507824590429955e-01
83 49 7.29529953093273842e-01
84 49 7.29529953093273842e-01
85 49 7.30507824590430399e-01
86 49 7.32463567584742514e-01
87 49 7.35397182076210965e-01
88 49 7.39308668064835639e-01
89 49 7.44198025550616538e-01
90 49 7.50065254533553438e-01
91 49 7.56910355013646896e-01
92 49 7.64733326990896134e-01
93 49 7.73534170465301596e-01
94 49 7.83312885436863282e-01
95 49 7.94069471905581303e-01
96 49 8.05803929871455660e-01
97 49 8.18516259334485685e-01
98 49 8.32206460294671935e-01
99 49 8.46874532752014408e-01
100 49 8.54697504729264090e-01
101 49 8.46874532752014408e-01
102 49 8.32206460294672046e-01
103 49 8.18516259334485685e-01
104 49 8.05803929871455660e-01
105 49 7.94069471905581303e-01
106 49 7.83312885436863282e-01
107 49 7.73534170465301596e-01
108 49 7.64733326990896023e-01
109 49 7.56910355013647118e-01
110 49 7.50065254533553438e-01
111 49 7.44198025550616538e-01
112 49 7.39308668064835639e-01
113 49 7.35397182076210965e-01
114 49 7.32463567584742736e-01
115 49 7.30507824590429955e-01
116 49 7.29529953093273842e-01
117 49 7.29529953093273842e-01
118 49 7.30507824590430399e-01
119 49 7.32463567584742514e-01
120 49 7.35397182076210965e-01
121 49 7.39308668064835639e-01
122 49 7.44198025550616538e-01
123 49 7.50065254533553438e-01
124 49 7.56910355013646896e-01
125 49 7.64733326990896134e-01
126 49 7.73534170465301596e-01
127 49 7.83312885436863282e-01
128 49 7.94069471905581303e-01
129 49 8.05803929871455660e-01
130 49 8.18516259334485685e-01
131 49 8.32206460294671935e-01
132 49 8.46874532752014408e-01
133 49 8.54697504729264090e-01
1 50 8.53553390593274064e-01
2 50 8.45740890593273731e-01
3 50 8.31092453093273953e-01
4 50 8.17420578093274064e-01
5 50 8.04725265593274175e-01
6 50 7.93006515593273953e-01
7 50 7.82264328093273842e-01
8 50 7.72498703093273842e-01
9 50 7.63709640593273842e-01
10 50 7.55897140593274286e-01
11 50 7.49061203093273842e-01
12 50 7.43201828093273953e-01
13 50 7.38319015593273953e-01
14 50 7.34412765593273953e-01
15 50 7.31483078093274175e-01
16 50 7.29529953093273842e-01
17 50 7.28553390593273842e-01
18 50 7.28553390593273842e-01
19 50 7.29529953093274175e-01
20 50 7.31483078093273953e-01
21 50 7.34412765593273953e-01
22 50 7.38319015593273953e-01
23 50 7.43201828093273953e-01
24 50 7.49061203093273842e-01
25 50 7.55897140593274064e-01
26 50 7.63709640593273953e-01
27 50 7.72498703093273842e-01
28 50 7.82264328093273842e-01
29 50 7.93006515593273953e-01
30 50 8.04725265593274175e-01
31 50 8.17420578093273953e-01
32 50 8.31092453093273842e-01
33 50 8.45740890593273731e-01
34 50 8.53553390593274064e-01
35 50 8.45740890593273731e-01
36 50 8.31092453093273953e-01
37 50 8.17420578093274064e-01
38 50 8.04725265593274175e-01
39 50 7.93006515593273953e-01
40 50 7.82264328093273842e-01
41 50 7.72498703093273842e-01
42 50 7.63709640593273842e-01
43 50 7.55897140593274286e-01
44 50 7.49061203093273842e-01
45 50 7.43201828093273953e-01
46 50 7.38319015593273953e-01
47 50 7.34412765593273953e-01
48 50 7.31483078093274175e-01
49 50 7.29529953093273842e-01
50 50 7.28553390593273842e-01
51 50 7.28553390593273842e-01
52 50 7.29529953093274175e-01
53 50 7.31483078093273953e-01
54 50 7.34412765593273953e-01
55 50 7.38319015593273953e-01
56 50 7.43201828093273953e-01
57 50 7.49061203093273842e-01
58 50 7.55897140593274064e-01
59 50 7.63709640593273953e-01
60 50 7.72498703093273842e-01
61 50 7.82264328093273842e-01
62 50 7.93006515593273953e-01
63 50 8.04725265593274175e-01
64 50 8.17420578093273953e-01
65 50 8.31092453093273842e-01
66 50 8.45740890593273731e-01
67 50 8.53553390593274064e-01
68 50 8.45740890593273731e-01
69 50 8.31092453093273953e-01
70 50 8.17420578093274064e-01
71 50 8.04725265593274175e-01
72 50 7.93006515593273953e-01
73 50 7.82264328093273842e-01
74 50 7.72498703093273842e-01
75 50 7.63709640593273842e-01
76 50 7.55897140593274286e-01
77 50 7.49061203093273842e-01
78 50 7.43201828093273953e-01
79 50 7.38319015593273953e-01
80 50 7.34412765593273953e-01
81 50 7.31483078093274175e-01
82 50 7.29529953093273842e-01
83 50 7.28553390593273842e-01
84 50 7.28553390593273842e-01
85 50 7.29529953093274175e-01
86 50 7.31483078093273953e-01
87 50 7.34412765593273953e-01
88 50 7.38319015593273953e-01
89 50 7.43201828093273953e-01
90 50 7.49061203093273842e-01
91 50 7.55897140593274064e-01
92 50 7.63709640593273953e-01
93 50 7.72498703093273842e-01
94 50 7.82264328093273842e-01
95 50 7.93006515593273953e-01
96 50 8.04725265593274175e-01
97 50 8.17420578093273953e-01
98 50 8.31092453093273842e-01
99 50 8.45740890593273731e-01
100 50 8.53553390593274064e-01
101 50 8.45740890593273731e-01
102 50 8.31092453093273953e-01
103 50 8.17420578093274064e-01
104 50 8.04725265593274175e-01
105 50 7.93006515593273953e-01
106 50 7.82264328093273842e-01
107 50 7.72498703093273842e-01
108 50 7.63709640593273842e-01
109 50 7.55897140593274286e-01
110 50 7.49061203093273842e-01
111 50 7.43201828093273953e-01
112 50 7.38319015593273953e-01
113 50 7.34412765593273953e-01
114 50 7.31483078093274175e-01
115 50 7.29529953093273842e-01
116 50 7.28553390593273842e-01
117 50 7.28553390593273842e-01
118 50 7.29529953093274175e-01
119 50 7.31483078093273953e-01
120 50 7.34412765593273953e-01
121 50 7.38319015593273953e-01
122 50 7.43201828093273953e-01
123 50 7.49061203093273842e-01
124 50 7.55897140593274064e-01
125 50 7.63709640593273953e-01
126 50 7.72498703093273842e-01
127 50 7.82264328093273842e-01
128 50 7.93006515593273953e-01
129 50 8.04725265593274175e-01
130 50 8.17420578093273953e-01
131 50 8.31092453093273842e-01
132 50 8.45740890593273731e-01
133 50 8.53553390593274064e-01
1 51 8.53553390593274064e-01
2 51 8.45740890593273842e-01
3 51 8.31092453093274064e-01
4 51 8.17420578093274175e-01
5 51 8.04725265593274286e-01
6 51 7.93006515593273953e-01
7 51 7.82264328093273953e-01
8 51 7.72498703093273842e-01
9 51 7.63709640593273953e-01
10 51 7.55897140593274286e-01
11 51 7.49061203093273842e-01
12 51 7.43201828093273953e-01
13 51 7.38319015593273953e-01
14 51 7.34412765593274064e-01
15 51 7.31483078093274175e-01
16 51 7.29529953093273953e-01
17 51 7.28553390593273842e-01
18 51 7.28553390593273842e-01
19 51 7.29529953093274175e-01
20 51 7.31483078093274064e-01
21 51 7.34412765593274064e-01
22 51 7.38319015593273953e-01
23 51 7.43201828093273953e-01
24 51 7.49061203093273842e-01
25 51 7.55897140593274064e-01
26 51 7.63709640593273953e-01
27 51 7.72498703093273842e-01
28 51 7.82264328093273953e-01
29 51 7.93006515593273953e-01
30 51 8.04725265593274175e-01
31 51 8.17420578093274064e-01
32 51 8.31092453093273953e-01
33 51 8.45740890593273842e-01
34 51 8.53553390593274064e-01
35 51 8.45740890593273842e-01
36 51 8.31092453093274064e-01
37 51 8.17420578093274175e-01
38 51 8.04725265593274286e-01
39 51 7.93006515593273953e-01
40 51 7.82264328093273953e-01
41 51 7.72498703093273842e-01
42 51 7.63709640593273953e-01
43 51 7.55897140593274286e-01
44 51 7.49061203093273842e-01
45 51 7.43201828093273953e-01
46 51 7.38319015593273953e-01
47 51 7.34412765593274064e-01
48 51 7.31483078093274175e-01
49 51 7.29529953093273953e-01
50 51 7.28553390593273842e-01
51 51 7.28553390593273842e-01
52 51 7.29529953093274175e-01
53 51 7.31483078093274064e-01
54 51 7.34412765593274064e-01
55 51 7.38319015593273953e-01
56 51 7.43201828093273953e-01
57 51 7.49061203093273842e-01
58 51 7.55897140593274064e-01
59 51 7.63709640593273953e-01
60 51 7.72498703093273842e-01
61 51 7.82264328093273953e-01
62 51 7.93006515593273953e-01
63 51 8.04725265593274175e-01
64 51 8.17420578093274064e-01
65 51 8.31092453093273953e-01
66 51 8.45740890593273842e-01
67 51 8.53553390593274064e-01
68 51 8.45740890593273842e-01
69 51 8.31092453093274064e-01
70 51 8.17420578093274175e-01
71 51 8.04725265593274286e-01
72 51 7.93006515593273953e-01
73 51 7.82264328093273953e-01
74 51 7.72498703093273842e-01
75 51 7.63709640593273953e-01
76 51 7.55897140593274286e-01
77 51 7.49061203093273842e-01
78 51 7.43201828093273953e-01
79 51 7.38319015593273953e-01
80 51 7.34412765593274064e-01
81 51 7.31483078093274175e-01
82 51 7.29529953093273953e-01
83 51 7.28553390593273842e-01
84 51 7.28553390593273842e-01
85 51 7.29529953093274175e-01
86 51 7.31483078093274064e-01
87 51 7.34412765593274064e-01
88 51 7.38319015593273953e-01
89 51 7.43201828093273953e-01
90 51 7.49061203093273842e-01
91 51 7.55897140593274064e-01
92 51 7.63709640593273953e-01
93 51 7.72498703093273842e-01
94 51 7.82264328093273953e-01
95 51 7.93006515593273953e-01
96 51 8.04725265593274175e-01
97 51 8.17420578093274064e-01
98 51 8.31092453093273953e-01
99 51 8.45740890593273842e-01
100 51 8.53553390593274064e-01
101 51 8.45740890593273842e-01
102 51 8.31092453093274064e-01
103 51 8.17420578093274175e-01
104 51 8.04725265593274286e-01
105 51 7.93006515593273953e-01
106 51 7.82264328093273953e-01
107 51 7.72498703093273842e-01
108 51 7.63709640593273953e-01
109 51 7.55897140593274286e-01
110 51 7.49061203093273842e-01
111 51 7.43201828093273953e-01
112 51 7.38319015593273953e-01
113 51 7.34412765593274064e-01
114 51 7.31483078093274175e-01
115 51 7.29529953093273953e-01
116 51 7.28553390593273842e-01
117 51 7.28553390593273842e-01
118 51 7.29529953093274175e-01
119 51 7.31483078093274064e-01
120 51 7.34412765593274064e-01
121 51 7.38319015593273953e-01
122 51 7.43201828093273953e-01
123 51 7.49061203093273842e-01
124 51 7.55897140593274064e-01
125 51 7.63709640593273953e-01
126 51 7.72498703093273842e-01
127 51 7.82264328093273953e-01
128 51 7.93006515593273953e-01
129 51 8.04725265593274175e-01
130 51 8.17420578093274064e-01
131 51 8.31092453093273953e-01
132 51 8.45740890593273842e-01
133 51 8.53553390593274064e-01
1 52 8.54697504729264201e-01
2 52 8.46874532752014630e-01
3 52 8.32206460294672157e-01
4 52 8.18516259334485907e-01
5 52 8.05803929871455771e-01
6 52 7.94069471905581414e-01
7 52 7.83312885436863504e-01
8 52 7.73534170465301596e-01
9 52 7.64733326990896245e-01
10 52 7.56910355013647118e-01
11 52 7.50065254533553549e-01
12 52 7.44198025550616649e-01
13 52 7.39308668064835750e-01
14 52 7.35397182076211076e-01
15 52 7.32463567584742736e-01
16 52 7.30507824590430288e-01
17 52 7.29529953093273953e-01
18 52 7.29529953093273953e-01
19 52 7.30507824590430399e-01
20 52 7.32463567584742625e-01
21 52 7.35397182076211076e-01
22 52 7.39308668064835750e-01
23 52 7.44198025550616649e-01
24 52 7.50065254533553549e-01
25 52 7.56910355013646896e-01
26 52 7.64733326990896245e-01
27 52 7.73534170465301596e-01
28 52 7.83312885436863504e-01
29 52 7.94069471905581414e-01
30 52 8.05803929871455660e-01
31 52 8.18516259334485796e-01
32 52 8.32206460294672046e-01
33 52 8.46874532752014630e-01
34 52 8.54697504729264201e-01
35 52 8.46874532752014630e-01
36 52 8.32206460294672157e-01
37 52 8.18516259334485907e-01
38 52 8.05803929871455771e-01
39 52 7.94069471905581414e-01
40 52 7.83312885436863504e-01
41 52 7.73534170465301596e-01
42 52 7.64733326990896245e-01
43 52 7.56910355013647118e-01
44 52 7.50065254533553549e-01
45 52 7.44198025550616649e-01
46 52 7.39308668064835750e-01
47 52 7.35397182076211076e-01
48 52 7.32463567584742736e-01
49 52 7.30507824590430288e-01
50 52 7.29529953093273953e-01
51 52 7.29529953093273953e-01
52 52 7.30507824590430399e-01
53 52 7.32463567584742625e-01
54 52 7.35397182076211076e-01
55 52 7.39308668064835750e-01
56 52 7.44198025550616649e-01
57 52 7.50065254533553549e-01
58 52 7.56910355013646896e-01
59 52 7.64733326990896245e-01
60 52 7.73534170465301596e-01
61 52 7.83312885436863504e-01
62 52 7.94069471905581414e-01
63 52 8.05803929871455660e-01
64 52 8.18516259334485796e-01
65 52 8.32206460294672046e-01
66 52 8.46874532752014630e-01
67 52 8.54697504729264201e-01
68 52 8.46874532752014630e-01
69 52 8.32206460294672157e-01
70 52 8.18516259334485907e-01
71 52 8.05803929871455771e-01
72 52 7.94069471905581414e-01
73 52 7.83312885436863504e-01
74 52 7.73534170465301596e-01
75 52 7.64733326990896245e-01
76 52 7.56910355013647118e-01
77 52 7.50065254533553549e-01
78 52 7.44198025550616649e-01
79 52 7.39308668064835750e-01
80 52 7.35397182076211076e-01
81 52 7.32463567584742736e-01
82 52 7.30507824590430288e-01
83 52 7.29529953093273953e-01
84 52 7.29529953093273953e-01
85 52 7.30507824590430399e-01
86 52 7.32463567584742625e-01
87 52 7.35397182076211076e-01
88 52 7.39308668064835750e-01
89 52 7.44198025550616649e-01
90 52 7.50065254533553549e-01
91 52 7.56910355013646896e-01
92 52 7.64733326990896245e-01
93 52 7.73534170465301596e-01
94 52 7.83312885436863504e-01
95 52 7.94069471905581414e-01
96 52 8.05803929871455660e-01
97 52 8.18516259334485796e-01
98 52 8.32206460294672046e-01
99 52 8.46874532752014630e-01
100 52 8.54697504729264201e-01
101 52 8.46874532752014630e-01
102 52 8.32206460294672157e-01
103 52 8.18516259334485907e-01
104 52 8.05803929871455771e-01
105 52 7.94069471905581414e-01
106 52 7.83312885436863504e-01
107 52 7.73534170465301596e-01
108 52 7.64733326990896245e-01
109 52 7.56910355013647118e-01
110 52 7.50065254533553549e-01
111 52 7.44198025550616649e-01
112 52 7.39308668064835750e-01
113 52 7.35397182076211076e-01
114 52 7.32463567584742736e-01
115 52 7.30507824590430288e-01
116 52 7.29529953093273953e-01
117 52 7.29529953093273953e-01
118 52 7.30507824590430399e-01
119 52 7.32463567584742625e-01
120 52 7.35397182076211076e-01
121 52 7.39308668064835750e-01
122 52 7.44198025550616649e-01
123 52 7.50065254533553549e-01
124 52 7.56910355013646896e-01
125 52 7.64733326990896245e-01
126 52 7.73534170465301596e-01
127 52 7.83312885436863504e-01
128 52 7.94069471905581414e-01
129 52 8.05803929871455660e-01
130 52 8.18516259334485796e-01
131 52 8.32206460294672046e-01
132 52 8.46874532752014630e-01
133 52 8.54697504729264201e-01
1 53 8.56985733001244254e-01
2 53 8.49141817069495985e-01
3 53 8.34434474697468342e-01
4 53 8.20707621816909261e-01
5 53 8.07961258427818629e-01
6 53 7.96195384530196226e-01
7 53 7.85410000124042496e-01
8 53 7.75605105209357104e-01
9 53 7.66780699786140718e-01
10 53 7.58936783854392782e-01
11 53 7.52073357414112853e-01
12 53 7.46190420465301818e-01
13 53 7.41287973007959122e-01
14 53 7.37366015042085099e-01
15 53 7.34424546567679859e-01
16 53 7.32463567584742625e-01
17 53 7.31483078093273953e-01
18 53 7.31483078093273953e-01
19 53 7.32463567584742736e-01
20 53 7.34424546567679637e-01
21 53 7.37366015042085099e-01
22 53 7.41287973007959122e-01
23 53 7.46190420465301818e-01
24 53 7.52073357414112853e-01
25 53 7.58936783854392560e-01
26 53 7.66780699786140718e-01
27 53 7.75605105209357104e-01
28 53 7.85410000124042496e-01
29 53 7.96195384530196226e-01
30 53 8.07961258427818518e-01
31 53 8.20707621816909150e-01
32 53 8.34434474697468120e-01
33 53 8.49141817069495985e-01
34 53 8.56985733001244254e-01
35 53 8.49141817069495985e-01
36 53 8.34434474697468342e-01
37 53 8.20707621816909261e-01
38 53 8.07961258427818629e-01
39 53 7.96195384530196226e-01
40 53 7.85410000124042496e-01
41 53 7.75605105209357104e-01
42 53 7.66780699786140718e-01
43 53 7.58936783854392782e-01
44 53 7.52073357414112853e-01
45 53 7.46190420465301818e-01
46 53 7.41287973007959122e-01
47 53 7.37366015042085099e-01
48 53 7.34424546567679859e-01
49 53 7.32463567584742625e-01
50 53 7.31483078093273953e-01
51 53 7.31483078093273953e-01
52 53 7.32463567584742736e-01
53 53 7.34424546567679637e-01
54 53 7.37366015042085099e-01
55 53 7.41287973007959122e-01
56 53 7.46190420465301818e-01
57 53 7.52073357414112853e-01
58 53 7.58936783854392560e-01
59 53 7.66780699786140718e-01
60 53 7.75605105209357104e-01
61 53 7.85410000124042496e-01
62 53 7.96195384530196226e-01
63 53 8.07961258427818518e-01
64 53 8.20707621816909150e-01
65 53 8.34434474697468120e-01
66 53 8.49141817069495985e-01
67 53 8.56985733001244254e-01
68 53 8.49141817069495985e-01
69 53 8.34434474697468342e-01
70 53 8.20707621816909261e-01
71 53 8.07961258427818629e-01
72 53 7.96195384530196226e-01
73 53 7.85410000124042496e-01
74 53 7.75605105209357104e-01
75 53 7.66780699786140718e-01
76 53 7.58936783854392782e-01
77 53 7.52073357414112853e-01
78 53 7.46190420465301818e-01
79 53 7.41287973007959122e-01
80 53 7.37366015042085099e-01
81 53 7.34424546567679859e-01
82 53 7.32463567584742625e-01
83 53 7.31483078093273953e-01
84 53 7.31483078093273953e-01
85 53 7.32463567584742736e-01
86 53 7.34424546567679637e-01
87 53 7.37366015042085099e-01
88 53 7.41287973007959122e-01
89 53 7.46190420465301818e-01
90 53 7.52073357414112853e-01
91 53 7.58936783854392560e-01
92 53 7.66780699786140718e-01
93 53 7.75605105209357104e-01
94 53 7.85410000124042496e-01
95 53 7.96195384530196226e-01
96 53 8.07961258427818518e-01
97 53 8.20707621816909150e-01
98 53 8.34434474697468120e-01
99 53 8.49141817069495985e-01
100 53 8.56985733001244254e-01
101 53 8.49141817069495985e-01
102 53 8.34434474697468342e-01
103 53 8.20707621816909261e-01
104 53 8.07961258427818629e-01
105 53 7.96195384530196226e-01
106 53 7.85410000124042496e-01
107 53 7.75605105209357104e-01
108 53 7.66780699786140718e-01
109 53 7.58936783854392782e-01
110 53 7.52073357414112853e-01
111 53 7.46190420465301818e-01
112 53 7.41287973007959122e-01
113 53 7.37366015042085099e-01
114 53 7.34424546567679859e-01
115 53 7.32463567584742625e-01
116 53 7.31483078093273953e-01
117 53 7.31483078093273953e-01
118 53 7.32463567584742736e-01
119 53 7.34424546567679637e-01
120 53 7.37366015042085099e-01
121 53 7.41287973007959122e-01
122 53 7.46190420465301818e-01
123 53 7.52073357414112853e-01
124 53 7.58936783854392560e-01
125 53 7.66780699786140718e-01
126 53 7.75605105209357104e-01
127 53 7.85410000124042496e-01
128 53 7.96195384530196226e-01
129 53 8.07961258427818518e-01
130 53 8.20707621816909150e-01
131 53 8.34434474697468120e-01
132 53 8.49141817069495985e-01
133 53 8.56985733001244254e-01
1 54 8.60418075409214334e-01
2 54 8.52542743545718018e-01
3 54 8.37776496301662510e-01
4 54 8.23994665540544236e-01
5 54 8.11197251262362862e-01
6 54 7.99384253467118278e-01
7 54 7.88555672154810816e-01
8 54 7.78711507325440366e-01
9 54 7.69851758979007372e-01
10 54 7.61976427115511279e-01
11 54 7.55085511734951753e-01
12 54 7.49179012837329572e-01
13 54 7.44256930422644292e-01
14 54 7.40319264490896245e-01
15 54 7.37366015042085321e-01
16 54 7.35397182076211076e-01
17 54 7.34412765593273953e-01
18 54 7.34412765593273953e-01
19 54 7.35397182076211187e-01
20 54 7.37366015042085099e-01
21 54 7.40319264490896245e-01
22 54 7.44256930422644292e-01
23 54 7.49179012837329572e-01
24 54 7.55085511734951753e-01
25 54 7.61976427115510946e-01
26 54 7.69851758979007261e-01
27 54 7.78711507325440366e-01
28 54 7.88555672154810816e-01
29 54 7.99384253467118278e-01
30 54 8.11197251262362751e-01
31 54 8.23994665540544124e-01
32 54 8.37776496301662288e-01
33 54 8.52542743545718018e-01
34 54 8.60418075409214334e-01
35 54 8.52542743545718018e-01
36 54 8.37776496301662510e-01
37 54 8.23994665540544236e-01
38 54 8.11197251262362862e-01
39 54 7.99384253467118278e-01
40 54 7.88555672154810816e-01
41 54 7.78711507325440366e-01
42 54 7.69851758979007372e-01
43 54 7.61976427115511279e-01
44 54 7.55085511734951753e-01
45 54 7.49179012837329572e-01
46 54 7.44256930422644292e-01
47 54 7.40319264490896245e-01
48 54 7.37366015042085321e-01
49 54 7.35397182076211076e-01
50 54 7.34412765593273953e-01
51 54 7.34412765593273953e-01
52 54 7.35397182076211187e-01
53 54 7.37366015042085099e-01
54 54 7.40319264490896245e-01
55 54 7.44256930422644292e-01
56 54 7.49179012837329572e-01
57 54 7.55085511734951753e-01
58 54 7.61976427115510946e-01
59 54 7.69851758979007261e-01
60 54 7.78711507325440366e-01
61 54 7.88555672154810816e-01
62 54 7.99384253467118278e-01
63 54 8.11197251262362751e-01
64 54 8.23994665540544124e-01
65 54 8.37776496301662288e-01
66 54 8.52542743545718018e-01
67 54 8.60418075409214334e-01
68 54 8.52542743545718018e-01
69 54 8.37776496301662510e-01
70 54 8.23994665540544236e-01
71 54 8.11197251262362862e-01
72 54 7.99384253467118278e-01
73 54 7.88555672154810816e-01
74 54 7.78711507325440366e-01
75 54 7.69851758979007372e-01
76 54 7.61976427115511279e-01
77 54 7.55085511734951753e-01
78 54 7.49179012837329572e-01
79 54 7.44256930422644292e-01
80 54 7.40319264490896245e-01
81 54 7.37366015042085321e-01
82 54 7.35397182076211076e-01
83 54 7.34412765593273953e-01
84 54 7.34412765593273953e-01
85 54 7.35397182076211187e-01
86 54 7.37366015042085099e-01
87 54 7.40319264490896245e-01
88 54 7.44256930422644292e-01
89 54 7.49179012837329572e-01
90 54 7.55085511734951753e-01
91 54 7.61976427115510946e-01
92 54 7.69851758979007261e-01
93 54 7.78711507325440366e-01
94 54 7.88555672154810816e-01
95 54 7.99384253467118278e-01
96 54 8.11197251262362751e-01
97 54 8.23994665540544124e-01
98 54 8.37776496301662288e-01
99 54 8.52542743545718018e-01
100 54 8.60418075409214334e-01
101 54 8.52542743545718018e-01
102 54 8.37776496301662510e-01
103 54 8.23994665540544236e-01
104 54 8.11197251262362862e-01
105 54 7.99384253467118278e-01
106 54 7.88555672154810816e-01
107 54 7.78711507325440366e-01
108 54 7.69851758979007372e-01
109 54 7.61976427115511279e-01
110 54 7.55085511734951753e-01
111 54 7.49179012837329572e-01
112 54 7.44256930422644292e-01
113 54 7.40319264490896245e-01
114 54 7.37366015042085321e-01
115 54 7.35397182076211076e-01
116 54 7.34412765593273953e-01
117 54 7.34412765593273953e-01
118 54 7.35397182076211187e-01
119 54 7.37366015042085099e-01
120 54 7.40319264490896245e-01
121 54 7.44256930422644292e-01
122 54 7.49179012837329572e-01
123 54 7.55085511734951753e-01
124 54 7.61976427115510946e-01
125 54 7.69851758979007261e-01
126 54 7.78711507325440366e-01
127 54 7.88555672154810816e-01
128 54 7.99384253467118278e-01
129 54 8.11197251262362751e-01
130 54 8.23994665540544124e-01
131 54 8.37776496301662288e-01
132 54 8.52542743545718018e-01
133 54 8.60418075409214334e-01
1 55 8.64994531953174550e-01
2 55 8.57077312180680728e-01
3 55 8.42232525107254881e-01
4 55 8.28377390505390943e-01
5 55 8.15511908375088579e-01
6 55 8.03636078716347790e-01
7 55 7.92749901529168688e-01
8 55 7.82853376813551383e-01
9 55 7.73946504569496208e-01
10 55 7.66029284797002497e-01
11 55 7.59101717496070139e-01
12 55 7.53163802666699911e-01
13 55 7.48215540308891147e-01
14 55 7.44256930422644403e-01
15 55 7.41287973007959455e-01
16 55 7.39308668064835750e-01
17 55 7.38319015593273953e-01
18 55 7.38319015593273953e-01
19 55 7.39308668064835861e-01
20 55 7.41287973007959233e-01
21 55 7.44256930422644403e-01
22 55 7.48215540308891147e-01
23 55 7.53163802666699911e-01
24 55 7.59101717496070139e-01
25 55 7.66029284797002274e-01
26 55 7.73946504569496097e-01
27 55 7.82853376813551383e-01
28 55 7.92749901529168688e-01
29 55 8.03636078716347790e-01
30 55 8.15511908375088468e-01
31 55 8.28377390505390832e-01
32 55 8.42232525107254659e-01
33 55 8.57077312180680728e-01
34 55 8.64994531953174550e-01
35 55 8.57077312180680728e-01
36 55 8.42232525107254881e-01
37 55 8.28377390505390943e-01
38 55 8.15511908375088579e-01
39 55 8.03636078716347790e-01
40 55 7.92749901529168688e-01
41 55 7.82853376813551383e-01
42 55 7.73946504569496208e-01
43 55 7.66029284797002497e-01
44 55 7.59101717496070139e-01
45 55 7.53163802666699911e-01
46 55 7.48215540308891147e-01
47 55 7.44256930422644403e-01
48 55 7.41287973007959455e-01
49 55 7.39308668064835750e-01
50 55 7.38319015593273953e-01
51 55 7.38319015593273953e-01
52 55 7.39308668064835861e-01
53 55 7.41287973007959233e-01
54 55 7.44256930422644403e-01
55 55 7.48215540308891147e-01
56 55 7.53163802666699911e-01
57 55 7.59101717496070139e-01
58 55 7.66029284797002274e-01
59 55 7.73946504569496097e-01
60 55 7.82853376813551383e-01
61 55 7.92749901529168688e-01
62 55 8.03636078716347790e-01
63 55 8.15511908375088468e-01
64 55 8.28377390505390832e-01
65 55 8.42232525107254659e-01
66 55 8.57077312180680728e-01
67 55 8.64994531953174550e-01
68 55 8.57077312180680728e-01
69 55 8.42232525107254881e-01
70 55 8.28377390505390943e-01
71 55 8.15511908375088579e-01
72 55 8.03636078716347790e-01
73 55 7.92749901529168688e-01
74 55 7.82853376813551383e-01
75 55 7.73946504569496208e-01
76 55 7.66029284797002497e-01
77 55 7.59101717496070139e-01
78 55 7.53163802666699911e-01
79 55 7.48215540308891147e-01
80 55 7.44256930422644403e-01
81 55 7.41287973007959455e-01
82 55 7.39308668064835750e-01
83 55 7.38319015593273953e-01
84 55 7.38319015593273953e-01
85 55 7.39308668064835861e-01
86 55 7.41287973007959233e-01
87 55 7.44256930422644403e-01
88 55 7.48215540308891147e-01
89 55 7.53163802666699911e-01
90 55 7.59101717496070139e-01
91 55 7.66029284797002274e-01
92 55 7.73946504569496097e-01
93 55 7.82853376813551383e-01
94 55 7.92749901529168688e-01
95 55 8.03636078716347790e-01
96 55 8.15511908375088468e-01
97 55 8.28377390505390832e-01
98 55 8.42232525107254659e-01
99 55 8.57077312180680728e-01
100 55 8.64994531953174550e-01
101 55 8.57077312180680728e-01
102 55 8.42232525107254881e-01
103 55 8.28377390505390943e-01
104 55 8.15511908375088579e-01
105 55 8.03636078716347790e-01
106 55 7.92749901529168688e-01
107 55 7.82853376813551383e-01
108 55 7.73946504569496208e-01
109 55 7.66029284797002497e-01
110 55 7.59101717496070139e-01
111 55 7.53163802666699911e-01
112 55 7.48215540308891147e-01
113 55 7.44256930422644403e-01
114 55 7.41287973007959455e-01
115 55 7.39308668064835750e-01
116 55 7.38319015593273953e-01
117 55 7.38319015593273953e-01
118 55 7.39308668064835861e-01
119 55 7.41287973007959233e-01
120 55 7.44256930422644403e-01
121 55 7.48215540308891147e-01
122 55 7.53163802666699911e-01
123 55 7.59101717496070139e-01
124 55 7.66029284797002274e-01
125 55 7.73946504569496097e-01
126 55 7.82853376813551383e-01
127 55 7.92749901529168688e-01
128 55 8.03636078716347790e-01
129 55 8.15511908375088468e-01
130 55 8.28377390505390832e-01
131 55 8.42232525107254659e-01
132 55 8.57077312180680728e-01
133 55 8.64994531953174550e-01
1 56 8.70715102633124793e-01
2 56 8.62745522974384116e-01
3 56 8.47802561114245345e-01
4 56 8.33855796711449271e-01
5 56 8.20905229765995781e-01
6 56 8.08950860277884654e-01
7 56 7.97992688247116111e-01
8 56 7.88030713673690153e-01
9 56 7.79064936557607224e-01
10 56 7.71095356898866546e-01
11 56 7.64121974697468231e-01
12 56 7.58144789953412834e-01
13 56 7.53163802666699800e-01
14 56 7.49179012837329572e-01
15 56 7.46190420465302040e-01
16 56 7.44198025550616649e-01
17 56 7.43201828093273953e-01
18 56 7.43201828093273953e-01
19 56 7.44198025550616760e-01
20 56 7.46190420465301818e-01
21 56 7.49179012837329572e-01
22 56 7.53163802666699800e-01
23 56 7.58144789953412834e-01
24 56 7.64121974697468231e-01
25 56 7.71095356898866435e-01
26 56 7.79064936557607113e-01
27 56 7.88030713673690153e-01
28 56 7.97992688247116111e-01
29 56 8.08950860277884654e-01
30 56 8.20905229765995670e-01
31 56 8.33855796711449271e-01
32 56 8.47802561114245123e-01
33 56 8.62745522974384116e-01
34 56 8.70715102633124793e-01
35 56 8.62745522974384116e-01
36 56 8.47802561114245345e-01
37 56 8.33855796711449271e-01
38 56 8.20905229765995781e-01
39 56 8.08950860277884654e-01
40 56 7.97992688247116111e-01
41 56 7.88030713673690153e-01
42 56 7.79064936557607224e-01
43 56 7.71095356898866546e-01
44 56 7.64121974697468231e-01
45 56 7.58144789953412834e-01
46 56 7.53163802666699800e-01
47 56 7.49179012837329572e-01
48 56 7.46190420465302040e-01
49 56 7.44198025550616649e-01
50 56 7.43201828093273953e-01
51 56 7.43201828093273953e-01
52 56 7.44198025550616760e-01
53 56 7.46190420465301818e-01
54 56 7.49179012837329572e-01
55 56 7.53163802666699800e-01
56 56 7.58144789953412834e-01
57 56 7.64121974697468231e-01
58 56 7.71095356898866435e-01
59 56 7.79064936557607113e-01
60 56 7.88030713673690153e-01
61 56 7.97992688247116111e-01
62 56 8.08950860277884654e-01
63 56 8.20905229765995670e-01
64 56 8.33855796711449271e-01
65 56 8.47802561114245123e-01
66 56 8.62745522974384116e-01
67 56 8.70715102633124793e-01
68 56 8.62745522974384116e-01
69 56 8.47802561114245345e-01
70 56 8.33855796711449271e-01
71 56 8.20905229765995781e-01
72 56 8.08950860277884654e-01
73 56 7.97992688247116111e-01
74 56 7.88030713673690153e-01
75 56 7.79064936557607224e-01
76 56 7.71095356898866546e-01
77 56 7.64121974697468231e-01
78 56 7.58144789953412834e-01
79 56 7.53163802666699800e-01
80 56 7.49179012837329572e-01
81 56 7.46190420465302040e-01
82 56 7.44198025550616649e-01
83 56 7.43201828093273953e-01
84 56 7.43201828093273953e-01
85 56 7.44198025550616760e-01
86 56 7.46190420465301818e-01
87 56 7.49179012837329572e-01
88 56 7.53163802666699800e-01
89 56 7.58144789953412834e-01
90 56 7.64121974697468231e-01
91 56 7.71095356898866435e-01
92 56 7.79064936557607113e-01
93 56 7.88030713673690153e-01
94 56 7.97992688247116111e-01
95 56 8.08950860277884654e-01
96 56 8.20905229765995670e-01
97 56 8.33855796711449271e-01
98 56 8.47802561114245123e-01
99 56 8.62745522974384116e-01
100 56 8.70715102633124793e-01
101 56 8.62745522974384116e-01
102 56 8.47802561114245345e-01
103 56 8.33855796711449271e-01
104 56 8.20905229765995781e-01
105 56 8.08950860277884654e-01
106 56 7.97992688247116111e-01
107 56 7.88030713673690153e-01
108 56 7.79064936557607224e-01
109 56 7.71095356898866546e-01
110 56 7.64121974697468231e-01
111 56 7.58144789953412834e-01
112 56 7.53163802666699800e-01
113 56 7.49179012837329572e-01
114 56 7.46190420465302040e-01
115 56 7.44198025550616649e-01
116 56 7.43201828093273953e-01
117 56 7.43201828093273953e-01
118 56 7.44198025550616760e-01
119 56 7.46190420465301818e-01
120 56 7.49179012837329572e-01
121 56 7.53163802666699800e-01
122 56 7.58144789953412834e-01
123 56 7.64121974697468231e-01
124 56 7.71095356898866435e-01
125 56 7.79064936557607113e-01
126 56 7.88030713673690153e-01
127 56 7.97992688247116111e-01
128 56 8.08950860277884654e-01
129 56 8.20905229765995670e-01
130 56 8.33855796711449271e-01
131 56 8.47802561114245123e-01
132 56 8.62745522974384116e-01
133 56 8.70715102633124793e-01
1 57 8.77579787449065063e-01
2 57 8.69547375926828181e-01
3 57 8.54486604322633791e-01
4 57 8.40429884158719331e-01
5 57 8.27377215435084357e-01
6 57 8.15328598151728867e-01
7 57 8.04284032308652863e-01
8 57 7.94243517905856677e-01
9 57 7.85207054943340421e-01
10 57 7.77174643421103539e-01
11 57 7.70146283339145921e-01
12 57 7.64121974697468342e-01
13 57 7.59101717496070028e-01
14 57 7.55085511734951753e-01
15 57 7.52073357414113075e-01
16 57 7.50065254533553660e-01
17 57 7.49061203093273953e-01
18 57 7.49061203093273953e-01
19 57 7.50065254533553660e-01
20 57 7.52073357414112964e-01
21 57 7.55085511734951753e-01
22 57 7.59101717496070028e-01
23 57 7.64121974697468342e-01
24 57 7.70146283339145921e-01
25 57 7.77174643421103317e-01
26 57 7.85207054943340310e-01
27 57 7.94243517905856677e-01
28 57 8.04284032308652863e-01
29 57 8.15328598151728867e-01
30 57 8.27377215435084246e-01
31 57 8.40429884158719220e-01
32 57 8.54486604322633569e-01
33 57 8.69547375926828070e-01
34 57 8.77579787449065063e-01
35 57 8.69547375926828181e-01
36 57 8.54486604322633791e-01
37 57 8.40429884158719331e-01
38 57 8.27377215435084357e-01
39 57 8.15328598151728867e-01
40 57 8.04284032308652863e-01
41 57 7.94243517905856677e-01
42 57 7.85207054943340421e-01
43 57 7.77174643421103539e-01
44 57 7.70146283339145921e-01
45 57 7.64121974697468342e-01
46 57 7.59101717496070028e-01
47 57 7.55085511734951753e-01
48 57 7.52073357414113075e-01
49 57 7.50065254533553660e-01
50 57 7.49061203093273953e-01
51 57 7.49061203093273953e-01
52 57 7.50065254533553660e-01
53 57 7.52073357414112964e-01
54 57 7.55085511734951753e-01
55 57 7.59101717496070028e-01
56 57 7.64121974697468342e-01
57 57 7.70146283339145921e-01
58 57 7.77174643421103317e-01
59 57 7.85207054943340310e-01
60 57 7.94243517905856677e-01
61 57 8.04284032308652863e-01
62 57 8.15328598151728867e-01
63 57 8.27377215435084246e-01
64 57 8.40429884158719220e-01
65 57 8.54486604322633569e-01
66 57 8.69547375926828070e-01
67 57 8.77579787449065063e-01
68 57 8.69547375926828181e-01
69 57 8.54486604322633791e-01
70 57 8.40429884158719331e-01
71 57 8.27377215435084357e-01
72 57 8.15328598151728867e-01
73 57 8.04284032308652863e-01
74 57 7.94243517905856677e-01
75 57 7.85207054943340421e-01
76 57 7.77174643421103539e-01
77 57 7.70146283339145921e-01
78 57 7.64121974697468342e-01
79 57 7.59101717496070028e-01
80 57 7.55085511734951753e-01
81 57 7.52073357414113075e-01
82 57 7.50065254533553660e-01
83 57 7.49061203093273953e-01
84 57 7.49061203093273953e-01
85 57 7.50065254533553660e-01
86 57 7.52073357414112964e-01
87 57 7.55085511734951753e-01
88 57 7.59101717496070028e-01
89 57 7.64121974697468342e-01
90 57 7.70146283339145921e-01
91 57 7.77174643421103317e-01
92 57 7.85207054943340310e-01
93 57 7.94243517905856677e-01
94 57 8.04284032308652863e-01
95 57 8.15328598151728867e-01
96 57 8.27377215435084246e-01
97 57 8.40429884158719220e-01
98 57 8.54486604322633569e-01
99 57 8.69547375926828070e-01
100 57 8.77579787449065063e-01
101 57 8.69547375926828181e-01
102 57 8.54486604322633791e-01
103 57 8.40429884158719331e-01
104 57 8.27377215435084357e-01
105 57 8.15328598151728867e-01
106 57 8.04284032308652863e-01
107 57 7.94243517905856677e-01
108 57 7.85207054943340421e-01
109 57 7.77174643421103539e-01
110 57 7.70146283339145921e-01
111 57 7.64121974697468342e-01
112 57 7.59101717496070028e-01
113 57 7.55085511734951753e-01
114 57 7.52073357414113075e-01
115 57 7.50065254533553660e-01
116 57 7.49061203093273953e-01
117 57 7.49061203093273953e-01
118 57 7.50065254533553660e-01
119 57 7.52073357414112964e-01
120 57 7.55085511734951753e-01
121 57 7.59101717496070028e-01
122 57 7.64121974697468342e-01
123 57 7.70146283339145921e-01
124 57 7.77174643421103317e-01
125 57 7.85207054943340310e-01
126 57 7.94243517905856677e-01
127 57 8.04284032308652863e-01
128 57 8.15328598151728867e-01
129 57 8.27377215435084246e-01
130 57 8.40429884158719220e-01
131 57 8.54486604322633569e-01
132 57 8.69547375926828070e-01
133 57 8.77579787449065063e-01
1 58 8.85588586400995359e-01
2 58 8.77482871038012924e-01
3 58 8.62284654732420441e-01
4 58 8.48099652847201124e-01
5 58 8.34927865382354528e-01
6 58 8.22769292337880542e-01
7 58 8.11623933713779278e-01
8 58 8.01491789510050956e-01
9 58 7.92372859726695911e-01
10 58 7.84267144363713253e-01
11 58 7.77174643421103206e-01
12 58 7.71095356898866435e-01
13 58 7.66029284797002163e-01
14 58 7.61976427115511057e-01
15 58 7.58936783854392671e-01
16 58 7.56910355013646896e-01
17 58 7.55897140593273953e-01
18 58 7.55897140593273953e-01
19 58 7.56910355013646896e-01
20 58 7.58936783854392560e-01
21 58 7.61976427115511057e-01
22 58 7.66029284797002163e-01
23 58 7.71095356898866435e-01
24 58 7.77174643421103206e-01
25 58 7.84267144363713142e-01
26 58 7.92372859726695800e-01
27 58 8.01491789510050956e-01
28 58 8.11623933713779278e-01
29 58 8.22769292337880431e-01
30 58 8.34927865382354306e-01
31 58 8.48099652847201013e-01
32 58 8.62284654732420219e-01
33 58 8.77482871038012702e-01
34 58 8.85588586400995359e-01
35 58 8.77482871038012924e-01
36 58 8.62284654732420441e-01
37 58 8.48099652847201124e-01
38 58 8.34927865382354528e-01
39 58 8.22769292337880542e-01
40 58 8.11623933713779278e-01
41 58 8.01491789510050956e-01
42 58 7.92372859726695911e-01
43 58 7.84267144363713253e-01
44 58 7.77174643421103206e-01
45 58 7.71095356898866435e-01
46 58 7.66029284797002163e-01
47 58 7.61976427115511057e-01
48 58 7.58936783854392671e-01
49 58 7.56910355013646896e-01
50 58 7.55897140593273953e-01
51 58 7.55897140593273953e-01
52 58 7.56910355013646896e-01
53 58 7.58936783854392560e-01
54 58 7.61976427115511057e-01
55 58 7.66029284797002163e-01
56 58 7.71095356898866435e-01
57 58 7.77174643421103206e-01
58 58 7.84267144363713142e-01
59 58 7.92372859726695800e-01
60 58 8.01491789510050956e-01
61 58 8.11623933713779278e-01
62 58 8.22769292337880431e-01
63 58 8.34927865382354306e-01
64 58 8.48099652847201013e-01
65 58 8.62284654732420219e-01
66 58 8.77482871038012702e-01
67 58 8.85588586400995359e-01
68 58 8.77482871038012924e-01
69 58 8.62284654732420441e-01
70 58 8.48099652847201124e-01
71 58 8.34927865382354528e-01
72 58 8.22769292337880542e-01
73 58 8.11623933713779278e-01
74 58 8.01491789510050956e-01
75 58 7.92372859726695911e-01
76 58 7.84267144363713253e-01
77 58 7.77174643421103206e-01
78 58 7.71095356898866435e-01
79 58 7.66029284797002163e-01
80 58 7.61976427115511057e-01
81 58 7.58936783854392671e-01
82 58 7.56910355013646896e-01
83 58 7.55897140593273953e-01
84 58 7.55897140593273953e-01
85 58 7.56910355013646896e-01
86 58 7.58936783854392560e-01
87 58 7.61976427115511057e-01
88 58 7.66029284797002163e-01
89 58 7.71095356898866435e-01
90 58 7.77174643421103206e-01
91 58 7.84267144363713142e-01
92 58 7.92372859726695800e-01
93 58 8.01491789510050956e-01
94 58 8.11623933713779278e-01
95 58 8.22769292337880431e-01
96 58 8.34927865382354306e-01
97 58 8.48099652847201013e-01
98 58 8.62284654732420219e-01
99 58 8.77482871038012702e-01
100 58 8.85588586400995359e-01
101 58 8.77482871038012924e-01
102 58 8.62284654732420441e-01
103 58 8.48099652847201124e-01
104 58 8.34927865382354528e-01
105 58 8.22769292337880542e-01
106 58 8.11623933713779278e-01
107 58 8.01491789510050956e-01
108 58 7.92372859726695911e-01
109 58 7.84267144363713253e-01
110 58 7.77174643421103206e-01
111 58 7.71095356898866435e-01
112 58 7.66029284797002163e-01
113 58 7.61976427115511057e-01
114 58 7.58936783854392671e-01
115 58 7.56910355013646896e-01
116 58 7.55897140593273953e-01
117 58 7.55897140593273953e-01
118 58 7.56910355013646896e-01
119 58 7.58936783854392560e-01
120 58 7.61976427115511057e-01
121 58 7.66029284797002163e-01
122 58 7.71095356898866435e-01
123 58 7.77174643421103206e-01
124 58 7.84267144363713142e-01
125 58 7.92372859726695800e-01
126 58 8.01491789510050956e-01
127 58 8.11623933713779278e-01
128 58 8.22769292337880431e-01
129 58 8.34927865382354306e-01
130 58 8.48099652847201013e-01
131 58 8.62284654732420219e-01
132 58 8.77482871038012702e-01
133 58 8.85588586400995359e-01
1 59 8.94741499488915792e-01
2 59 8.86552008307938233e-01
3 59 8.71196712343605073e-01
4 59 8.56865102776894427e-01
5 59 8.43557179607805963e-01
6 59 8.31272942836339457e-01
7 59 8.20012392462495021e-01
8 59 8.09775528486272989e-01
9 59 8.00562350907673470e-01
10 59 7.92372859726695800e-01
11 59 7.85207054943340199e-01
12 59 7.79064936557607113e-01
13 59 7.73946504569495985e-01
14 59 7.69851758979007261e-01
15 59 7.66780699786140829e-01
16 59 7.64733326990896245e-01
17 59 7.63709640593273842e-01
18 59 7.63709640593273842e-01
19 59 7.64733326990896245e-01
20 59 7.66780699786140718e-01
21 59 7.69851758979007261e-01
22 59 7.73946504569495985e-01
23 59 7.79064936557607113e-01
24 59 7.85207054943340199e-01
25 59 7.92372859726695689e-01
26 59 8.00562350907673359e-01
27 59 8.09775528486272989e-01
28 59 8.20012392462495021e-01
29 59 8.31272942836339346e-01
30 59 8.43557179607805740e-01
31 59 8.56865102776894316e-01
32 59 8.71196712343604851e-01
33 59 8.86552008307938011e-01
34 59 8.94741499488915792e-01
35 59 8.86552008307938233e-01
36 59 8.71196712343605073e-01
37 59 8.56865102776894427e-01
38 59 8.43557179607805963e-01
39 59 8.31272942836339457e-01
40 59 8.20012392462495021e-01
41 59 8.09775528486272989e-01
42 59 8.00562350907673470e-01
43 59 7.92372859726695800e-01
44 59 7.85207054943340199e-01
45 59 7.79064936557607113e-01
46 59 7.73946504569495985e-01
47 59 7.69851758979007261e-01
48 59 7.66780699786140829e-01
49 59 7.64733326990896245e-01
50 59 7.63709640593273842e-01
51 59 7.63709640593273842e-01
52 59 7.64733326990896245e-01
53 59 7.66780699786140718e-01
54 59 7.69851758979007261e-01
55 59 7.73946504569495985e-01
56 59 7.79064936557607113e-01
57 59 7.85207054943340199e-01
58 59 7.92372859726695689e-01
59 59 8.00562350907673359e-01
60 59 8.09775528486272989e-01
61 59 8.20012392462495021e-01
62 59 8.31272942836339346e-01
63 59 8.43557179607805740e-01
64 59 8.56865102776894316e-01
65 59 8.71196712343604851e-01
66 59 8.86552008307938011e-01
67 59 8.94741499488915792e-01
68 59 8.86552008307938233e-01
69 59 8.71196712343605073e-01
70 59 8.56865102776894427e-01
71 59 8.43557179607805963e-01
72 59 8.31272942836339457e-01
73 59 8.20012392462495021e-01
74 59 8.09775528486272989e-01
75 59 8.00562350907673470e-01
76 59 7.92372859726695800e-01
77 59 7.85207054943340199e-01
78 59 7.79064936557607113e-01
79 59 7.73946504569495985e-01
80 59 7.69851758979007261e-01
81 59 7.66780699786140829e-01
82 59 7.64733326990896245e-01
83 59 7.63709640593273842e-01
84 59 7.63709640593273842e-01
85 59 7.64733326990896245e-01
86 59 7.66780699786140718e-01
87 59 7.69851758979007261e-01
88 59 7.73946504569495985e-01
89 59 7.79064936557607113e-01
90 59 7.85207054943340199e-01
91 59 7.92372859726695689e-01
92 59 8.00562350907673359e-01
93 59 8.09775528486272989e-01
94 59 8.20012392462495021e-01
95 59 8.31272942836339346e-01
96 59 8.43557179607805740e-01
97 59 8.56865102776894316e-01
98 59 8.71196712343604851e-01
99 59 8.86552008307938011e-01
100 59 8.94741499488915792e-01
101 59 8.86552008307938233e-01
102 59 8.71196712343605073e-01
103 59 8.56865102776894427e-01
104 59 8.43557179607805963e-01
105 59 8.31272942836339457e-01
106 59 8.20012392462495021e-01
107 59 8.09775528486272989e-01
108 59 8.00562350907673470e-01
109 59 7.92372859726695800e-01
110 59 7.85207054943340199e-01
111 59 7.79064936557607113e-01
112 59 7.73946504569495985e-01
113 59 7.69851758979007261e-01
114 59 7.66780699786140829e-01
115 59 7.64733326990896245e-01
116 59 7.63709640593273842e-01
117 59 7.63709640593273842e-01
118 59 7.64733326990896245e-01
119 59 7.66780699786140718e-01
120 59 7.69851758979007261e-01
121 59 7.73946504569495985e-01
122 59 7.79064936557607113e-01
123 59 7.85207054943340199e-01
124 59 7.92372859726695689e-01
125 59 8.00562350907673359e-01
126 59 8.09775528486272989e-01
127 59 8.20012392462495021e-01
128 59 8.31272942836339346e-01
129 59 8.43557179607805740e-01
130 59 8.56865102776894316e-01
131 59 8.71196712343604851e-01
132 59 8.86552008307938011e-01
133 59 8.94741499488915792e-01
1 60 9.05038526712826141e-01
2 60 8.96754787736604220e-01
3 60 8.81222777156187798e-01
4 60 8.66726233947799352e-01
5 60 8.53265158111438882e-01
6 60 8.40839549647105722e-01
7 60 8.29449408554800316e-01
8 60 8.19094734834522664e-01
9 60 8.09775528486273322e-01
10 60 8.01491789510051178e-01
11 60 7.94243517905856788e-01
12 60 7.88030713673690375e-01
13 60 7.82853376813551494e-01
14 60 7.78711507325440588e-01
15 60 7.75605105209357437e-01
16 60 7.73534170465301818e-01
17 60 7.72498703093273842e-01
18 60 7.72498703093273842e-01
19 60 7.73534170465301818e-01
20 60 7.75605105209357326e-01
21 60 7.78711507325440588e-01
22 60 7.82853376813551494e-01
23 60 7.88030713673690375e-01
24 60 7.94243517905856788e-01
25 60 8.01491789510051067e-01
26 60 8.09775528486273211e-01
27 60 8.19094734834522664e-01
28 60 8.29449408554800316e-01
29 60 8.40839549647105722e-01
30 60 8.53265158111438660e-01
31 60 8.66726233947799241e-01
32 60 8.81222777156187576e-01
33 60 8.96754787736603998e-01
34 60 9.05038526712826141e-01
35 60 8.96754787736604220e-01
36 60 8.81222777156187798e-01
37 60 8.66726233947799352e-01
38 60 8.53265158111438882e-01
39 60 8.40839549647105722e-01
40 60 8.29449408554800316e-01
41 60 8.19094734834522664e-01
42 60 8.09775528486273322e-01
43 60 8.01491789510051178e-01
44 60 7.94243517905856788e-01
45 60 7.88030713673690375e-01
46 60 7.82853376813551494e-01
47 60 7.78711507325440588e-01
48 60 7.75605105209357437e-01
49 60 7.73534170465301818e-01
50 60 7.72498703093273842e-01
51 60 7.72498703093273842e-01
52 60 7.73534170465301818e-01
53 60 7.75605105209357326e-01
54 60 7.78711507325440588e-01
55 60 7.82853376813551494e-01
56 60 7.88030713673690375e-01
57 60 7.94243517905856788e-01
58 60 8.01491789510051067e-01
59 60 8.09775528486273211e-01
60 60 8.19094734834522664e-01
61 60 8.29449408554800316e-01
62 60 8.40839549647105722e-01
63 60 8.53265158111438660e-01
64 60 8.66726233947799241e-01
65 60 8.81222777156187576e-01
66 60 8.96754787736603998e-01
67 60 9.05038526712826141e-01
68 60 8.96754787736604220e-01
69 60 8.81222777156187798e-01
70 60 8.66726233947799352e-01
71 60 8.53265158111438882e-01
72 60 8.40839549647105722e-01
73 60 8.29449408554800316e-01
74 60 8.19094734834522664e-01
75 60 8.09775528486273322e-01
76 60 8.01491789510051178e-01
77 60 7.94243517905856788e-01
78 60 7.88030713673690375e-01
79 60 7.82853376813551494e-01
80 60 7.78711507325440588e-01
81 60 7.75605105209357437e-01
82 60 7.73534170465301818e-01
83 60 7.72498703093273842e-01
84 60 7.72498703093273842e-01
85 60 7.73534170465301818e-01
86 60 7.75605105209357326e-01
87 60 7.78711507325440588e-01
88 60 7.82853376813551494e-01
89 60 7.88030713673690375e-01
90 60 7.94243517905856788e-01
91 60 8.01491789510051067e-01
92 60 8.09775528486273211e-01
93 60 8.19094734834522664e-01
94 60 8.29449408554800316e-01
95 60 8.40839549647105722e-01
96 60 8.53265158111438660e-01
97 60 8.66726233947799241e-01
98 60 8.81222777156187576e-01
99 60 8.96754787736603998e-01
100 60 9.05038526712826141e-01
101 60 8.96754787736604220e-01
102 60 8.81222777156187798e-01
103 60 8.66726233947799352e-01
104 60 8.53265158111438882e-01
105 60 8.40839549647105722e-01
106 60 8.29449408554800316e-01
107 60 8.19094734834522664e-01
108 60 8.09775528486273322e-01
109 60 8.01491789510051178e-01
110 60 7.94243517905856788e-01
111 60 7.88030713673690375e-01
112 60 7.82853376813551494e-01
113 60 7.78711507325440588e-01
114 60 7.75605105209357437e-01
115 60 7.73534170465301818e-01
116 60 7.72498703093273842e-01
117 60 7.72498703093273842e-01
118 60 7.73534170465301818e-01
119 60 7.75605105209357326e-01
120 60 7.78711507325440588e-01
121 60 7.82853376813551494e-01
122 60 7.88030713673690375e-01
123 60 7.94243517905856788e-01
124 60 8.01491789510051067e-01
125 60 8.09775528486273211e-01
126 60 8.19094734834522664e-01
127 60 8.29449408554800316e-01
128 60 8.40839549647105722e-01
129 60 8.53265158111438660e-01
130 60 8.66726233947799241e-01
131 60 8.81222777156187576e-01
132 60 8.96754787736603998e-01
133 60 9.05038526712826141e-01
1 61 9.16479668072726628e-01
2 61 9.08091209324010884e-01
3 61 8.92362849170168726e-01
4 61 8.77683046359916119e-01
5 61 8.64051800893253175e-01
6 61 8.51469112770179448e-01
7 61 8.39934981990694940e-01
8 61 8.29449408554800205e-01
9 61 8.20012392462495243e-01
10 61 8.11623933713779389e-01
11 61 8.04284032308652974e-01
12 61 7.97992688247116222e-01
13 61 7.92749901529168799e-01
14 61 7.88555672154810927e-01
15 61 7.85410000124042607e-01
16 61 7.83312885436863504e-01
17 61 7.82264328093273842e-01
18 61 7.82264328093273842e-01
19 61 7.83312885436863504e-01
20 61 7.85410000124042496e-01
21 61 7.88555672154810927e-01
22 61 7.92749901529168799e-01
23 61 7.97992688247116111e-01
24 61 8.04284032308652974e-01
25 61 8.11623933713779278e-01
26 61 8.20012392462495243e-01
27 61 8.29449408554800205e-01
28 61 8.39934981990695051e-01
29 61 8.51469112770179448e-01
30 61 8.64051800893252953e-01
31 61 8.77683046359915897e-01
32 61 8.92362849170168504e-01
33 61 9.08091209324010662e-01
34 61 9.16479668072726628e-01
35 61 9.08091209324010884e-01
36 61 8.92362849170168726e-01
37 61 8.77683046359916119e-01
38 61 8.64051800893253175e-01
39 61 8.51469112770179448e-01
40 61 8.39934981990694940e-01
41 61 8.29449408554800205e-01
42 61 8.20012392462495243e-01
43 61 8.11623933713779389e-01
44 61 8.04284032308652974e-01
45 61 7.97992688247116222e-01
46 61 7.92749901529168799e-01
47 61 7.88555672154810927e-01
48 61 7.85410000124042607e-01
49 61 7.83312885436863504e-01
50 61 7.82264328093273842e-01
51 61 7.82264328093273842e-01
52 61 7.83312885436863504e-01
53 61 7.85410000124042496e-01
54 61 7.88555672154810927e-01
55 61 7.92749901529168799e-01
56 61 7.97992688247116111e-01
57 61 8.04284032308652974e-01
58 61 8.11623933713779278e-01
59 61 8.20012392462495243e-01
60 61 8.29449408554800205e-01
61 61 8.39934981990695051e-01
62 61 8.51469112770179448e-01
63 61 8.64051800893252953e-01
64 61 8.77683046359915897e-01
65 61 8.92362849170168504e-01
66 61 9.08091209324010662e-01
67 61 9.16479668072726628e-01
68 61 9.08091209324010884e-01
69 61 8.92362849170168726e-01
70 61 8.77683046359916119e-01
71 61 8.64051800893253175e-01
72 61 8.51469112770179448e-01
73 61 8.39934981990694940e-01
74 61 8.29449408554800205e-01
75 61 8.20012392462495243e-01
76 61 8.11623933713779389e-01
77 61 8.04284032308652974e-01
78 61 7.97992688247116222e-01
79 61 7.92749901529168799e-01
80 61 7.88555672154810927e-01
81 61 7.85410000124042607e-01
82 61 7.83312885436863504e-01
83 61 7.82264328093273842e-01
84 61 7.82264328093273842e-01
85 61 7.83312885436863504e-01
86 61 7.85410000124042496e-01
87 61 7.88555672154810927e-01
88 61 7.92749901529168799e-01
89 61 7.97992688247116111e-01
90 61 8.04284032308652974e-01
91 61 8.11623933713779278e-01
92 61 8.20012392462495243e-01
93 61 8.29449408554800205e-01
94 61 8.39934981990695051e-01
95 61 8.51469112770179448e-01
96 61 8.64051800893252953e-01
97 61 8.77683046359915897e-01
98 61 8.92362849170168504e-01
99 61 9.08091209324010662e-01
100 61 9.16479668072726628e-01
101 61 9.08091209324010884e-01
102 61 8.92362849170168726e-01
103 61 8.77683046359916119e-01
104 61 8.64051800893253175e-01
105 61 8.51469112770179448e-01
106 61 8.39934981990694940e-01
107 61 8.29449408554800205e-01
108 61 8.20012392462495243e-01
109 61 8.11623933713779389e-01
110 61 8.04284032308652974e-01
111 61 7.97992688247116222e-01
112 61 7.92749901529168799e-01
113 61 7.88555672154810927e-01
114 61 7.85410000124042607e-01
115 61 7.83312885436863504e-01
116 61 7.82264328093273842e-01
117 61 7.82264328093273842e-01
118 61 7.83312885436863504e-01
119 61 7.85410000124042496e-01
120 61 7.88555672154810927e-01
121 61 7.92749901529168799e-01
122 61 7.97992688247116111e-01
123 61 8.04284032308652974e-01
124 61 8.11623933713779278e-01
125 61 8.20012392462495243e-01
126 61 8.29449408554800205e-01
127 61 8.39934981990695051e-01
128 61 8.51469112770179448e-01
129 61 8.64051800893252953e-01
130 61 8.77683046359915897e-01
131 61 8.92362849170168504e-01
132 61 9.08091209324010662e-01
133 61 9.16479668072726628e-01
1 62 9.29064923568617140e-01
2 62 9.20561273070158226e-01
3 62 9.04616928385547636e-01
4 62 8.89735540013244397e-01
5 62 8.75917107953248841e-01
6 62 8.63161632205560414e-01
7 62 8.51469112770179115e-01
8 62 8.40839549647105500e-01
9 62 8.31272942836339457e-01
10 62 8.22769292337880431e-01
11 62 8.15328598151728756e-01
12 62 8.08950860277884543e-01
13 62 8.03636078716347790e-01
14 62 7.99384253467118167e-01
15 62 7.96195384530196226e-01
16 62 7.94069471905581414e-01
17 62 7.93006515593273842e-01
18 62 7.93006515593273842e-01
19 62 7.94069471905581414e-01
20 62 7.96195384530196115e-01
21 62 7.99384253467118167e-01
22 62 8.03636078716347790e-01
23 62 8.08950860277884543e-01
24 62 8.15328598151728756e-01
25 62 8.22769292337880320e-01
26 62 8.31272942836339457e-01
27 62 8.40839549647105500e-01
28 62 8.51469112770179226e-01
29 62 8.63161632205560414e-01
30 62 8.75917107953248619e-01
31 62 8.89735540013244286e-01
32 62 9.04616928385547525e-01
33 62 9.20561273070158004e-01
34 62 9.29064923568617140e-01
35 62 9.20561273070158226e-01
36 62 9.04616928385547636e-01
37 62 8.89735540013244397e-01
38 62 8.75917107953248841e-01
39 62 8.63161632205560414e-01
40 62 8.51469112770179115e-01
41 62 8.40839549647105500e-01
42 62 8.31272942836339457e-01
43 62 8.22769292337880431e-01
44 62 8.15328598151728756e-01
45 62 8.08950860277884543e-01
46 62 8.03636078716347790e-01
47 62 7.99384253467118167e-01
48 62 7.96195384530196226e-01
49 62 7.94069471905581414e-01
50 62 7.93006515593273842e-01
51 62 7.93006515593273842e-01
52 62 7.94069471905581414e-01
53 62 7.96195384530196115e-01
54 62 7.99384253467118167e-01
55 62 8.03636078716347790e-01
56 62 8.08950860277884543e-01
57 62 8.15328598151728756e-01
58 62 8.22769292337880320e-01
59 62 8.31272942836339457e-01
60 62 8.40839549647105500e-01
61 62 8.51469112770179226e-01
62 62 8.63161632205560414e-01
63 62 8.75917107953248619e-01
64 62 8.89735540013244286e-01
65 62 9.04616928385547525e-01
66 62 9.20561273070158004e-01
67 62 9.29064923568617140e-01
68 62 9.20561273070158226e-01
69 62 9.04616928385547636e-01
70 62 8.89735540013244397e-01
71 62 8.75917107953248841e-01
72 62 8.63161632205560414e-01
73 62 8.51469112770179115e-01
74 62 8.40839549647105500e-01
75 62 8.31272942836339457e-01
76 62 8.22769292337880431e-01
77 62 8.15328598151728756e-01
78 62 8.08950860277884543e-01
79 62 8.03636078716347790e-01
80 62 7.99384253467118167e-01
81 62 7.96195384530196226e-01
82 62 7.94069471905581414e-01
83 62 7.93006515593273842e-01
84 62 7.93006515593273842e-01
85 62 7.94069471905581414e-01
86 62 7.96195384530196115e-01
87 62 7.99384253467118167e-01
88 62 8.03636078716347790e-01
89 62 8.08950860277884543e-01
90 62 8.15328598151728756e-01
91 62 8.22769292337880320e-01
92 62 8.31272942836339457e-01
93 62 8.40839549647105500e-01
94 62 8.51469112770179226e-01
95 62 8.63161632205560414e-01
96 62 8.75917107953248619e-01
97 62 8.89735540013244286e-01
98 62 9.04616928385547525e-01
99 62 9.20561273070158004e-01
100 62 9.29064923568617140e-01
101 62 9.20561273070158226e-01
102 62 9.04616928385547636e-01
103 62 8.89735540013244397e-01
104 62 8.75917107953248841e-01
105 62 8.63161632205560414e-01
106 62 8.51469112770179115e-01
107 62 8.40839549647105500e-01
108 62 8.31272942836339457e-01
109 62 8.22769292337880431e-01
110 62 8.15328598151728756e-01
111 62 8.08950860277884543e-01
112 62 8.03636078716347790e-01
113 62 7.99384253467118167e-01
114 62 7.96195384530196226e-01
115 62 7.94069471905581414e-01
116 62 7.93006515593273842e-01
117 62 7.93006515593273842e-01
118 62 7.94069471905581414e-01
119 62 7.96195384530196115e-01
120 62 7.99384253467118167e-01
121 62 8.03636078716347790e-01
122 62 8.08950860277884543e-01
123 62 8.15328598151728756e-01
124 62 8.22769292337880320e-01
125 62 8.31272942836339457e-01
126 62 8.40839549647105500e-01
127 62 8.51469112770179226e-01
128 62 8.63161632205560414e-01
129 62 8.75917107953248619e-01
130 62 8.89735540013244286e-01
131 62 9.04616928385547525e-01
132 62 9.20561273070158004e-01
133 62 9.29064923568617140e-01
1 63 9.42794293200497679e-01
2 63 9.34164978975046245e-01
3 63 9.17985014802324750e-01
4 63 9.02883714907784518e-01
5 63 8.88861079291426104e-01
6 63 8.75917107953248841e-01
7 63 8.64051800893252842e-01
8 63 8.53265158111438549e-01
9 63 8.43557179607805852e-01
10 63 8.34927865382354306e-01
11 63 8.27377215435084135e-01
12 63 8.20905229765995559e-01
13 63 8.15511908375088468e-01
14 63 8.11197251262362640e-01
15 63 8.07961258427818518e-01
16 63 8.05803929871455549e-01
17 63 8.04725265593273953e-01
18 63 8.04725265593273953e-01
19 63 8.05803929871455549e-01
20 63 8.07961258427818407e-01
21 63 8.11197251262362640e-01
22 63 8.15511908375088468e-01
23 63 8.20905229765995559e-01
24 63 8.27377215435084135e-01
25 63 8.34927865382354306e-01
26 63 8.43557179607805963e-01
27 63 8.53265158111438549e-01
28 63 8.64051800893252953e-01
29 63 8.75917107953248841e-01
30 63 8.88861079291425882e-01
31 63 9.02883714907784407e-01
32 63 9.17985014802324528e-01
33 63 9.34164978975046023e-01
34 63 9.42794293200497679e-01
35 63 9.34164978975046245e-01
36 63 9.17985014802324750e-01
37 63 9.02883714907784518e-01
38 63 8.88861079291426104e-01
39 63 8.75917107953248841e-01
40 63 8.64051800893252842e-01
41 63 8.53265158111438549e-01
42 63 8.43557179607805852e-01
43 63 8.34927865382354306e-01
44 63 8.27377215435084135e-01
45 63 8.20905229765995559e-01
46 63 8.15511908375088468e-01
47 63 8.11197251262362640e-01
48 63 8.07961258427818518e-01
49 63 8.05803929871455549e-01
50 63 8.04725265593273953e-01
51 63 8.04725265593273953e-01
52 63 8.05803929871455549e-01
53 63 8.07961258427818407e-01
54 63 8.11197251262362640e-01
55 63 8.15511908375088468e-01
56 63 8.20905229765995559e-01
57 63 8.27377215435084135e-01
58 63 8.34927865382354306e-01
59 63 8.43557179607805963e-01
60 63 8.53265158111438549e-01
61 63 8.64051800893252953e-01
62 63 8.75917107953248841e-01
63 63 8.88861079291425882e-01
64 63 9.02883714907784407e-01
65 63 9.17985014802324528e-01
66 63 9.34164978975046023e-01
67 63 9.42794293200497679e-01
68 63 9.34164978975046245e-01
69 63 9.17985014802324750e-01
70 63 9.02883714907784518e-01
71 63 8.88861079291426104e-01
72 63 8.75917107953248841e-01
73 63 8.64051800893252842e-01
74 63 8.53265158111438549e-01
75 63 8.43557179607805852e-01
76 63 8.34927865382354306e-01
77 63 8.27377215435084135e-01
78 63 8.20905229765995559e-01
79 63 8.15511908375088468e-01
80 63 8.11197251262362640e-01
81 63 8.07961258427818518e-01
82 63 8.05803929871455549e-01
83 63 8.04725265593273953e-01
84 63 8.04725265593273953e-01
85 63 8.05803929871455549e-01
86 63 8.07961258427818407e-01
87 63 8.11197251262362640e-01
88 63 8.15511908375088468e-01
89 63 8.20905229765995559e-01
90 63 8.27377215435084135e-01
91 63 8.34927865382354306e-01
92 63 8.43557179607805963e-01
93 63 8.53265158111438549e-01
94 63 8.64051800893252953e-01
95 63 8.75917107953248841e-01
96 63 8.88861079291425882e-01
97 63 9.02883714907784407e-01
98 63 9.17985014802324528e-01
99 63 9.34164978975046023e-01
100 63 9.42794293200497679e-01
101 63 9.34164978975046245e-01
102 63 9.17985014802324750e-01
103 63 9.02883714907784518e-01
104 63 8.88861079291426104e-01
105 63 8.75917107953248841e-01
106 63 8.64051800893252842e-01
107 63 8.53265158111438549e-01
108 63 8.43557179607805852e-01
109 63 8.34927865382354306e-01
110 63 8.27377215435084135e-01
111 63 8.20905229765995559e-01
112 63 8.15511908375088468e-01
113 63 8.11197251262362640e-01
114 63 8.07961258427818518e-01
115 63 8.05803929871455549e-01
116 63 8.04725265593273953e-01
117 63 8.04725265593273953e-01
118 63 8.05803929871455549e-01
119 63 8.07961258427818407e-01
120 63 8.11197251262362640e-01
121 63 8.15511908375088468e-01
122 63 8.20905229765995559e-01
123 63 8.27377215435084135e-01
124 63 8.34927865382354306e-01
125 63 8.43557179607805963e-01
126 63 8.53265158111438549e-01
127 63 8.64051800893252953e-01
128 63 8.75917107953248841e-01
129 63 8.88861079291425882e-01
130 63 9.02883714907784407e-01
131 63 9.17985014802324528e-01
132 63 9.34164978975046023e-01
133 63 9.42794293200497679e-01
1 64 9.57667776968368245e-01
2 64 9.48902327038674942e-01
3 64 9.32467108420499846e-01
4 64 9.17127571043536260e-01
5 64 9.02883714907784740e-01
6 64 8.89735540013244619e-01
7 64 8.77683046359916008e-01
8 64 8.66726233947799241e-01
9 64 8.56865102776894427e-01
10 64 8.48099652847201013e-01
11 64 8.40429884158719220e-01
12 64 8.33855796711449160e-01
13 64 8.28377390505390832e-01
14 64 8.23994665540544013e-01
15 64 8.20707621816909150e-01
16 64 8.18516259334485796e-01
17 64 8.17420578093273953e-01
18 64 8.17420578093273953e-01
19 64 8.18516259334485796e-01
20 64 8.20707621816909150e-01
21 64 8.23994665540544013e-01
22 64 8.28377390505390832e-01
23 64 8.33855796711449160e-01
24 64 8.40429884158719220e-01
25 64 8.48099652847201013e-01
26 64 8.56865102776894538e-01
27 64 8.66726233947799352e-01
28 64 8.77683046359916119e-01
29 64 8.89735540013244619e-01
30 64 9.02883714907784629e-01
31 64 9.17127571043536149e-01
32 64 9.32467108420499624e-01
33 64 9.48902327038674720e-01
34 64 9.57667776968368245e-01
35 64 9.48902327038674942e-01
36 64 9.32467108420499846e-01
37 64 9.17127571043536260e-01
38 64 9.02883714907784740e-01
39 64 8.89735540013244619e-01
40 64 8.77683046359916008e-01
41 64 8.66726233947799241e-01
42 64 8.56865102776894427e-01
43 64 8.48099652847201013e-01
44 64 8.40429884158719220e-01
45 64 8.33855796711449160e-01
46 64 8.28377390505390832e-01
47 64 8.23994665540544013e-01
48 64 8.20707621816909150e-01
49 64 8.18516259334485796e-01
50 64 8.17420578093273953e-01
51 64 8.17420578093273953e-01
52 64 8.18516259334485796e-01
53 64 8.20707621816909150e-01
54 64 8.23994665540544013e-01
55 64 8.28377390505390832e-01
56 64 8.33855796711449160e-01
57 64 8.40429884158719220e-01
58 64 8.48099652847201013e-01
59 64 8.56865102776894538e-01
60 64 8.66726233947799352e-01
61 64 8.77683046359916119e-01
62 64 8.89735540013244619e-01
63 64 9.02883714907784629e-01
64 64 9.17127571043536149e-01
65 64 9.32467108420499624e-01
66 64 9.48902327038674720e-01
67 64 9.57667776968368245e-01
68 64 9.48902327038674942e-01
69 64 9.32467108420499846e-01
70 64 9.17127571043536260e-01
71 64 9.02883714907784740e-01
72 64 8.89735540013244619e-01
73 64 8.77683046359916008e-01
74 64 8.66726233947799241e-01
75 64 8.56865102776894427e-01
76 64 8.48099652847201013e-01
77 64 8.40429884158719220e-01
78 64 8.33855796711449160e-01
79 64 8.28377390505390832e-01
80 64 8.23994665540544013e-01
81 64 8.20707621816909150e-01
82 64 8.18516259334485796e-01
83 64 8.17420578093273953e-01
84 64 8.17420578093273953e-01
85 64 8.18516259334485796e-01
86 64 8.20707621816909150e-01
87 64 8.23994665540544013e-01
88 64 8.28377390505390832e-01
89 64 8.33855796711449160e-01
90 64 8.40429884158719220e-01
91 64 8.48099652847201013e-01
92 64 8.56865102776894538e-01
93 64 8.66726233947799352e-01
94 64 8.77683046359916119e-01
95 64 8.89735540013244619e-01
96 64 9.02883714907784629e-01
97 64 9.17127571043536149e-01
98 64 9.32467108420499624e-01
99 64 9.48902327038674720e-01
100 64 9.57667776968368245e-01
101 64 9.48902327038674942e-01
102 64 9.32467108420499846e-01
103 64 9.17127571043536260e-01
104 64 9.02883714907784740e-01
105 64 8.89735540013244619e-01
106 64 8.77683046359916008e-01
107 64 8.66726233947799241e-01
108 64 8.56865102776894427e-01
109 64 8.48099652847201013e-01
110 64 8.40429884158719220e-01
111 64 8.33855796711449160e-01
112 64 8.28377390505390832e-01
113 64 8.23994665540544013e-01
114 64 8.20707621816909150e-01
115 64 8.18516259334485796e-01
116 64 8.17420578093273953e-01
117 64 8.17420578093273953e-01
118 64 8.18516259334485796e-01
119 64 8.20707621816909150e-01
120 64 8.23994665540544013e-01
121 64 8.28377390505390832e-01
122 64 8.33855796711449160e-01
123 64 8.40429884158719220e-01
124 64 8.48099652847201013e-01
125 64 8.56865102776894538e-01
126 64 8.66726233947799352e-01
127 64 8.77683046359916119e-01
128 64 8.89735540013244619e-01
129 64 9.02883714907784629e-01
130 64 9.17127571043536149e-01
131 64 9.32467108420499624e-01
132 64 9.48902327038674720e-01
133 64 9.57667776968368245e-01
1 65 9.73685374872228837e-01
2 65 9.64773317261044316e-01
3 65 9.48063209240073035e-01
4 65 9.32467108420499735e-01
5 65 9.17985014802324750e-01
6 65 9.04616928385547747e-01
7 65 8.92362849170168615e-01
8 65 8.81222777156187687e-01
9 65 8.71196712343605184e-01
10 65 8.62284654732420552e-01
11 65 8.54486604322633791e-01
12 65 8.47802561114245345e-01
13 65 8.42232525107254881e-01
14 65 8.37776496301662510e-01
15 65 8.34434474697468342e-01
16 65 8.32206460294672157e-01
17 65 8.31092453093273953e-01
18 65 8.31092453093273953e-01
19 65 8.32206460294672268e-01
20 65 8.34434474697468342e-01
21 65 8.37776496301662510e-01
22 65 8.42232525107254881e-01
23 65 8.47802561114245345e-01
24 65 8.54486604322633791e-01
25 65 8.62284654732420552e-01
26 65 8.71196712343605295e-01
27 65 8.81222777156187798e-01
28 65 8.92362849170168726e-01
29 65 9.04616928385547747e-01
30 65 9.17985014802324750e-01
31 65 9.32467108420499624e-01
32 65 9.48063209240072813e-01
33 65 9.64773317261044094e-01
34 65 9.73685374872228837e-01
35 65 9.64773317261044316e-01
36 65 9.48063209240073035e-01
37 65 9.32467108420499735e-01
38 65 9.17985014802324750e-01
39 65 9.04616928385547747e-01
40 65 8.92362849170168615e-01
41 65 8.81222777156187687e-01
42 65 8.71196712343605184e-01
43 65 8.62284654732420552e-01
44 65 8.54486604322633791e-01
45 65 8.47802561114245345e-01
46 65 8.42232525107254881e-01
47 65 8.37776496301662510e-01
48 65 8.34434474697468342e-01
49 65 8.32206460294672157e-01
50 65 8.31092453093273953e-01
51 65 8.31092453093273953e-01
52 65 8.32206460294672268e-01
53 65 8.34434474697468342e-01
54 65 8.37776496301662510e-01
55 65 8.42232525107254881e-01
56 65 8.47802561114245345e-01
57 65 8.54486604322633791e-01
58 65 8.62284654732420552e-01
59 65 8.71196712343605295e-01
60 65 8.81222777156187798e-01
61 65 8.92362849170168726e-01
62 65 9.04616928385547747e-01
63 65 9.17985014802324750e-01
64 65 9.32467108420499624e-01
65 65 9.48063209240072813e-01
66 65 9.64773317261044094e-01
67 65 9.73685374872228837e-01
68 65 9.64773317261044316e-01
69 65 9.48063209240073035e-01
70 65 9.32467108420499735e-01
71 65 9.17985014802324750e-01
72 65 9.04616928385547747e-01
73 65 8.92362849170168615e-01
74 65 8.81222777156187687e-01
75 65 8.71196712343605184e-01
76 65 8.62284654732420552e-01
77 65 8.54486604322633791e-01
78 65 8.47802561114245345e-01
79 65 8.42232525107254881e-01
80 65 8.37776496301662510e-01
81 65 8.34434474697468342e-01
82 65 8.32206460294672157e-01
83 65 8.31092453093273953e-01
84 65 8.31092453093273953e-01
85 65 8.32206460294672268e-01
86 65 8.34434474697468342e-01
87 65 8.37776496301662510e-01
88 65 8.42232525107254881e-01
89 65 8.47802561114245345e-01
90 65 8.54486604322633791e-01
91 65 8.62284654732420552e-01
92 65 8.71196712343605295e-01
93 65 8.81222777156187798e-01
94 65 8.92362849170168726e-01
95 65 9.04616928385547747e-01
96 65 9.17985014802324750e-01
97 65 9.32467108420499624e-01
98 65 9.48063209240072813e-01
99 65 9.64773317261044094e-01
100 65 9.73685374872228837e-01
101 65 9.64773317261044316e-01
102 65 9.48063209240073035e-01
103 65 9.32467108420499735e-01
104 65 9.17985014802324750e-01
105 65 9.04616928385547747e-01
106 65 8.92362849170168615e-01
107 65 8.81222777156187687e-01
108 65 8.71196712343605184e-01
109 65 8.62284654732420552e-01
110 65 8.54486604322633791e-01
111 65 8.47802561114245345e-01
112 65 8.42232525107254881e-01
113 65 8.37776496301662510e-01
114 65 8.34434474697468342e-01
115 65 8.32206460294672157e-01
116 65 8.31092453093273953e-01
117 65 8.31092453093273953e-01
118 65 8.32206460294672268e-01
119 65 8.34434474697468342e-01
120 65 8.37776496301662510e-01
121 65 8.42232525107254881e-01
122 65 8.47802561114245345e-01
123 65 8.54486604322633791e-01
124 65 8.62284654732420552e-01
125 65 8.71196712343605295e-01
126 65 8.81222777156187798e-01
127 65 8.92362849170168726e-01
128 65 9.04616928385547747e-01
129 65 9.17985014802324750e-01
130 65 9.32467108420499624e-01
131 65 9.48063209240072813e-01
132 65 9.64773317261044094e-01
133 65 9.73685374872228837e-01
1 66 9.90847086912079567e-01
2 66 9.81777949642154368e-01
3 66 9.64773317261044427e-01
4 66 9.48902327038674942e-01
5 66 9.34164978975046245e-01
6 66 9.20561273070158226e-01
7 66 9.08091209324010773e-01
8 66 8.96754787736603998e-01
9 66 8.86552008307938122e-01
10 66 8.77482871038012813e-01
11 66 8.69547375926828070e-01
12 66 8.62745522974384116e-01
13 66 8.57077312180680617e-01
14 66 8.52542743545718018e-01
15 66 8.49141817069496097e-01
16 66 8.46874532752014741e-01
17 66 8.45740890593274064e-01
18 66 8.45740890593274064e-01
19 66 8.46874532752014852e-01
20 66 8.49141817069496097e-01
21 66 8.52542743545718018e-01
22 66 8.57077312180680728e-01
23 66 8.62745522974384116e-01
24 66 8.69547375926828070e-01
25 66 8.77482871038012813e-01
26 66 8.86552008307938233e-01
27 66 8.96754787736604109e-01
28 66 9.08091209324010884e-01
29 66 9.20561273070158226e-01
30 66 9.34164978975046245e-01
31 66 9.48902327038674831e-01
32 66 9.64773317261044094e-01
33 66 9.81777949642154146e-01
34 66 9.90847086912079567e-01
35 66 9.81777949642154368e-01
36 66 9.64773317261044427e-01
37 66 9.48902327038674942e-01
38 66 9.34164978975046245e-01
39 66 9.20561273070158226e-01
40 66 9.08091209324010773e-01
41 66 8.96754787736603998e-01
42 66 8.86552008307938122e-01
43 66 8.77482871038012813e-01
44 66 8.69547375926828070e-01
45 66 8.62745522974384116e-01
46 66 8.57077312180680617e-01
47 66 8.52542743545718018e-01
48 66 8.49141817069496097e-01
49 66 8.46874532752014741e-01
50 66 8.45740890593274064e-01
51 66 8.45740890593274064e-01
52 66 8.46874532752014852e-01
53 66 8.49141817069496097e-01
54 66 8.52542743545718018e-01
55 66 8.57077312180680728e-01
56 66 8.62745522974384116e-01
57 66 8.69547375926828070e-01
58 66 8.77482871038012813e-01
59 66 8.86552008307938233e-01
60 66 8.96754787736604109e-01
61 66 9.08091209324010884e-01
62 66 9.20561273070158226e-01
63 66 9.34164978975046245e-01
64 66 9.48902327038674831e-01
65 66 9.64773317261044094e-01
66 66 9.81777949642154146e-01
67 66 9.90847086912079567e-01
68 66 9.81777949642154368e-01
69 66 9.64773317261044427e-01
70 66 9.48902327038674942e-01
71 66 9.34164978975046245e-01
72 66 9.20561273070158226e-01
73 66 9.08091209324010773e-01
74 66 8.96754787736603998e-01
75 66 8.86552008307938122e-01
76 66 8.77482871038012813e-01
77 66 8.69547375926828070e-01
78 66 8.62745522974384116e-01
79 66 8.57077312180680617e-01
80 66 8.52542743545718018e-01
81 66 8.49141817069496097e-01
82 66 8.46874532752014741e-01
83 66 8.45740890593274064e-01
84 66 8.45740890593274064e-01
85 66 8.46874532752014852e-01
86 66 8.49141817069496097e-01
87 66 8.52542743545718018e-01
88 66 8.57077312180680728e-01
89 66 8.62745522974384116e-01
90 66 8.69547375926828070e-01
91 66 8.77482871038012813e-01
92 66 8.86552008307938233e-01
93 66 8.96754787736604109e-01
94 66 9.08091209324010884e-01
95 66 9.20561273070158226e-01
96 66 9.34164978975046245e-01
97 66 9.48902327038674831e-01
98 66 9.64773317261044094e-01
99 66 9.81777949642154146e-01
100 66 9.90847086912079567e-01
101 66 9.81777949642154368e-01
102 66 9.64773317261044427e-01
103 66 9.48902327038674942e-01
104 66 9.34164978975046245e-01
105 66 9.20561273070158226e-01
106 66 9.08091209324010773e-01
107 66 8.96754787736603998e-01
108 66 8.86552008307938122e-01
109 66 8.77482871038012813e-01
110 66 8.69547375926828070e-01
111 66 8.62745522974384116e-01
112 66 8.57077312180680617e-01
113 66 8.52542743545718018e-01
114 66 8.49141817069496097e-01
115 66 8.46874532752014741e-01
116 66 8.45740890593274064e-01
117 66 8.45740890593274064e-01
118 66 8.46874532752014852e-01
119 66 8.49141817069496097e-01
120 66 8.52542743545718018e-01
121 66 8.57077312180680728e-01
122 66 8.62745522974384116e-01
123 66 8.69547375926828070e-01
124 66 8.77482871038012813e-01
125 66 8.86552008307938233e-01
126 66 8.96754787736604109e-01
127 66 9.08091209324010884e-01
128 66 9.20561273070158226e-01
129 66 9.34164978975046245e-01
130 66 9.48902327038674831e-01
131 66 9.64773317261044094e-01
132 66 9.81777949642154146e-01
133 66 9.90847086912079567e-01
1 67 1.00000000000000000e+00
2 67 9.90847086912079678e-01
3 67 9.73685374872229059e-01
4 67 9.57667776968368356e-01
5 67 9.42794293200497679e-01
6 67 9.29064923568617140e-01
7 67 9.16479668072726517e-01
8 67 9.05038526712826030e-01
9 67 8.94741499488915681e-01
10 67 8.85588586400995359e-01
11 67 8.77579787449064952e-01
12 67 8.70715102633124793e-01
13 67 8.64994531953174439e-01
14 67 8.60418075409214334e-01
15 67 8.56985733001244254e-01
16 67 8.54697504729264090e-01
17 67 8.53553390593274064e-01
18 67 8.53553390593274064e-01
19 67 8.54697504729264201e-01
20 67 8.56985733001244254e-01
21 67 8.60418075409214334e-01
22 67 8.64994531953174550e-01
23 67 8.70715102633124793e-01
24 67 8.77579787449065063e-01
25 67 8.85588586400995359e-01
26 67 8.94741499488915792e-01
27 67 9.05038526712826141e-01
28 67 9.16479668072726628e-01
29 67 9.29064923568617140e-01
30 67 9.42794293200497679e-01
31 67 9.57667776968368245e-01
32 67 9.73685374872228837e-01
33 67 9.90847086912079567e-01
34 67 1.00000000000000000e+00
35 67 9.90847086912079678e-01
36 67 9.73685374872229059e-01
37 67 9.57667776968368356e-01
38 67 9.42794293200497679e-01
39 67 9.29064923568617140e-01
40 67 9.16479668072726517e-01
41 67 9.05038526712826030e-01
42 67 8.94741499488915681e-01
43 67 8.85588586400995359e-01
44 67 8.77579787449064952e-01
45 67 8.70715102633124793e-01
46 67 8.64994531953174439e-01
47 67 8.60418075409214334e-01
48 67 8.56985733001244254e-01
49 67 8.54697504729264090e-01
50 67 8.53553390593274064e-01
51 67 8.53553390593274064e-01
52 67 8.54697504729264201e-01
53 67 8.56985733001244254e-01
54 67 8.60418075409214334e-01
55 67 8.64994531953174550e-01
56 67 8.70715102633124793e-01
57 67 8.77579787449065063e-01
58 67 8.85588586400995359e-01
59 67 8.94741499488915792e-01
60 67 9.05038526712826141e-01
61 67 9.16479668072726628e-01
62 67 9.29064923568617140e-01
63 67 9.42794293200497679e-01
64 67 9.57667776968368245e-01
65 67 9.73685374872228837e-01
66 67 9.90847086912079567e-01
67 67 1.00000000000000000e+00
68 67 9.90847086912079678e-01
69 67 9.73685374872229059e-01
70 67 9.57667776968368356e-01
71 67 9.42794293200497679e-01
72 67 9.29064923568617140e-01
73 67 9.16479668072726517e-01
74 67 9.05038526712826030e-01
75 67 8.94741499488915681e-01
76 67 8.85588586400995359e-01
77 67 8.77579787449064952e-01
78 67 8.70715102633124793e-01
79 67 8.64994531953174439e-01
80 67 8.60418075409214334e-01
81 67 8.56985733001244254e-01
82 67 8.54697504729264090e-01
83 67 8.53553390593274064e-01
84 67 8.53553390593274064e-01
85 67 8.54697504729264201e-01
86 67 8.56985733001244254e-01
87 67 8.60418075409214334e-01
88 67 8.64994531953174550e-01
89 67 8.70715102633124793e-01
90 67 8.77579787449065063e-01
91 67 8.85588586400995359e-01
92 67 8.94741499488915792e-01
93 67 9.05038526712826141e-01
94 67 9.16479668072726628e-01
95 67 9.29064923568617140e-01
96 67 9.42794293200497679e-01
97 67 9.57667776968368245e-01
98 67 9.73685374872228837e-01
99 67 9.90847086912079567e-01
100 67 1.00000000000000000e+00
101 67 9.90847086912079678e-01
102 67 9.73685374872229059e-01
103 67 9.57667776968368356e-01
104 67 9.42794293200497679e-01
105 67 9.29064923568617140e-01
106 67 9.16479668072726517e-01
107 67 9.05038526712826030e-01
108 67 8.94741499488915681e-01
109 67 8.85588586400995359e-01
110 67 8.77579787449064952e-01
111 67 8.70715102633124793e-01
112 67 8.64994531953174439e-01
113 67 8.60418075409214334e-01
114 67 8.56985733001244254e-01
115 67 8.54697504729264090e-01
116 67 8.53553390593274064e-01
117 67 8.53553390593274064e-01
118 67 8.54697504729264201e-01
119 67 8.56985733001244254e-01
120 67 8.60418075409214334e-01
121 67 8.64994531953174550e-01
122 67 8.70715102633124793e-01
123 67 8.77579787449065063e-01
124 67 8.85588586400995359e-01
125 67 8.94741499488915792e-01
126 67 9.05038526712826141e-01
127 67 9.16479668072726628e-01
128 67 9.29064923568617140e-01
129 67 9.42794293200497679e-01
130 67 9.57667776968368245e-01
131 67 9.73685374872228837e-01
132 67 9.90847086912079567e-01
133 67 1.00000000000000000e+00
1 68 9.90847086912079678e-01
2 68 9.81777949642154368e-01
3 68 9.64773317261044427e-01
4 68 9.48902327038675053e-01
5 68 9.34164978975046134e-01
6 68 9.20561273070158226e-01
7 68 9.08091209324010773e-01
8 68 8.96754787736603998e-01
9 68 8.86552008307938122e-01
10 68 8.77482871038012924e-01
11 68 8.69547375926828070e-01
12 68 8.62745522974384227e-01
13 68 8.57077312180680728e-01
14 68 8.52542743545718129e-01
15 68 8.49141817069496208e-01
16 68 8.46874532752014852e-01
17 68 8.45740890593274175e-01
18 68 8.45740890593274175e-01
19 68 8.46874532752014852e-01
20 68 8.49141817069496208e-01
21 68 8.52542743545718129e-01
22 68 8.57077312180680950e-01
23 68 8.62745522974384227e-01
24 68 8.69547375926828181e-01
25 68 8.77482871038012924e-01
26 68 8.86552008307938233e-01
27 68 8.96754787736604220e-01
28 68 9.08091209324010884e-01
29 68 9.20561273070158226e-01
30 68 9.34164978975046134e-01
31 68 9.48902327038674942e-01
32 68 9.64773317261044205e-01
33 68 9.81777949642154368e-01
34 68 9.90847086912079678e-01
35 68 9.81777949642154368e-01
36 68 9.64773317261044427e-01
37 68 9.48902327038675053e-01
38 68 9.34164978975046134e-01
39 68 9.20561273070158226e-01
40 68 9.08091209324010773e-01
41 68 8.96754787736603998e-01
42 68 8.86552008307938122e-01
43 68 8.77482871038012924e-01
44 68 8.69547375926828070e-01
45 68 8.62745522974384227e-01
46 68 8.57077312180680728e-01
47 68 8.52542743545718129e-01
48 68 8.49141817069496208e-01
49 68 8.46874532752014852e-01
50 68 8.45740890593274175e-01
51 68 8.45740890593274175e-01
52 68 8.46874532752014852e-01
53 68 8.49141817069496208e-01
54 68 8.52542743545718129e-01
55 68 8.57077312180680950e-01
56 68 8.62745522974384227e-01
57 68 8.69547375926828181e-01
58 68 8.77482871038012924e-01
59 68 8.86552008307938233e-01
60 68 8.96754787736604220e-01
61 68 9.08091209324010884e-01
62 68 9.20561273070158226e-01
63 68 9.34164978975046134e-01
64 68 9.48902327038674942e-01
65 68 9.64773317261044205e-01
66 68 9.81777949642154368e-01
67 68 9.90847086912079678e-01
68 68 9.81777949642154368e-01
69 68 9.64773317261044427e-01
70 68 9.48902327038675053e-01
71 68 9.34164978975046134e-01
72 68 9.20561273070158226e-01
73 68 9.08091209324010773e-01
74 68 8.96754787736603998e-01
75 68 8.86552008307938122e-01
76 68 8.77482871038012924e-01
77 68 8.69547375926828070e-01
78 68 8.62745522974384227e-01
79 68 8.57077312180680728e-01
80 68 8.52542743545718129e-01
81 68 8.49141817069496208e-01
82 68 8.46874532752014852e-01
83 68 8.45740890593274175e-01
84 68 8.45740890593274175e-01
85 68 8.46874532752014852e-01
86 68 8.49141817069496208e-01
87 68 8.52542743545718129e-01
88 68 8.57077312180680950e-01
89 68 8.62745522974384227e-01
90 68 8.69547375926828181e-01
91 68 8.77482871038012924e-01
92 68 8.86552008307938233e-01
93 68 8.96754787736604220e-01
94 68 9.08091209324010884e-01
95 68 9.20561273070158226e-01
96 68 9.34164978975046134e-01
97 68 9.48902327038674942e-01
98 68 9.64773317261044205e-01
99 68 9.81777949642154368e-01
100 68 9.90847086912079678e-01
101 68 9.81777949642154368e-01
102 68 9.64773317261044427e-01
103 68 9.48902327038675053e-01
104 68 9.34164978975046134e-01
105 68 9.20561273070158226e-01
106 68 9.08091209324010773e-01
107 68 8.96754787736603998e-01
108 68 8.86552008307938122e-01
109 68 8.77482871038012924e-01
110 68 8.69547375926828070e-01
111 68 8.62745522974384227e-01
112 68 8.57077312180680728e-01
113 68 8.52542743545718129e-01
114 68 8.49141817069496208e-01
115 68 8.46874532752014852e-01
116 68 8.45740890593274175e-01
117 68 8.45740890593274175e-01
118 68 8.46874532752014852e-01
119 68 8.49141817069496208e-01
120 68 8.52542743545718129e-01
121 68 8.57077312180680950e-01
122 68 8.62745522974384227e-01
123 68 8.69547375926828181e-01
124 68 8.77482871038012924e-01
125 68 8.86552008307938233e-01
126 68 8.96754787736604220e-01
127 68 9.08091209324010884e-01
128 68 9.20561273070158226e-01
129 68 9.34164978975046134e-01
130 68 9.48902327038674942e-01
131 68 9.64773317261044205e-01
132 68 9.81777949642154368e-01
133 68 9.90847086912079678e-01
1 69 9.73685374872229059e-01
2 69 9.64773317261044427e-01
3 69 9.48063209240073146e-01
4 69 9.32467108420500068e-01
5 69 9.17985014802324639e-01
6 69 9.04616928385547858e-01
7 69 8.92362849170168726e-01
8 69 8.81222777156187798e-01
9 69 8.71196712343605295e-01
10 69 8.62284654732420774e-01
11 69 8.54486604322633791e-01
12 69 8.47802561114245457e-01
13 69 8.42232525107254881e-01
14 69 8.37776496301662732e-01
15 69 8.34434474697468342e-01
16 69 8.32206460294672268e-01
17 69 8.31092453093274175e-01
18 69 8.31092453093274175e-01
19 69 8.32206460294672379e-01
20 69 8.34434474697468342e-01
21 69 8.37776496301662732e-01
22 69 8.42232525107255214e-01
23 69 8.47802561114245457e-01
24 69 8.54486604322633903e-01
25 69 8.62284654732420774e-01
26 69 8.71196712343605295e-01
27 69 8.81222777156187798e-01
28 69 8.92362849170168726e-01
29 69 9.04616928385547858e-01
30 69 9.17985014802324639e-01
31 69 9.32467108420499846e-01
32 69 9.48063209240073146e-01
33 69 9.64773317261044427e-01
34 69 9.73685374872229059e-01
35 69 9.64773317261044427e-01
36 69 9.48063209240073146e-01
37 69 9.32467108420500068e-01
38 69 9.17985014802324639e-01
39 69 9.04616928385547858e-01
40 69 8.92362849170168726e-01
41 69 8.81222777156187798e-01
42 69 8.71196712343605295e-01
43 69 8.62284654732420774e-01
44 69 8.54486604322633791e-01
45 69 8.47802561114245457e-01
46 69 8.42232525107254881e-01
47 69 8.37776496301662732e-01
48 69 8.34434474697468342e-01
49 69 8.32206460294672268e-01
50 69 8.31092453093274175e-01
51 69 8.31092453093274175e-01
52 69 8.32206460294672379e-01
53 69 8.34434474697468342e-01
54 69 8.37776496301662732e-01
55 69 8.42232525107255214e-01
56 69 8.47802561114245457e-01
57 69 8.54486604322633903e-01
58 69 8.62284654732420774e-01
59 69 8.71196712343605295e-01
60 69 8.81222777156187798e-01
61 69 8.92362849170168726e-01
62 69 9.04616928385547858e-01
63 69 9.17985014802324639e-01
64 69 9.32467108420499846e-01
65 69 9.48063209240073146e-01
66 69 9.64773317261044427e-01
67 69 9.73685374872229059e-01
68 69 9.64773317261044427e-01
69 69 9.48063209240073146e-01
70 69 9.32467108420500068e-01
71 69 9.17985014802324639e-01
72 69 9.04616928385547858e-01
73 69 8.92362849170168726e-01
74 69 8.81222777156187798e-01
75 69 8.71196712343605295e-01
76 69 8.62284654732420774e-01
77 69 8.54486604322633791e-01
78 69 8.47802561114245457e-01
79 69 8.42232525107254881e-01
80 69 8.37776496301662732e-01
81 69 8.34434474697468342e-01
82 69 8.32206460294672268e-01
83 69 8.31092453093274175e-01
84 69 8.31092453093274175e-01
85 69 8.32206460294672379e-01
86 69 8.34434474697468342e-01
87 69 8.37776496301662732e-01
88 69 8.42232525107255214e-01
89 69 8.47802561114245457e-01
90 69 8.54486604322633903e-01
91 69 8.62284654732420774e-01
92 69 8.71196712343605295e-01
93 69 8.81222777156187798e-01
94 69 8.92362849170168726e-01
95 69 9.04616928385547858e-01
96 69 9.17985014802324639e-01
97 69 9.32467108420499846e-01
98 69 9.48063209240073146e-01
99 69 9.64773317261044427e-01
100 69 9.73685374872229059e-01
101 69 9.64773317261044427e-01
102 69 9.48063209240073146e-01
103 69 9.32467108420500068e-01
104 69 9.17985014802324639e-01
105 69 9.04616928385547858e-01
106 69 8.92362849170168726e-01
107 69 8.81222777156187798e-01
108 69 8.71196712343605295e-01
109 69 8.62284654732420774e-01
110 69 8.54486604322633791e-01
111 69 8.47802561114245457e-01
112 69 8.42232525107254881e-01
113 69 8.37776496301662732e-01
114 69 8.34434474697468342e-01
115 69 8.32206460294672268e-01
116 69 8.31092453093274175e-01
117 69 8.31092453093274175e-01
118 69 8.32206460294672379e-01
119 69 8.34434474697468342e-01
120 69 8.37776496301662732e-01
121 69 8.42232525107255214e-01
122 69 8.47802561114245457e-01
123 69 8.54486604322633903e-01
124 69 8.62284654732420774e-01
125 69 8.71196712343605295e-01
126 69 8.81222777156187798e-01
127 69 8.92362849170168726e-01
128 69 9.04616928385547858e-01
129 69 9.17985014802324639e-01
130 69 9.32467108420499846e-01
131 69 9.48063209240073146e-01
132 69 9.64773317261044427e-01
133 69 9.73685374872229059e-01
1 70 9.57667776968368356e-01
2 70 9.48902327038675053e-01
3 70 9.32467108420499846e-01
4 70 9.17127571043536594e-01
5 70 9.02883714907784629e-01
6 70 8.89735540013244730e-01
7 70 8.77683046359916119e-01
8 70 8.66726233947799241e-01
9 70 8.56865102776894538e-01
10 70 8.48099652847201124e-01
11 70 8.40429884158719109e-01
12 70 8.33855796711449382e-01
13 70 8.28377390505390720e-01
14 70 8.23994665540544124e-01
15 70 8.20707621816909150e-01
16 70 8.18516259334485796e-01
17 70 8.17420578093274175e-01
18 70 8.17420578093274175e-01
19 70 8.18516259334485907e-01
20 70 8.20707621816909150e-01
21 70 8.23994665540544124e-01
22 70 8.28377390505391054e-01
23 70 8.33855796711449382e-01
24 70 8.40429884158719220e-01
25 70 8.48099652847201124e-01
26 70 8.56865102776894538e-01
27 70 8.66726233947799352e-01
28 70 8.77683046359916119e-01
29 70 8.89735540013244619e-01
30 70 9.02883714907784629e-01
31 70 9.17127571043536371e-01
32 70 9.32467108420499846e-01
33 70 9.48902327038675053e-01
34 70 9.57667776968368356e-01
35 70 9.48902327038675053e-01
36 70 9.32467108420499846e-01
37 70 9.17127571043536594e-01
38 70 9.02883714907784629e-01
39 70 8.89735540013244730e-01
40 70 8.77683046359916119e-01
41 70 8.66726233947799241e-01
42 70 8.56865102776894538e-01
43 70 8.48099652847201124e-01
44 70 8.40429884158719109e-01
45 70 8.33855796711449382e-01
46 70 8.28377390505390720e-01
47 70 8.23994665540544124e-01
48 70 8.20707621816909150e-01
49 70 8.18516259334485796e-01
50 70 8.17420578093274175e-01
51 70 8.17420578093274175e-01
52 70 8.18516259334485907e-01
53 70 8.20707621816909150e-01
54 70 8.23994665540544124e-01
55 70 8.28377390505391054e-01
56 70 8.33855796711449382e-01
57 70 8.40429884158719220e-01
58 70 8.48099652847201124e-01
59 70 8.56865102776894538e-01
60 70 8.66726233947799352e-01
61 70 8.77683046359916119e-01
62 70 8.89735540013244619e-01
63 70 9.02883714907784629e-01
64 70 9.17127571043536371e-01
65 70 9.32467108420499846e-01
66 70 9.48902327038675053e-01
67 70 9.57667776968368356e-01
68 70 9.48902327038675053e-01
69 70 9.32467108420499846e-01
70 70 9.17127571043536594e-01
71 70 9.02883714907784629e-01
72 70 8.89735540013244730e-01
73 70 8.77683046359916119e-01
74 70 8.66726233947799241e-01
75 70 8.56865102776894538e-01
76 70 8.48099652847201124e-01
77 70 8.40429884158719109e-01
78 70 8.33855796711449382e-01
79 70 8.28377390505390720e-01
80 70 8.23994665540544124e-01
81 70 8.20707621816909150e-01
82 70 8.18516259334485796e-01
83 70 8.17420578093274175e-01
84 70 8.17420578093274175e-01
85 70 8.18516259334485907e-01
86 70 8.20707621816909150e-01
87 70 8.23994665540544124e-01
88 70 8.28377390505391054e-01
89 70 8.33855796711449382e-01
90 70 8.40429884158719220e-01
91 70 8.48099652847201124e-01
92 70 8.56865102776894538e-01
93 70 8.66726233947799352e-01
94 70 8.77683046359916119e-01
95 70 8.89735540013244619e-01
96 70 9.02883714907784629e-01
97 70 9.17127571043536371e-01
98 70 9.32467108420499846e-01
99 70 9.48902327038675053e-01
100 70 9.57667776968368356e-01
101 70 9.48902327038675053e-01
102 70 9.32467108420499846e-01
103 70 9.17127571043536594e-01
104 70 9.02883714907784629e-01
105 70 8.89735540013244730e-01
106 70 8.77683046359916119e-01
107 70 8.66726233947799241e-01
108 70 8.56865102776894538e-01
109 70 8.48099652847201124e-01
110 70 8.40429884158719109e-01
111 70 8.33855796711449382e-01
112 70 8.28377390505390720e-01
113 70 8.23994665540544124e-01
114 70 8.20707621816909150e-01
115 70 8.18516259334485796e-01
116 70 8.17420578093274175e-01
117 70 8.17420578093274175e-01
118 70 8.18516259334485907e-01
119 70 8.20707621816909150e-01
120 70 8.23994665540544124e-01
121 70 8.28377390505391054e-01
122 70 8.33855796711449382e-01
123 70 8.40429884158719220e-01
124 70 8.48099652847201124e-01
125 70 8.56865102776894538e-01
126 70 8.66726233947799352e-01
127 70 8.77683046359916119e-01
128 70 8.89735540013244619e-01
129 70 9.02883714907784629e-01
130 70 9.17127571043536371e-01
131 70 9.32467108420499846e-01
132 70 9.48902327038675053e-01
133 70 9.57667776968368356e-01
1 71 9.42794293200497679e-01
2 71 9.34164978975046356e-01
3 71 9.17985014802324750e-01
4 71 9.02883714907784851e-01
5 71 8.88861079291426104e-01
6 71 8.75917107953249063e-01
7 71 8.64051800893252953e-01
8 71 8.53265158111438549e-01
9 71 8.43557179607805852e-01
10 71 8.34927865382354417e-01
11 71 8.27377215435084024e-01
12 71 8.20905229765995781e-01
13 71 8.15511908375088357e-01
14 71 8.11197251262362751e-01
15 71 8.07961258427818518e-01
16 71 8.05803929871455549e-01
17 71 8.04725265593274175e-01
18 71 8.04725265593274175e-01
19 71 8.05803929871455660e-01
20 71 8.07961258427818407e-01
21 71 8.11197251262362751e-01
22 71 8.15511908375088579e-01
23 71 8.20905229765995781e-01
24 71 8.27377215435084135e-01
25 71 8.34927865382354417e-01
26 71 8.43557179607805963e-01
27 71 8.53265158111438549e-01
28 71 8.64051800893252953e-01
29 71 8.75917107953248841e-01
30 71 8.88861079291426104e-01
31 71 9.02883714907784629e-01
32 71 9.17985014802324750e-01
33 71 9.34164978975046356e-01
34 71 9.42794293200497679e-01
35 71 9.34164978975046356e-01
36 71 9.17985014802324750e-01
37 71 9.02883714907784851e-01
38 71 8.88861079291426104e-01
39 71 8.75917107953249063e-01
40 71 8.64051800893252953e-01
41 71 8.53265158111438549e-01
42 71 8.43557179607805852e-01
43 71 8.34927865382354417e-01
44 71 8.27377215435084024e-01
45 71 8.20905229765995781e-01
46 71 8.15511908375088357e-01
47 71 8.11197251262362751e-01
48 71 8.07961258427818518e-01
49 71 8.05803929871455549e-01
50 71 8.04725265593274175e-01
51 71 8.04725265593274175e-01
52 71 8.05803929871455660e-01
53 71 8.07961258427818407e-01
54 71 8.11197251262362751e-01
55 71 8.15511908375088579e-01
56 71 8.20905229765995781e-01
57 71 8.27377215435084135e-01
58 71 8.34927865382354417e-01
59 71 8.43557179607805963e-01
60 71 8.53265158111438549e-01
61 71 8.64051800893252953e-01
62 71 8.75917107953248841e-01
63 71 8.88861079291426104e-01
64 71 9.02883714907784629e-01
65 71 9.17985014802324750e-01
66 71 9.34164978975046356e-01
67 71 9.42794293200497679e-01
68 71 9.34164978975046356e-01
69 71 9.17985014802324750e-01
70 71 9.02883714907784851e-01
71 71 8.88861079291426104e-01
72 71 8.75917107953249063e-01
73 71 8.64051800893252953e-01
74 71 8.53265158111438549e-01
75 71 8.43557179607805852e-01
76 71 8.34927865382354417e-01
77 71 8.27377215435084024e-01
78 71 8.20905229765995781e-01
79 71 8.15511908375088357e-01
80 71 8.11197251262362751e-01
81 71 8.07961258427818518e-01
82 71 8.05803929871455549e-01
83 71 8.04725265593274175e-01
84 71 8.04725265593274175e-01
85 71 8.05803929871455660e-01
86 71 8.07961258427818407e-01
87 71 8.11197251262362751e-01
88 71 8.15511908375088579e-01
89 71 8.20905229765995781e-01
90 71 8.27377215435084135e-01
91 71 8.34927865382354417e-01
92 71 8.43557179607805963e-01
93 71 8.53265158111438549e-01
94 71 8.64051800893252953e-01
95 71 8.75917107953248841e-01
96 71 8.88861079291426104e-01
97 71 9.02883714907784629e-01
98 71 9.17985014802324750e-01
99 71 9.34164978975046356e-01
100 71 9.42794293200497679e-01
101 71 9.34164978975046356e-01
102 71 9.17985014802324750e-01
103 71 9.02883714907784851e-01
104 71 8.88861079291426104e-01
105 71 8.75917107953249063e-01
106 71 8.64051800893252953e-01
107 71 8.53265158111438549e-01
108 71 8.43557179607805852e-01
109 71 8.34927865382354417e-01
110 71 8.27377215435084024e-01
111 71 8.20905229765995781e-01
112 71 8.15511908375088357e-01
113 71 8.11197251262362751e-01
114 71 8.07961258427818518e-01
115 71 8.05803929871455549e-01
116 71 8.04725265593274175e-01
117 71 8.04725265593274175e-01
118 71 8.05803929871455660e-01
119 71 8.07961258427818407e-01
120 71 8.11197251262362751e-01
121 71 8.15511908375088579e-01
122 71 8.20905229765995781e-01
123 71 8.27377215435084135e-01
124 71 8.34927865382354417e-01
125 71 8.43557179607805963e-01
126 71 8.53265158111438549e-01
127 71 8.64051800893252953e-01
128 71 8.75917107953248841e-01
129 71 8.88861079291426104e-01
130 71 9.02883714907784629e-01
131 71 9.17985014802324750e-01
132 71 9.34164978975046356e-01
133 71 9.42794293200497679e-01
1 72 9.29064923568617140e-01
2 72 9.20561273070158226e-01
3 72 9.04616928385547747e-01
4 72 8.89735540013244730e-01
5 72 8.75917107953248841e-01
6 72 8.63161632205560636e-01
7 72 8.51469112770179226e-01
8 72 8.40839549647105500e-01
9 72 8.31272942836339457e-01
10 72 8.22769292337880542e-01
11 72 8.15328598151728645e-01
12 72 8.08950860277884765e-01
13 72 8.03636078716347790e-01
14 72 7.99384253467118389e-01
15 72 7.96195384530196337e-01
16 72 7.94069471905581414e-01
17 72 7.93006515593274175e-01
18 72 7.93006515593274175e-01
19 72 7.94069471905581636e-01
20 72 7.96195384530196115e-01
21 72 7.99384253467118389e-01
22 72 8.03636078716347901e-01
23 72 8.08950860277884765e-01
24 72 8.15328598151728645e-01
25 72 8.22769292337880542e-01
26 72 8.31272942836339568e-01
27 72 8.40839549647105500e-01
28 72 8.51469112770179226e-01
29 72 8.63161632205560414e-01
30 72 8.75917107953248841e-01
31 72 8.89735540013244619e-01
32 72 9.04616928385547636e-01
33 72 9.20561273070158226e-01
34 72 9.29064923568617140e-01
35 72 9.20561273070158226e-01
36 72 9.04616928385547747e-01
37 72 8.89735540013244730e-01
38 72 8.75917107953248841e-01
39 72 8.63161632205560636e-01
40 72 8.51469112770179226e-01
41 72 8.40839549647105500e-01
42 72 8.31272942836339457e-01
43 72 8.22769292337880542e-01
44 72 8.15328598151728645e-01
45 72 8.08950860277884765e-01
46 72 8.03636078716347790e-01
47 72 7.99384253467118389e-01
48 72 7.96195384530196337e-01
49 72 7.94069471905581414e-01
50 72 7.93006515593274175e-01
51 72 7.93006515593274175e-01
52 72 7.94069471905581636e-01
53 72 7.96195384530196115e-01
54 72 7.99384253467118389e-01
55 72 8.03636078716347901e-01
56 72 8.08950860277884765e-01
57 72 8.15328598151728645e-01
58 72 8.22769292337880542e-01
59 72 8.31272942836339568e-01
60 72 8.40839549647105500e-01
61 72 8.51469112770179226e-01
62 72 8.63161632205560414e-01
63 72 8.75917107953248841e-01
64 72 8.89735540013244619e-01
65 72 9.04616928385547636e-01
66 72 9.20561273070158226e-01
67 72 9.29064923568617140e-01
68 72 9.20561273070158226e-01
69 72 9.04616928385547747e-01
70 72 8.89735540013244730e-01
71 72 8.75917107953248841e-01
72 72 8.63161632205560636e-01
73 72 8.51469112770179226e-01
74 72 8.40839549647105500e-01
75 72 8.31272942836339457e-01
76 72 8.22769292337880542e-01
77 72 8.15328598151728645e-01
78 72 8.08950860277884765e-01
79 72 8.03636078716347790e-01
80 72 7.99384253467118389e-01
81 72 7.96195384530196337e-01
82 72 7.94069471905581414e-01
83 72 7.93006515593274175e-01
84 72 7.93006515593274175e-01
85 72 7.94069471905581636e-01
86 72 7.96195384530196115e-01
87 72 7.99384253467118389e-01
88 72 8.03636078716347901e-01
89 72 8.08950860277884765e-01
90 72 8.15328598151728645e-01
91 72 8.22769292337880542e-01
92 72 8.31272942836339568e-01
93 72 8.40839549647105500e-01
94 72 8.51469112770179226e-01
95 72 8.63161632205560414e-01
96 72 8.75917107953248841e-01
97 72 8.89735540013244619e-01
98 72 9.04616928385547636e-01
99 72 9.20561273070158226e-01
100 72 9.29064923568617140e-01
101 72 9.20561273070158226e-01
102 72 9.04616928385547747e-01
103 72 8.89735540013244730e-01
104 72 8.75917107953248841e-01
105 72 8.63161632205560636e-01
106 72 8.51469112770179226e-01
107 72 8.40839549647105500e-01
108 72 8.31272942836339457e-01
109 72 8.22769292337880542e-01
110 72 8.15328598151728645e-01
111 72 8.08950860277884765e-01
112 72 8.03636078716347790e-01
113 72 7.99384253467118389e-01
114 72 7.96195384530196337e-01
115 72 7.94069471905581414e-01
116 72 7.93006515593274175e-01
117 72 7.93006515593274175e-01
118 72 7.94069471905581636e-01
119 72 7.96195384530196115e-01
120 72 7.99384253467118389e-01
121 72 8.03636078716347901e-01
122 72 8.08950860277884765e-01
123 72 8.15328598151728645e-01
124 72 8.22769292337880542e-01
125 72 8.31272942836339568e-01
126 72 8.40839549647105500e-01
127 72 8.51469112770179226e-01
128 72 8.63161632205560414e-01
129 72 8.75917107953248841e-01
130 72 8.89735540013244619e-01
131 72 9.04616928385547636e-01
132 72 9.20561273070158226e-01
133 72 9.29064923568617140e-01
1 73 9.16479668072726517e-01
2 73 9.08091209324010773e-01
3 73 8.92362849170168726e-01
4 73 8.77683046359916119e-01
5 73 8.64051800893252953e-01
6 73 8.51469112770179448e-01
7 73 8.39934981990694940e-01
8 73 8.29449408554800205e-01
9 73 8.20012392462495132e-01
10 73 8.11623933713779389e-01
11 73 8.04284032308652752e-01
12 73 7.97992688247116222e-01
13 73 7.92749901529168799e-01
14 73 7.88555672154810927e-01
15 73 7.85410000124042607e-01
16 73 7.83312885436863393e-01
17 73 7.82264328093274175e-01
18 73 7.82264328093274175e-01
19 73 7.83312885436863615e-01
20 73 7.85410000124042385e-01
21 73 7.88555672154810927e-01
22 73 7.92749901529168799e-01
23 73 7.97992688247116222e-01
24 73 8.04284032308652752e-01
25 73 8.11623933713779389e-01
26 73 8.20012392462495354e-01
27 73 8.29449408554800205e-01
28 73 8.39934981990694940e-01
29 73 8.51469112770179226e-01
30 73 8.64051800893252953e-01
31 73 8.77683046359916119e-01
32 73 8.92362849170168504e-01
33 73 9.08091209324010773e-01
34 73 9.16479668072726517e-01
35 73 9.08091209324010773e-01
36 73 8.92362849170168726e-01
37 73 8.77683046359916119e-01
38 73 8.64051800893252953e-01
39 73 8.51469112770179448e-01
40 73 8.39934981990694940e-01
41 73 8.29449408554800205e-01
42 73 8.20012392462495132e-01
43 73 8.11623933713779389e-01
44 73 8.04284032308652752e-01
45 73 7.97992688247116222e-01
46 73 7.92749901529168799e-01
47 73 7.88555672154810927e-01
48 73 7.85410000124042607e-01
49 73 7.83312885436863393e-01
50 73 7.82264328093274175e-01
51 73 7.82264328093274175e-01
52 73 7.83312885436863615e-01
53 73 7.85410000124042385e-01
54 73 7.88555672154810927e-01
55 73 7.92749901529168799e-01
56 73 7.97992688247116222e-01
57 73 8.04284032308652752e-01
58 73 8.11623933713779389e-01
59 73 8.20012392462495354e-01
60 73 8.29449408554800205e-01
61 73 8.39934981990694940e-01
62 73 8.51469112770179226e-01
63 73 8.64051800893252953e-01
64 73 8.77683046359916119e-01
65 73 8.92362849170168504e-01
66 73 9.08091209324010773e-01
67 73 9.16479668072726517e-01
68 73 9.08091209324010773e-01
69 73 8.92362849170168726e-01
70 73 8.77683046359916119e-01
71 73 8.64051800893252953e-01
72 73 8.51469112770179448e-01
73 73 8.39934981990694940e-01
74 73 8.29449408554800205e-01
75 73 8.20012392462495132e-01
76 73 8.11623933713779389e-01
77 73 8.04284032308652752e-01
78 73 7.97992688247116222e-01
79 73 7.92749901529168799e-01
80 73 7.88555672154810927e-01
81 73 7.85410000124042607e-01
82 73 7.83312885436863393e-01
83 73 7.82264328093274175e-01
84 73 7.82264328093274175e-01
85 73 7.83312885436863615e-01
86 73 7.85410000124042385e-01
87 73 7.88555672154810927e-01
88 73 7.92749901529168799e-01
89 73 7.97992688247116222e-01
90 73 8.04284032308652752e-01
91 73 8.11623933713779389e-01
92 73 8.20012392462495354e-01
93 73 8.29449408554800205e-01
94 73 8.39934981990694940e-01
95 73 8.51469112770179226e-01
96 73 8.64051800893252953e-01
97 73 8.77683046359916119e-01
98 73 8.92362849170168504e-01
99 73 9.08091209324010773e-01
100 73 9.16479668072726517e-01
101 73 9.08091209324010773e-01
102 73 8.92362849170168726e-01
103 73 8.77683046359916119e-01
104 73 8.64051800893252953e-01
105 73 8.51469112770179448e-01
106 73 8.39934981990694940e-01
107 73 8.29449408554800205e-01
108 73 8.20012392462495132e-01
109 73 8.11623933713779389e-01
110 73 8.04284032308652752e-01
111 73 7.97992688247116222e-01
112 73 7.92749901529168799e-01
113 73 7.88555672154810927e-01
114 73 7.85410000124042607e-01
115 73 7.83312885436863393e-01
116 73 7.82264328093274175e-01
117 73 7.82264328093274175e-01
118 73 7.83312885436863615e-01
119 73 7.85410000124042385e-01
120 73 7.88555672154810927e-01
121 73 7.92749901529168799e-01
122 73 7.97992688247116222e-01
123 73 8.04284032308652752e-01
124 73 8.11623933713779389e-01
125 73 8.20012392462495354e-01
126 73 8.29449408554800205e-01
127 73 8.39934981990694940e-01
128 73 8.51469112770179226e-01
129 73 8.64051800893252953e-01
130 73 8.77683046359916119e-01
131 73 8.92362849170168504e-01
132 73 9.08091209324010773e-01
133 73 9.16479668072726517e-01
1 74 9.05038526712826030e-01
2 74 8.96754787736604109e-01
3 74 8.81222777156187909e-01
4 74 8.66726233947799352e-01
5 74 8.53265158111438660e-01
6 74 8.40839549647105722e-01
7 74 8.29449408554800205e-01
8 74 8.19094734834522664e-01
9 74 8.09775528486273100e-01
10 74 8.01491789510051178e-01
11 74 7.94243517905856566e-01
12 74 7.88030713673690375e-01
13 74 7.82853376813551605e-01
14 74 7.78711507325440699e-01
15 74 7.75605105209357437e-01
16 74 7.73534170465301596e-01
17 74 7.72498703093274175e-01
18 74 7.72498703093274175e-01
19 74 7.73534170465301929e-01
20 74 7.75605105209357215e-01
21 74 7.78711507325440699e-01
22 74 7.82853376813551605e-01
23 74 7.88030713673690375e-01
24 74 7.94243517905856566e-01
25 74 8.01491789510051178e-01
26 74 8.09775528486273322e-01
27 74 8.19094734834522775e-01
28 74 8.29449408554800205e-01
29 74 8.40839549647105611e-01
30 74 8.53265158111438660e-01
31 74 8.66726233947799352e-01
32 74 8.81222777156187798e-01
33 74 8.96754787736604109e-01
34 74 9.05038526712826030e-01
35 74 8.96754787736604109e-01
36 74 8.81222777156187909e-01
37 74 8.66726233947799352e-01
38 74 8.53265158111438660e-01
39 74 8.40839549647105722e-01
40 74 8.29449408554800205e-01
41 74 8.19094734834522664e-01
42 74 8.09775528486273100e-01
43 74 8.01491789510051178e-01
44 74 7.94243517905856566e-01
45 74 7.88030713673690375e-01
46 74 7.82853376813551605e-01
47 74 7.78711507325440699e-01
48 74 7.75605105209357437e-01
49 74 7.73534170465301596e-01
50 74 7.72498703093274175e-01
51 74 7.72498703093274175e-01
52 74 7.73534170465301929e-01
53 74 7.75605105209357215e-01
54 74 7.78711507325440699e-01
55 74 7.82853376813551605e-01
56 74 7.88030713673690375e-01
57 74 7.94243517905856566e-01
58 74 8.01491789510051178e-01
59 74 8.09775528486273322e-01
60 74 8.19094734834522775e-01
61 74 8.29449408554800205e-01
62 74 8.40839549647105611e-01
63 74 8.53265158111438660e-01
64 74 8.66726233947799352e-01
65 74 8.81222777156187798e-01
66 74 8.96754787736604109e-01
67 74 9.05038526712826030e-01
68 74 8.96754787736604109e-01
69 74 8.81222777156187909e-01
70 74 8.66726233947799352e-01
71 74 8.53265158111438660e-01
72 74 8.40839549647105722e-01
73 74 8.29449408554800205e-01
74 74 8.19094734834522664e-01
75 74 8.09775528486273100e-01
76 74 8.01491789510051178e-01
77 74 7.94243517905856566e-01
78 74 7.88030713673690375e-01
79 74 7.82853376813551605e-01
80 74 7.78711507325440699e-01
81 74 7.75605105209357437e-01
82 74 7.73534170465301596e-01
83 74 7.72498703093274175e-01
84 74 7.72498703093274175e-01
85 74 7.73534170465301929e-01
86 74 7.75605105209357215e-01
87 74 7.78711507325440699e-01
88 74 7.82853376813551605e-01
89 74 7.88030713673690375e-01
90 74 7.94243517905856566e-01
91 74 8.01491789510051178e-01
92 74 8.09775528486273322e-01
93 74 8.19094734834522775e-01
94 74 8.29449408554800205e-01
95 74 8.40839549647105611e-01
96 74 8.53265158111438660e-01
97 74 8.66726233947799352e-01
98 74 8.81222777156187798e-01
99 74 8.96754787736604109e-01
100 74 9.05038526712826030e-01
101 74 8.96754787736604109e-01
102 74 8.81222777156187909e-01
103 74 8.66726233947799352e-01
104 74 8.53265158111438660e-01
105 74 8.40839549647105722e-01
106 74 8.29449408554800205e-01
107 74 8.19094734834522664e-01
108 74 8.09775528486273100e-01
109 74 8.01491789510051178e-01
110 74 7.94243517905856566e-01
111 74 7.88030713673690375e-01
112 74 7.82853376813551605e-01
113 74 7.78711507325440699e-01
114 74 7.75605105209357437e-01
115 74 7.73534170465301596e-01
116 74 7.72498703093274175e-01
117 74 7.72498703093274175e-01
118 74 7.73534170465301929e-01
119 74 7.75605105209357215e-01
120 74 7.78711507325440699e-01
121 74 7.82853376813551605e-01
122 74 7.88030713673690375e-01
123 74 7.94243517905856566e-01
124 74 8.01491789510051178e-01
125 74 8.09775528486273322e-01
126 74 8.19094734834522775e-01
127 74 8.29449408554800205e-01
128 74 8.40839549647105611e-01
129 74 8.53265158111438660e-01
130 74 8.66726233947799352e-01
131 74 8.81222777156187798e-01
132 74 8.96754787736604109e-01
133 74 9.05038526712826030e-01
1 75 8.94741499488915681e-01
2 75 8.86552008307938122e-01
3 75 8.71196712343605073e-01
4 75 8.56865102776894316e-01
5 75 8.43557179607805740e-01
6 75 8.31272942836339346e-01
7 75 8.20012392462495021e-01
8 75 8.09775528486272878e-01
9 75 8.00562350907673359e-01
10 75 7.92372859726695800e-01
11 75 7.85207054943340088e-01
12 75 7.79064936557607224e-01
13 75 7.73946504569496097e-01
14 75 7.69851758979007372e-01
15 75 7.66780699786140829e-01
16 75 7.64733326990896023e-01
17 75 7.63709640593274064e-01
18 75 7.63709640593274064e-01
19 75 7.64733326990896356e-01
20 75 7.66780699786140607e-01
21 75 7.69851758979007372e-01
22 75 7.73946504569496097e-01
23 75 7.79064936557607224e-01
24 75 7.85207054943339977e-01
25 75 7.92372859726695800e-01
26 75 8.00562350907673470e-01
27 75 8.09775528486272878e-01
28 75 8.20012392462495021e-01
29 75 8.31272942836339346e-01
30 75 8.43557179607805740e-01
31 75 8.56865102776894316e-01
32 75 8.71196712343604962e-01
33 75 8.86552008307938122e-01
34 75 8.94741499488915681e-01
35 75 8.86552008307938122e-01
36 75 8.71196712343605073e-01
37 75 8.56865102776894316e-01
38 75 8.43557179607805740e-01
39 75 8.31272942836339346e-01
40 75 8.20012392462495021e-01
41 75 8.09775528486272878e-01
42 75 8.00562350907673359e-01
43 75 7.92372859726695800e-01
44 75 7.85207054943340088e-01
45 75 7.79064936557607224e-01
46 75 7.73946504569496097e-01
47 75 7.69851758979007372e-01
48 75 7.66780699786140829e-01
49 75 7.64733326990896023e-01
50 75 7.63709640593274064e-01
51 75 7.63709640593274064e-01
52 75 7.64733326990896356e-01
53 75 7.66780699786140607e-01
54 75 7.69851758979007372e-01
55 75 7.73946504569496097e-01
56 75 7.79064936557607224e-01
57 75 7.85207054943339977e-01
58 75 7.92372859726695800e-01
59 75 8.00562350907673470e-01
60 75 8.09775528486272878e-01
61 75 8.20012392462495021e-01
62 75 8.31272942836339346e-01
63 75 8.43557179607805740e-01
64 75 8.56865102776894316e-01
65 75 8.71196712343604962e-01
66 75 8.86552008307938122e-01
67 75 8.94741499488915681e-01
68 75 8.86552008307938122e-01
69 75 8.71196712343605073e-01
70 75 8.56865102776894316e-01
71 75 8.43557179607805740e-01
72 75 8.31272942836339346e-01
73 75 8.20012392462495021e-01
74 75 8.09775528486272878e-01
75 75 8.00562350907673359e-01
76 75 7.92372859726695800e-01
77 75 7.85207054943340088e-01
78 75 7.79064936557607224e-01
79 75 7.73946504569496097e-01
80 75 7.69851758979007372e-01
81 75 7.66780699786140829e-01
82 75 7.64733326990896023e-01
83 75 7.63709640593274064e-01
84 75 7.63709640593274064e-01
85 75 7.64733326990896356e-01
86 75 7.66780699786140607e-01
87 75 7.69851758979007372e-01
88 75 7.73946504569496097e-01
89 75 7.79064936557607224e-01
90 75 7.85207054943339977e-01
91 75 7.92372859726695800e-01
92 75 8.00562350907673470e-01
93 75 8.09775528486272878e-01
94 75 8.20012392462495021e-01
95 75 8.31272942836339346e-01
96 75 8.43557179607805740e-01
97 75 8.56865102776894316e-01
98 75 8.71196712343604962e-01
99 75 8.86552008307938122e-01
100 75 8.94741499488915681e-01
101 75 8.86552008307938122e-01
102 75 8.71196712343605073e-01
103 75 8.56865102776894316e-01
104 75 8.43557179607805740e-01
105 75 8.31272942836339346e-01
106 75 8.20012392462495021e-01
107 75 8.09775528486272878e-01
108 75 8.00562350907673359e-01
109 75 7.92372859726695800e-01
110 75 7.85207054943340088e-01
111 75 7.79064936557607224e-01
112 75 7.73946504569496097e-01
113 75 7.69851758979007372e-01
114 75 7.66780699786140829e-01
115 75 7.64733326990896023e-01
116 75 7.63709640593274064e-01
117 75 7.63709640593274064e-01
118 75 7.64733326990896356e-01
119 75 7.66780699786140607e-01
120 75 7.69851758979007372e-01
121 75 7.73946504569496097e-01
122 75 7.79064936557607224e-01
123 75 7.85207054943339977e-01
124 75 7.92372859726695800e-01
125 75 8.00562350907673470e-01
126 75 8.09775528486272878e-01
127 75 8.20012392462495021e-01
128 75 8.31272942836339346e-01
129 75 8.43557179607805740e-01
130 75 8.56865102776894316e-01
131 75 8.71196712343604962e-01
132 75 8.86552008307938122e-01
133 75 8.94741499488915681e-01
1 76 8.85588586400995359e-01
2 76 8.77482871038012813e-01
3 76 8.62284654732420441e-01
4 76 8.48099652847201013e-01
5 76 8.34927865382354417e-01
6 76 8.22769292337880431e-01
7 76 8.11623933713779278e-01
8 76 8.01491789510050956e-01
9 76 7.92372859726695689e-01
10 76 7.84267144363713253e-01
11 76 7.77174643421103095e-01
12 76 7.71095356898866546e-01
13 76 7.66029284797002274e-01
14 76 7.61976427115511168e-01
15 76 7.58936783854392671e-01
16 76 7.56910355013646674e-01
17 76 7.55897140593274064e-01
18 76 7.55897140593274064e-01
19 76 7.56910355013646896e-01
20 76 7.58936783854392560e-01
21 76 7.61976427115511168e-01
22 76 7.66029284797002274e-01
23 76 7.71095356898866546e-01
24 76 7.77174643421103095e-01
25 76 7.84267144363713253e-01
26 76 7.92372859726695800e-01
27 76 8.01491789510050956e-01
28 76 8.11623933713779278e-01
29 76 8.22769292337880431e-01
30 76 8.34927865382354417e-01
31 76 8.48099652847201013e-01
32 76 8.62284654732420330e-01
33 76 8.77482871038012813e-01
34 76 8.85588586400995359e-01
35 76 8.77482871038012813e-01
36 76 8.62284654732420441e-01
37 76 8.48099652847201013e-01
38 76 8.34927865382354417e-01
39 76 8.22769292337880431e-01
40 76 8.11623933713779278e-01
41 76 8.01491789510050956e-01
42 76 7.92372859726695689e-01
43 76 7.84267144363713253e-01
44 76 7.77174643421103095e-01
45 76 7.71095356898866546e-01
46 76 7.66029284797002274e-01
47 76 7.61976427115511168e-01
48 76 7.58936783854392671e-01
49 76 7.56910355013646674e-01
50 76 7.55897140593274064e-01
51 76 7.55897140593274064e-01
52 76 7.56910355013646896e-01
53 76 7.58936783854392560e-01
54 76 7.61976427115511168e-01
55 76 7.66029284797002274e-01
56 76 7.71095356898866546e-01
57 76 7.77174643421103095e-01
58 76 7.84267144363713253e-01
59 76 7.92372859726695800e-01
60 76 8.01491789510050956e-01
61 76 8.11623933713779278e-01
62 76 8.22769292337880431e-01
63 76 8.34927865382354417e-01
64 76 8.48099652847201013e-01
65 76 8.62284654732420330e-01
66 76 8.77482871038012813e-01
67 76 8.85588586400995359e-01
68 76 8.77482871038012813e-01
69 76 8.62284654732420441e-01
70 76 8.48099652847201013e-01
71 76 8.34927865382354417e-01
72 76 8.22769292337880431e-01
73 76 8.11623933713779278e-01
74 76 8.01491789510050956e-01
75 76 7.92372859726695689e-01
76 76 7.84267144363713253e-01
77 76 7.77174643421103095e-01
78 76 7.71095356898866546e-01
79 76 7.66029284797002274e-01
80 76 7.61976427115511168e-01
81 76 7.58936783854392671e-01
82 76 7.56910355013646674e-01
83 76 7.55897140593274064e-01
84 76 7.55897140593274064e-01
85 76 7.56910355013646896e-01
86 76 7.58936783854392560e-01
87 76 7.61976427115511168e-01
88 76 7.66029284797002274e-01
89 76 7.71095356898866546e-01
90 76 7.77174643421103095e-01
91 76 7.84267144363713253e-01
92 76 7.92372859726695800e-01
93 76 8.01491789510050956e-01
94 76 8.11623933713779278e-01
95 76 8.22769292337880431e-01
96 76 8.34927865382354417e-01
97 76 8.48099652847201013e-01
98 76 8.62284654732420330e-01
99 76 8.77482871038012813e-01
100 76 8.85588586400995359e-01
101 76 8.77482871038012813e-01
102 76 8.62284654732420441e-01
103 76 8.48099652847201013e-01
104 76 8.34927865382354417e-01
105 76 8.22769292337880431e-01
106 76 8.11623933713779278e-01
107 76 8.01491789510050956e-01
108 76 7.92372859726695689e-01
109 76 7.84267144363713253e-01
110 76 7.77174643421103095e-01
111 76 7.71095356898866546e-01
112 76 7.66029284797002274e-01
113 76 7.61976427115511168e-01
114 76 7.58936783854392671e-01
115 76 7.56910355013646674e-01
116 76 7.55897140593274064e-01
117 76 7.55897140593274064e-01
118 76 7.56910355013646896e-01
119 76 7.58936783854392560e-01
120 76 7.61976427115511168e-01
121 76 7.66029284797002274e-01
122 76 7.71095356898866546e-01
123 76 7.77174643421103095e-01
124 76 7.84267144363713253e-01
125 76 7.92372859726695800e-01
126 76 8.01491789510050956e-01
127 76 8.11623933713779278e-01
128 76 8.22769292337880431e-01
129 76 8.34927865382354417e-01
130 76 8.48099652847201013e-01
131 76 8.62284654732420330e-01
132 76 8.77482871038012813e-01
133 76 8.85588586400995359e-01
1 77 8.77579787449064952e-01
2 77 8.69547375926828070e-01
3 77 8.54486604322633791e-01
4 77 8.40429884158719220e-01
5 77 8.27377215435084357e-01
6 77 8.15328598151728867e-01
7 77 8.04284032308652863e-01
8 77 7.94243517905856677e-01
9 77 7.85207054943340199e-01
10 77 7.77174643421103428e-01
11 77 7.70146283339145699e-01
12 77 7.64121974697468342e-01
13 77 7.59101717496070139e-01
14 77 7.55085511734951864e-01
15 77 7.52073357414112964e-01
16 77 7.50065254533553438e-01
17 77 7.49061203093273953e-01
18 77 7.49061203093273953e-01
19 77 7.50065254533553660e-01
20 77 7.52073357414112853e-01
21 77 7.55085511734951864e-01
22 77 7.59101717496070139e-01
23 77 7.64121974697468342e-01
24 77 7.70146283339145699e-01
25 77 7.77174643421103428e-01
26 77 7.85207054943340310e-01
27 77 7.94243517905856677e-01
28 77 8.04284032308652863e-01
29 77 8.15328598151728756e-01
30 77 8.27377215435084357e-01
31 77 8.40429884158719220e-01
32 77 8.54486604322633680e-01
33 77 8.69547375926828070e-01
34 77 8.77579787449064952e-01
35 77 8.69547375926828070e-01
36 77 8.54486604322633791e-01
37 77 8.40429884158719220e-01
38 77 8.27377215435084357e-01
39 77 8.15328598151728867e-01
40 77 8.04284032308652863e-01
41 77 7.94243517905856677e-01
42 77 7.85207054943340199e-01
43 77 7.77174643421103428e-01
44 77 7.70146283339145699e-01
45 77 7.64121974697468342e-01
46 77 7.59101717496070139e-01
47 77 7.55085511734951864e-01
48 77 7.52073357414112964e-01
49 77 7.50065254533553438e-01
50 77 7.49061203093273953e-01
51 77 7.49061203093273953e-01
52 77 7.50065254533553660e-01
53 77 7.52073357414112853e-01
54 77 7.55085511734951864e-01
55 77 7.59101717496070139e-01
56 77 7.64121974697468342e-01
57 77 7.70146283339145699e-01
58 77 7.77174643421103428e-01
59 77 7.85207054943340310e-01
60 77 7.94243517905856677e-01
61 77 8.04284032308652863e-01
62 77 8.15328598151728756e-01
63 77 8.27377215435084357e-01
64 77 8.40429884158719220e-01
65 77 8.54486604322633680e-01
66 77 8.69547375926828070e-01
67 77 8.77579787449064952e-01
68 77 8.69547375926828070e-01
69 77 8.54486604322633791e-01
70 77 8.40429884158719220e-01
71 77 8.27377215435084357e-01
72 77 8.15328598151728867e-01
73 77 8.04284032308652863e-01
74 77 7.94243517905856677e-01
75 77 7.85207054943340199e-01
76 77 7.77174643421103428e-01
77 77 7.70146283339145699e-01
78 77 7.64121974697468342e-01
79 77 7.59101717496070139e-01
80 77 7.55085511734951864e-01
81 77 7.52073357414112964e-01
82 77 7.50065254533553438e-01
83 77 7.49061203093273953e-01
84 77 7.49061203093273953e-01
85 77 7.50065254533553660e-01
86 77 7.52073357414112853e-01
87 77 7.55085511734951864e-01
88 77 7.59101717496070139e-01
89 77 7.64121974697468342e-01
90 77 7.70146283339145699e-01
91 77 7.77174643421103428e-01
92 77 7.85207054943340310e-01
93 77 7.94243517905856677e-01
94 77 8.04284032308652863e-01
95 77 8.15328598151728756e-01
96 77 8.27377215435084357e-01
97 77 8.40429884158719220e-01
98 77 8.54486604322633680e-01
99 77 8.69547375926828070e-01
100 77 8.77579787449064952e-01
101 77 8.69547375926828070e-01
102 77 8.54486604322633791e-01
103 77 8.40429884158719220e-01
104 77 8.27377215435084357e-01
105 77 8.15328598151728867e-01
106 77 8.04284032308652863e-01
107 77 7.94243517905856677e-01
108 77 7.85207054943340199e-01
109 77 7.77174643421103428e-01
110 77 7.70146283339145699e-01
111 77 7.64121974697468342e-01
112 77 7.59101717496070139e-01
113 77 7.55085511734951864e-01
114 77 7.52073357414112964e-01
115 77 7.50065254533553438e-01
116 77 7.49061203093273953e-01
117 77 7.49061203093273953e-01
118 77 7.50065254533553660e-01
119 77 7.52073357414112853e-01
120 77 7.55085511734951864e-01
121 77 7.59101717496070139e-01
122 77 7.64121974697468342e-01
123 77 7.70146283339145699e-01
124 77 7.77174643421103428e-01
125 77 7.85207054943340310e-01
126 77 7.94243517905856677e-01
127 77 8.04284032308652863e-01
128 77 8.15328598151728756e-01
129 77 8.27377215435084357e-01
130 77 8.40429884158719220e-01
131 77 8.54486604322633680e-01
132 77 8.69547375926828070e-01
133 77 8.77579787449064952e-01
1 78 8.70715102633124793e-01
2 78 8.62745522974384116e-01
3 78 8.47802561114245345e-01
4 78 8.33855796711449160e-01
5 78 8.20905229765995781e-01
6 78 8.08950860277884654e-01
7 78 7.97992688247116111e-01
8 78 7.88030713673690264e-01
9 78 7.79064936557607002e-01
10 78 7.71095356898866546e-01
11 78 7.64121974697468120e-01
12 78 7.58144789953412834e-01
13 78 7.53163802666699800e-01
14 78 7.49179012837329683e-01
15 78 7.46190420465301929e-01
16 78 7.44198025550616427e-01
17 78 7.43201828093273953e-01
18 78 7.43201828093273953e-01
19 78 7.44198025550616649e-01
20 78 7.46190420465301818e-01
21 78 7.49179012837329683e-01
22 78 7.53163802666699800e-01
23 78 7.58144789953412834e-01
24 78 7.64121974697468009e-01
25 78 7.71095356898866546e-01
26 78 7.79064936557607113e-01
27 78 7.88030713673690264e-01
28 78 7.97992688247116111e-01
29 78 8.08950860277884543e-01
30 78 8.20905229765995781e-01
31 78 8.33855796711449160e-01
32 78 8.47802561114245234e-01
33 78 8.62745522974384116e-01
34 78 8.70715102633124793e-01
35 78 8.62745522974384116e-01
36 78 8.47802561114245345e-01
37 78 8.33855796711449160e-01
38 78 8.20905229765995781e-01
39 78 8.08950860277884654e-01
40 78 7.97992688247116111e-01
41 78 7.88030713673690264e-01
42 78 7.79064936557607002e-01
43 78 7.71095356898866546e-01
44 78 7.64121974697468120e-01
45 78 7.58144789953412834e-01
46 78 7.53163802666699800e-01
47 78 7.49179012837329683e-01
48 78 7.46190420465301929e-01
49 78 7.44198025550616427e-01
50 78 7.43201828093273953e-01
51 78 7.43201828093273953e-01
52 78 7.44198025550616649e-01
53 78 7.46190420465301818e-01
54 78 7.49179012837329683e-01
55 78 7.53163802666699800e-01
56 78 7.58144789953412834e-01
57 78 7.64121974697468009e-01
58 78 7.71095356898866546e-01
59 78 7.79064936557607113e-01
60 78 7.88030713673690264e-01
61 78 7.97992688247116111e-01
62 78 8.08950860277884543e-01
63 78 8.20905229765995781e-01
64 78 8.33855796711449160e-01
65 78 8.47802561114245234e-01
66 78 8.62745522974384116e-01
67 78 8.70715102633124793e-01
68 78 8.62745522974384116e-01
69 78 8.47802561114245345e-01
70 78 8.33855796711449160e-01
71 78 8.20905229765995781e-01
72 78 8.08950860277884654e-01
73 78 7.97992688247116111e-01
74 78 7.88030713673690264e-01
75 78 7.79064936557607002e-01
76 78 7.71095356898866546e-01
77 78 7.64121974697468120e-01
78 78 7.58144789953412834e-01
79 78 7.53163802666699800e-01
80 78 7.49179012837329683e-01
81 78 7.46190420465301929e-01
82 78 7.44198025550616427e-01
83 78 7.43201828093273953e-01
84 78 7.43201828093273953e-01
85 78 7.44198025550616649e-01
86 78 7.46190420465301818e-01
87 78 7.49179012837329683e-01
88 78 7.53163802666699800e-01
89 78 7.58144789953412834e-01
90 78 7.64121974697468009e-01
91 78 7.71095356898866546e-01
92 78 7.79064936557607113e-01
93 78 7.88030713673690264e-01
94 78 7.97992688247116111e-01
95 78 8.08950860277884543e-01
96 78 8.20905229765995781e-01
97 78 8.33855796711449160e-01
98 78 8.47802561114245234e-01
99 78 8.62745522974384116e-01
100 78 8.70715102633124793e-01
101 78 8.62745522974384116e-01
102 78 8.47802561114245345e-01
103 78 8.33855796711449160e-01
104 78 8.20905229765995781e-01
105 78 8.08950860277884654e-01
106 78 7.97992688247116111e-01
107 78 7.88030713673690264e-01
108 78 7.79064936557607002e-01
109 78 7.71095356898866546e-01
110 78 7.64121974697468120e-01
111 78 7.58144789953412834e-01
112 78 7.53163802666699800e-01
113 78 7.49179012837329683e-01
114 78 7.46190420465301929e-01
115 78 7.44198025550616427e-01
116 78 7.43201828093273953e-01
117 78 7.43201828093273953e-01
118 78 7.44198025550616649e-01
119 78 7.46190420465301818e-01
120 78 7.49179012837329683e-01
121 78 7.53163802666699800e-01
122 78 7.58144789953412834e-01
123 78 7.64121974697468009e-01
124 78 7.71095356898866546e-01
125 78 7.79064936557607113e-01
126 78 7.88030713673690264e-01
127 78 7.97992688247116111e-01
128 78 8.08950860277884543e-01
129 78 8.20905229765995781e-01
130 78 8.33855796711449160e-01
131 78 8.47802561114245234e-01
132 78 8.62745522974384116e-01
133 78 8.70715102633124793e-01
1 79 8.64994531953174439e-01
2 79 8.57077312180680728e-01
3 79 8.42232525107254881e-01
4 79 8.28377390505390832e-01
5 79 8.15511908375088579e-01
6 79 8.03636078716347790e-01
7 79 7.92749901529168799e-01
8 79 7.82853376813551494e-01
9 79 7.73946504569495985e-01
10 79 7.66029284797002497e-01
11 79 7.59101717496070028e-01
12 79 7.53163802666699911e-01
13 79 7.48215540308891147e-01
14 79 7.44256930422644403e-01
15 79 7.41287973007959344e-01
16 79 7.39308668064835528e-01
17 79 7.38319015593273953e-01
18 79 7.38319015593273953e-01
19 79 7.39308668064835861e-01
20 79 7.41287973007959233e-01
21 79 7.44256930422644403e-01
22 79 7.48215540308891258e-01
23 79 7.53163802666699911e-01
24 79 7.59101717496069917e-01
25 79 7.66029284797002386e-01
26 79 7.73946504569496097e-01
27 79 7.82853376813551494e-01
28 79 7.92749901529168799e-01
29 79 8.03636078716347790e-01
30 79 8.15511908375088579e-01
31 79 8.28377390505390832e-01
32 79 8.42232525107254770e-01
33 79 8.57077312180680728e-01
34 79 8.64994531953174439e-01
35 79 8.57077312180680728e-01
36 79 8.42232525107254881e-01
37 79 8.28377390505390832e-01
38 79 8.15511908375088579e-01
39 79 8.03636078716347790e-01
40 79 7.92749901529168799e-01
41 79 7.82853376813551494e-01
42 79 7.73946504569495985e-01
43 79 7.66029284797002497e-01
44 79 7.59101717496070028e-01
45 79 7.53163802666699911e-01
46 79 7.48215540308891147e-01
47 79 7.44256930422644403e-01
48 79 7.41287973007959344e-01
49 79 7.39308668064835528e-01
50 79 7.38319015593273953e-01
51 79 7.38319015593273953e-01
52 79 7.39308668064835861e-01
53 79 7.41287973007959233e-01
54 79 7.44256930422644403e-01
55 79 7.48215540308891258e-01
56 79 7.53163802666699911e-01
57 79 7.59101717496069917e-01
58 79 7.66029284797002386e-01
59 79 7.73946504569496097e-01
60 79 7.82853376813551494e-01
61 79 7.92749901529168799e-01
62 79 8.03636078716347790e-01
63 79 8.15511908375088579e-01
64 79 8.28377390505390832e-01
65 79 8.42232525107254770e-01
66 79 8.57077312180680728e-01
67 79 8.64994531953174439e-01
68 79 8.57077312180680728e-01
69 79 8.42232525107254881e-01
70 79 8.28377390505390832e-01
71 79 8.15511908375088579e-01
72 79 8.03636078716347790e-01
73 79 7.92749901529168799e-01
74 79 7.82853376813551494e-01
75 79 7.73946504569495985e-01
76 79 7.66029284797002497e-01
77 79 7.59101717496070028e-01
78 79 7.53163802666699911e-01
79 79 7.48215540308891147e-01
80 79 7.44256930422644403e-01
81 79 7.41287973007959344e-01
82 79 7.39308668064835528e-01
83 79 7.38319015593273953e-01
84 79 7.38319015593273953e-01
85 79 7.39308668064835861e-01
86 79 7.41287973007959233e-01
87 79 7.44256930422644403e-01
88 79 7.48215540308891258e-01
89 79 7.53163802666699911e-01
90 79 7.59101717496069917e-01
91 79 7.66029284797002386e-01
92 79 7.73946504569496097e-01
93 79 7.82853376813551494e-01
94 79 7.92749901529168799e-01
95 79 8.03636078716347790e-01
96 79 8.15511908375088579e-01
97 79 8.28377390505390832e-01
98 79 8.42232525107254770e-01
99 79 8.57077312180680728e-01
100 79 8.64994531953174439e-01
101 79 8.57077312180680728e-01
102 79 8.42232525107254881e-01
103 79 8.28377390505390832e-01
104 79 8.15511908375088579e-01
105 79 8.03636078716347790e-01
106 79 7.92749901529168799e-01
107 79 7.82853376813551494e-01
108 79 7.73946504569495985e-01
109 79 7.66029284797002497e-01
110 79 7.59101717496070028e-01
111 79 7.53163802666699911e-01
112 79 7.48215540308891147e-01
113 79 7.44256930422644403e-01
114 79 7.41287973007959344e-01
115 79 7.39308668064835528e-01
116 79 7.38319015593273953e-01
117 79 7.38319015593273953e-01
118 79 7.39308668064835861e-01
119 79 7.41287973007959233e-01
120 79 7.44256930422644403e-01
121 79 7.48215540308891258e-01
122 79 7.53163802666699911e-01
123 79 7.59101717496069917e-01
124 79 7.66029284797002386e-01
125 79 7.73946504569496097e-01
126 79 7.82853376813551494e-01
127 79 7.92749901529168799e-01
128 79 8.03636078716347790e-01
129 79 8.15511908375088579e-01
130 79 8.28377390505390832e-01
131 79 8.42232525107254770e-01
132 79 8.57077312180680728e-01
133 79 8.64994531953174439e-01
1 80 8.60418075409214334e-01
2 80 8.52542743545718018e-01
3 80 8.37776496301662510e-01
4 80 8.23994665540544124e-01
5 80 8.11197251262362862e-01
6 80 7.99384253467118278e-01
7 80 7.88555672154810816e-01
8 80 7.78711507325440477e-01
9 80 7.69851758979007150e-01
10 80 7.61976427115511279e-01
11 80 7.55085511734951531e-01
12 80 7.49179012837329572e-01
13 80 7.44256930422644292e-01
14 80 7.40319264490896245e-01
15 80 7.37366015042085321e-01
16 80 7.35397182076210854e-01
17 80 7.34412765593273953e-01
18 80 7.34412765593273953e-01
19 80 7.35397182076211187e-01
20 80 7.37366015042085210e-01
21 80 7.40319264490896245e-01
22 80 7.44256930422644292e-01
23 80 7.49179012837329572e-01
24 80 7.55085511734951531e-01
25 80 7.61976427115511168e-01
26 80 7.69851758979007261e-01
27 80 7.78711507325440477e-01
28 80 7.88555672154810816e-01
29 80 7.99384253467118278e-01
30 80 8.11197251262362862e-01
31 80 8.23994665540544124e-01
32 80 8.37776496301662399e-01
33 80 8.52542743545718018e-01
34 80 8.60418075409214334e-01
35 80 8.52542743545718018e-01
36 80 8.37776496301662510e-01
37 80 8.23994665540544124e-01
38 80 8.11197251262362862e-01
39 80 7.99384253467118278e-01
40 80 7.88555672154810816e-01
41 80 7.78711507325440477e-01
42 80 7.69851758979007150e-01
43 80 7.61976427115511279e-01
44 80 7.55085511734951531e-01
45 80 7.49179012837329572e-01
46 80 7.44256930422644292e-01
47 80 7.40319264490896245e-01
48 80 7.37366015042085321e-01
49 80 7.35397182076210854e-01
50 80 7.34412765593273953e-01
51 80 7.34412765593273953e-01
52 80 7.35397182076211187e-01
53 80 7.37366015042085210e-01
54 80 7.40319264490896245e-01
55 80 7.44256930422644292e-01
56 80 7.49179012837329572e-01
57 80 7.55085511734951531e-01
58 80 7.61976427115511168e-01
59 80 7.69851758979007261e-01
60 80 7.78711507325440477e-01
61 80 7.88555672154810816e-01
62 80 7.99384253467118278e-01
63 80 8.11197251262362862e-01
64 80 8.23994665540544124e-01
65 80 8.37776496301662399e-01
66 80 8.52542743545718018e-01
67 80 8.60418075409214334e-01
68 80 8.52542743545718018e-01
69 80 8.37776496301662510e-01
70 80 8.23994665540544124e-01
71 80 8.11197251262362862e-01
72 80 7.99384253467118278e-01
73 80 7.88555672154810816e-01
74 80 7.78711507325440477e-01
75 80 7.69851758979007150e-01
76 80 7.61976427115511279e-01
77 80 7.55085511734951531e-01
78 80 7.49179012837329572e-01
79 80 7.44256930422644292e-01
80 80 7.40319264490896245e-01
81 80 7.37366015042085321e-01
82 80 7.35397182076210854e-01
83 80 7.34412765593273953e-01
84 80 7.34412765593273953e-01
85 80 7.35397182076211187e-01
86 80 7.37366015042085210e-01
87 80 7.40319264490896245e-01
88 80 7.44256930422644292e-01
89 80 7.49179012837329572e-01
90 80 7.55085511734951531e-01
91 80 7.61976427115511168e-01
92 80 7.69851758979007261e-01
93 80 7.78711507325440477e-01
94 80 7.88555672154810816e-01
95 80 7.99384253467118278e-01
96 80 8.11197251262362862e-01
97 80 8.23994665540544124e-01
98 80 8.37776496301662399e-01
99 80 8.52542743545718018e-01
100 80 8.60418075409214334e-01
101 80 8.52542743545718018e-01
102 80 8.37776496301662510e-01
103 80 8.23994665540544124e-01
104 80 8.11197251262362862e-01
105 80 7.99384253467118278e-01
106 80 7.88555672154810816e-01
107 80 7.78711507325440477e-01
108 80 7.69851758979007150e-01
109 80 7.61976427115511279e-01
110 80 7.55085511734951531e-01
111 80 7.49179012837329572e-01
112 80 7.44256930422644292e-01
113 80 7.40319264490896245e-01
114 80 7.37366015042085321e-01
115 80 7.35397182076210854e-01
116 80 7.34412765593273953e-01
117 80 7.34412765593273953e-01
118 80 7.35397182076211187e-01
119 80 7.37366015042085210e-01
120 80 7.40319264490896245e-01
121 80 7.44256930422644292e-01
122 80 7.49179012837329572e-01
123 80 7.55085511734951531e-01
124 80 7.61976427115511168e-01
125 80 7.69851758979007261e-01
126 80 7.78711507325440477e-01
127 80 7.88555672154810816e-01
128 80 7.99384253467118278e-01
129 80 8.11197251262362862e-01
130 80 8.23994665540544124e-01
131 80 8.37776496301662399e-01
132 80 8.52542743545718018e-01
133 80 8.60418075409214334e-01
1 81 8.56985733001244254e-01
2 81 8.49141817069495874e-01
3 81 8.34434474697468231e-01
4 81 8.20707621816909150e-01
5 81 8.07961258427818518e-01
6 81 7.96195384530196115e-01
7 81 7.85410000124042273e-01
8 81 7.75605105209357215e-01
9 81 7.66780699786140496e-01
10 81 7.58936783854392782e-01
11 81 7.52073357414112742e-01
12 81 7.46190420465301818e-01
13 81 7.41287973007959122e-01
14 81 7.37366015042085099e-01
15 81 7.34424546567679748e-01
16 81 7.32463567584742292e-01
17 81 7.31483078093273953e-01
18 81 7.31483078093273953e-01
19 81 7.32463567584742736e-01
20 81 7.34424546567679637e-01
21 81 7.37366015042085099e-01
22 81 7.41287973007959122e-01
23 81 7.46190420465301818e-01
24 81 7.52073357414112742e-01
25 81 7.58936783854392560e-01
26 81 7.66780699786140607e-01
27 81 7.75605105209357215e-01
28 81 7.85410000124042273e-01
29 81 7.96195384530196115e-01
30 81 8.07961258427818518e-01
31 81 8.20707621816909150e-01
32 81 8.34434474697468120e-01
33 81 8.49141817069495874e-01
34 81 8.56985733001244254e-01
35 81 8.49141817069495874e-01
36 81 8.34434474697468231e-01
37 81 8.20707621816909150e-01
38 81 8.07961258427818518e-01
39 81 7.96195384530196115e-01
40 81 7.85410000124042273e-01
41 81 7.75605105209357215e-01
42 81 7.66780699786140496e-01
43 81 7.58936783854392782e-01
44 81 7.52073357414112742e-01
45 81 7.46190420465301818e-01
46 81 7.41287973007959122e-01
47 81 7.37366015042085099e-01
48 81 7.34424546567679748e-01
49 81 7.32463567584742292e-01
50 81 7.31483078093273953e-01
51 81 7.31483078093273953e-01
52 81 7.32463567584742736e-01
53 81 7.34424546567679637e-01
54 81 7.37366015042085099e-01
55 81 7.41287973007959122e-01
56 81 7.46190420465301818e-01
57 81 7.52073357414112742e-01
58 81 7.58936783854392560e-01
59 81 7.66780699786140607e-01
60 81 7.75605105209357215e-01
61 81 7.85410000124042273e-01
62 81 7.96195384530196115e-01
63 81 8.07961258427818518e-01
64 81 8.20707621816909150e-01
65 81 8.34434474697468120e-01
66 81 8.49141817069495874e-01
67 81 8.56985733001244254e-01
68 81 8.49141817069495874e-01
69 81 8.34434474697468231e-01
70 81 8.20707621816909150e-01
71 81 8.07961258427818518e-01
72 81 7.96195384530196115e-01
73 81 7.85410000124042273e-01
74 81 7.75605105209357215e-01
75 81 7.66780699786140496e-01
76 81 7.58936783854392782e-01
77 81 7.52073357414112742e-01
78 81 7.46190420465301818e-01
79 81 7.41287973007959122e-01
80 81 7.37366015042085099e-01
81 81 7.34424546567679748e-01
82 81 7.32463567584742292e-01
83 81 7.31483078093273953e-01
84 81 7.31483078093273953e-01
85 81 7.32463567584742736e-01
86 81 7.34424546567679637e-01
87 81 7.37366015042085099e-01
88 81 7.41287973007959122e-01
89 81 7.46190420465301818e-01
90 81 7.52073357414112742e-01
91 81 7.58936783854392560e-01
92 81 7.66780699786140607e-01
93 81 7.75605105209357215e-01
94 81 7.85410000124042273e-01
95 81 7.96195384530196115e-01
96 81 8.07961258427818518e-01
97 81 8.20707621816909150e-01
98 81 8.34434474697468120e-01
99 81 8.49141817069495874e-01
100 81 8.56985733001244254e-01
101 81 8.49141817069495874e-01
102 81 8.34434474697468231e-01
103 81 8.20707621816909150e-01
104 81 8.07961258427818518e-01
105 81 7.96195384530196115e-01
106 81 7.85410000124042273e-01
107 81 7.75605105209357215e-01
108 81 7.66780699786140496e-01
109 81 7.58936783854392782e-01
110 81 7.52073357414112742e-01
111 81 7.46190420465301818e-01
112 81 7.41287973007959122e-01
113 81 7.37366015042085099e-01
114 81 7.34424546567679748e-01
115 81 7.32463567584742292e-01
116 81 7.31483078093273953e-01
117 81 7.31483078093273953e-01
118 81 7.32463567584742736e-01
119 81 7.34424546567679637e-01
120 81 7.37366015042085099e-01
121 81 7.41287973007959122e-01
122 81 7.46190420465301818e-01
123 81 7.52073357414112742e-01
124 81 7.58936783854392560e-01
125 81 7.66780699786140607e-01
126 81 7.75605105209357215e-01
127 81 7.85410000124042273e-01
128 81 7.96195384530196115e-01
129 81 8.07961258427818518e-01
130 81 8.20707621816909150e-01
131 81 8.34434474697468120e-01
132 81 8.49141817069495874e-01
133 81 8.56985733001244254e-01
1 82 8.54697504729264090e-01
2 82 8.46874532752014408e-01
3 82 8.32206460294672046e-01
4 82 8.18516259334485685e-01
5 82 8.05803929871455660e-01
6 82 7.94069471905581303e-01
7 82 7.83312885436863282e-01
8 82 7.73534170465301596e-01
9 82 7.64733326990896023e-01
10 82 7.56910355013647118e-01
11 82 7.50065254533553438e-01
12 82 7.44198025550616538e-01
13 82 7.39308668064835639e-01
14 82 7.35397182076210965e-01
15 82 7.32463567584742736e-01
16 82 7.30507824590429955e-01
17 82 7.29529953093273842e-01
18 82 7.29529953093273842e-01
19 82 7.30507824590430399e-01
20 82 7.32463567584742514e-01
21 82 7.35397182076210965e-01
22 82 7.39308668064835639e-01
23 82 7.44198025550616538e-01
24 82 7.50065254533553438e-01
25 82 7.56910355013646896e-01
26 82 7.64733326990896134e-01
27 82 7.73534170465301596e-01
28 82 7.83312885436863282e-01
29 82 7.94069471905581303e-01
30 82 8.05803929871455660e-01
31 82 8.18516259334485685e-01
32 82 8.32206460294671935e-01
33 82 8.46874532752014408e-01
34 82 8.54697504729264090e-01
35 82 8.46874532752014408e-01
36 82 8.32206460294672046e-01
37 82 8.18516259334485685e-01
38 82 8.05803929871455660e-01
39 82 7.94069471905581303e-01
40 82 7.83312885436863282e-01
41 82 7.73534170465301596e-01
42 82 7.64733326990896023e-01
43 82 7.56910355013647118e-01
44 82 7.50065254533553438e-01
45 82 7.44198025550616538e-01
46 82 7.39308668064835639e-01
47 82 7.35397182076210965e-01
48 82 7.32463567584742736e-01
49 82 7.30507824590429955e-01
50 82 7.29529953093273842e-01
51 82 7.29529953093273842e-01
52 82 7.30507824590430399e-01
53 82 7.32463567584742514e-01
54 82 7.35397182076210965e-01
55 82 7.39308668064835639e-01
56 82 7.44198025550616538e-01
57 82 7.50065254533553438e-01
58 82 7.56910355013646896e-01
59 82 7.64733326990896134e-01
60 82 7.73534170465301596e-01
61 82 7.83312885436863282e-01
62 82 7.94069471905581303e-01
63 82 8.05803929871455660e-01
64 82 8.18516259334485685e-01
65 82 8.32206460294671935e-01
66 82 8.46874532752014408e-01
67 82 8.54697504729264090e-01
68 82 8.46874532752014408e-01
69 82 8.32206460294672046e-01
70 82 8.18516259334485685e-01
71 82 8.05803929871455660e-01
72 82 7.94069471905581303e-01
73 82 7.83312885436863282e-01
74 82 7.73534170465301596e-01
75 82 7.64733326990896023e-01
76 82 7.56910355013647118e-01
77 82 7.50065254533553438e-01
78 82 7.44198025550616538e-01
79 82 7.39308668064835639e-01
80 82 7.35397182076210965e-01
81 82 7.32463567584742736e-01
82 82 7.30507824590429955e-01
83 82 7.29529953093273842e-01
84 82 7.29529953093273842e-01
85 82 7.30507824590430399e-01
86 82 7.32463567584742514e-01
87 82 7.35397182076210965e-01
88 82 7.39308668064835639e-01
89 82 7.44198025550616538e-01
90 82 7.50065254533553438e-01
91 82 7.56910355013646896e-01
92 82 7.64733326990896134e-01
93 82 7.73534170465301596e-01
94 82 7.83312885436863282e-01
95 82 7.94069471905581303e-01
96 82 8.05803929871455660e-01
97 82 8.18516259334485685e-01
98 82 8.32206460294671935e-01
99 82 8.46874532752014408e-01
100 82 8.54697504729264090e-01
101 82 8.46874532752014408e-01
102 82 8.32206460294672046e-01
103 82 8.18516259334485685e-01
104 82 8.05803929871455660e-01
105 82 7.94069471905581303e-01
106 82 7.83312885436863282e-01
107 82 7.73534170465301596e-01
108 82 7.64733326990896023e-01
109 82 7.56910355013647118e-01
110 82 7.50065254533553438e-01
111 82 7.44198025550616538e-01
112 82 7.39308668064835639e-01
113 82 7.35397182076210965e-01
114 82 7.32463567584742736e-01
115 82 7.30507824590429955e-01
116 82 7.29529953093273842e-01
117 82 7.29529953093273842e-01
118 82 7.30507824590430399e-01
119 82 7.32463567584742514e-01
120 82 7.35397182076210965e-01
121 82 7.39308668064835639e-01
122 82 7.44198025550616538e-01
123 82 7.50065254533553438e-01
124 82 7.56910355013646896e-01
125 82 7.64733326990896134e-01
126 82 7.73534170465301596e-01
127 82 7.83312885436863282e-01
128 82 7.94069471905581303e-01
129 82 8.05803929871455660e-01
130 82 8.18516259334485685e-01
131 82 8.32206460294671935e-01
132 82 8.46874532752014408e-01
133 82 8.54697504729264090e-01
1 83 8.53553390593274064e-01
2 83 8.45740890593273731e-01
3 83 8.31092453093273953e-01
4 83 8.17420578093274064e-01
5 83 8.04725265593274175e-01
6 83 7.93006515593273953e-01
7 83 7.82264328093273842e-01
8 83 7.72498703093273842e-01
9 83 7.63709640593273842e-01
10 83 7.55897140593274286e-01
11 83 7.49061203093273842e-01
12 83 7.43201828093273953e-01
13 83 7.38319015593273953e-01
14 83 7.34412765593273953e-01
15 83 7.31483078093274175e-01
16 83 7.29529953093273842e-01
17 83 7.28553390593273842e-01
18 83 7.28553390593273842e-01
19 83 7.29529953093274175e-01
20 83 7.31483078093273953e-01
21 83 7.34412765593273953e-01
22 83 7.38319015593273953e-01
23 83 7.43201828093273953e-01
24 83 7.49061203093273842e-01
25 83 7.55897140593274064e-01
26 83 7.63709640593273953e-01
27 83 7.72498703093273842e-01
28 83 7.82264328093273842e-01
29 83 7.93006515593273953e-01
30 83 8.04725265593274175e-01
31 83 8.17420578093273953e-01
32 83 8.31092453093273842e-01
33 83 8.45740890593273731e-01
34 83 8.53553390593274064e-01
35 83 8.45740890593273731e-01
36 83 8.31092453093273953e-01
37 83 8.17420578093274064e-01
38 83 8.04725265593274175e-01
39 83 7.93006515593273953e-01
40 83 7.82264328093273842e-01
41 83 7.72498703093273842e-01
42 83 7.63709640593273842e-01
43 83 7.55897140593274286e-01
44 83 7.49061203093273842e-01
45 83 7.43201828093273953e-01
46 83 7.38319015593273953e-01
47 83 7.34412765593273953e-01
48 83 7.31483078093274175e-01
49 83 7.29529953093273842e-01
50 83 7.28553390593273842e-01
51 83 7.28553390593273842e-01
52 83 7.29529953093274175e-01
53 83 7.31483078093273953e-01
54 83 7.34412765593273953e-01
55 83 7.38319015593273953e-01
56 83 7.43201828093273953e-01
57 83 7.49061203093273842e-01
58 83 7.55897140593274064e-01
59 83 7.63709640593273953e-01
60 83 7.72498703093273842e-01
61 83 7.82264328093273842e-01
62 83 7.93006515593273953e-01
63 83 8.04725265593274175e-01
64 83 8.17420578093273953e-01
65 83 8.31092453093273842e-01
66 83 8.45740890593273731e-01
67 83 8.53553390593274064e-01
68 83 8.45740890593273731e-01
69 83 8.31092453093273953e-01
70 83 8.17420578093274064e-01
71 83 8.04725265593274175e-01
72 83 7.93006515593273953e-01
73 83 7.82264328093273842e-01
74 83 7.72498703093273842e-01
75 83 7.63709640593273842e-01
76 83 7.55897140593274286e-01
77 83 7.49061203093273842e-01
78 83 7.43201828093273953e-01
79 83 7.38319015593273953e-01
80 83 7.34412765593273953e-01
81 83 7.31483078093274175e-01
82 83 7.29529953093273842e-01
83 83 7.28553390593273842e-01
84 83 7.28553390593273842e-01
85 83 7.29529953093274175e-01
86 83 7.31483078093273953e-01
87 83 7.34412765593273953e-01
88 83 7.38319015593273953e-01
89 83 7.43201828093273953e-01
90 83 7.49061203093273842e-01
91 83 7.55897140593274064e-01
92 83 7.63709640593273953e-01
93 83 7.72498703093273842e-01
94 83 7.82264328093273842e-01
95 83 7.93006515593273953e-01
96 83 8.04725265593274175e-01
97 83 8.17420578093273953e-01
98 83 8.31092453093273842e-01
99 83 8.45740890593273731e-01
100 83 8.53553390593274064e-01
101 83 8.45740890593273731e-01
102 83 8.31092453093273953e-01
103 83 8.17420578093274064e-01
104 83 8.04725265593274175e-01
105 83 7.93006515593273953e-01
106 83 7.82264328093273842e-01
107 83 7.72498703093273842e-01
108 83 7.63709640593273842e-01
109 83 7.55897140593274286e-01
110 83 7.49061203093273842e-01
111 83 7.43201828093273953e-01
112 83 7.38319015593273953e-01
113 83 7.34412765593273953e-01
114 83 7.31483078093274175e-01
115 83 7.29529953093273842e-01
116 83 7.28553390593273842e-01
117 83 7.28553390593273842e-01
118 83 7.29529953093274175e-01
119 83 7.31483078093273953e-01
120 83 7.34412765593273953e-01
121 83 7.38319015593273953e-01
122 83 7.43201828093273953e-01
123 83 7.49061203093273842e-01
124 83 7.55897140593274064e-01
125 83 7.63709640593273953e-01
126 83 7.72498703093273842e-01
127 83 7.82264328093273842e-01
128 83 7.93006515593273953e-01
129 83 8.04725265593274175e-01
130 83 8.17420578093273953e-01
131 83 8.31092453093273842e-01
132 83 8.45740890593273731e-01
133 83 8.53553390593274064e-01
1 84 8.53553390593274064e-01
2 84 8.45740890593273842e-01
3 84 8.31092453093274064e-01
4 84 8.17420578093274175e-01
5 84 8.04725265593274286e-01
6 84 7.93006515593273953e-01
7 84 7.82264328093273953e-01
8 84 7.72498703093273842e-01
9 84 7.63709640593273953e-01
10 84 7.55897140593274286e-01
11 84 7.49061203093273842e-01
12 84 7.43201828093273953e-01
13 84 7.38319015593273953e-01
14 84 7.34412765593274064e-01
15 84 7.31483078093274175e-01
16 84 7.29529953093273953e-01
17 84 7.28553390593273842e-01
18 84 7.28553390593273842e-01
19 84 7.29529953093274175e-01
20 84 7.31483078093274064e-01
21 84 7.34412765593274064e-01
22 84 7.38319015593273953e-01
23 84 7.43201828093273953e-01
24 84 7.49061203093273842e-01
25 84 7.55897140593274064e-01
26 84 7.63709640593273953e-01
27 84 7.72498703093273842e-01
28 84 7.82264328093273953e-01
29 84 7.93006515593273953e-01
30 84 8.04725265593274175e-01
31 84 8.17420578093274064e-01
32 84 8.31092453093273953e-01
33 84 8.45740890593273842e-01
34 84 8.53553390593274064e-01
35 84 8.45740890593273842e-01
36 84 8.31092453093274064e-01
37 84 8.17420578093274175e-01
38 84 8.04725265593274286e-01
39 84 7.93006515593273953e-01
40 84 7.82264328093273953e-01
41 84 7.72498703093273842e-01
42 84 7.63709640593273953e-01
43 84 7.55897140593274286e-01
44 84 7.49061203093273842e-01
45 84 7.43201828093273953e-01
46 84 7.38319015593273953e-01
47 84 7.34412765593274064e-01
48 84 7.31483078093274175e-01
49 84 7.29529953093273953e-01
50 84 7.28553390593273842e-01
51 84 7.28553390593273842e-01
52 84 7.29529953093274175e-01
53 84 7.31483078093274064e-01
54 84 7.34412765593274064e-01
55 84 7.38319015593273953e-01
56 84 7.43201828093273953e-01
57 84 7.49061203093273842e-01
58 84 7.55897140593274064e-01
59 84 7.63709640593273953e-01
60 84 7.72498703093273842e-01
61 84 7.82264328093273953e-01
62 84 7.93006515593273953e-01
63 84 8.04725265593274175e-01
64 84 8.17420578093274064e-01
65 84 8.31092453093273953e-01
66 84 8.45740890593273842e-01
67 84 8.53553390593274064e-01
68 84 8.45740890593273842e-01
69 84 8.31092453093274064e-01
70 84 8.17420578093274175e-01
71 84 8.04725265593274286e-01
72 84 7.93006515593273953e-01
73 84 7.82264328093273953e-01
74 84 7.72498703093273842e-01
75 84 7.63709640593273953e-01
76 84 7.55897140593274286e-01
77 84 7.49061203093273842e-01
78 84 7.43201828093273953e-01
79 84 7.38319015593273953e-01
80 84 7.34412765593274064e-01
81 84 7.31483078093274175e-01
82 84 7.29529953093273953e-01
83 84 7.28553390593273842e-01
84 84 7.28553390593273842e-01
85 84 7.29529953093274175e-01
86 84 7.31483078093274064e-01
87 84 7.34412765593274064e-01
88 84 7.38319015593273953e-01
89 84 7.43201828093273953e-01
90 84 7.49061203093273842e-01
91 84 7.55897140593274064e-01
92 84 7.63709640593273953e-01
93 84 7.72498703093273842e-01
94 84 7.82264328093273953e-01
95 84 7.93006515593273953e-01
96 84 8.04725265593274175e-01
97 84 8.17420578093274064e-01
98 84 8.31092453093273953e-01
99 84 8.45740890593273842e-01
100 84 8.53553390593274064e-01
101 84 8.45740890593273842e-01
102 84 8.31092453093274064e-01
103 84 8.17420578093274175e-01
104 84 8.04725265593274286e-01
105 84 7.93006515593273953e-01
106 84 7.82264328093273953e-01
107 84 7.72498703093273842e-01
108 84 7.63709640593273953e-01
109 84 7.55897140593274286e-01
110 84 7.49061203093273842e-01
111 84 7.43201828093273953e-01
112 84 7.38319015593273953e-01
113 84 7.34412765593274064e-01
114 84 7.31483078093274175e-01
115 84 7.29529953093273953e-01
116 84 7.28553390593273842e-01
117 84 7.28553390593273842e-01
118 84 7.29529953093274175e-01
119 84 7.31483078093274064e-01
120 84 7.34412765593274064e-01
121 84 7.38319015593273953e-01
122 84 7.43201828093273953e-01
123 84 7.49061203093273842e-01
124 84 7.55897140593274064e-01
125 84 7.63709640593273953e-01
126 84 7.72498703093273842e-01
127 84 7.82264328093273953e-01
128 84 7.93006515593273953e-01
129 84 8.04725265593274175e-01
130 84 8.17420578093274064e-01
131 84 8.31092453093273953e-01
132 84 8.45740890593273842e-01
133 84 8.53553390593274064e-01
1 85 8.54697504729264201e-01
2 85 8.46874532752014630e-01
3 85 8.32206460294672157e-01
4 85 8.18516259334485907e-01
5 85 8.05803929871455771e-01
6 85 7.94069471905581414e-01
7 85 7.83312885436863504e-01
8 85 7.73534170465301596e-01
9 85 7.64733326990896245e-01
10 85 7.56910355013647118e-01
11 85 7.50065254533553549e-01
12 85 7.44198025550616649e-01
13 85 7.39308668064835750e-01
14 85 7.35397182076211076e-01
15 85 7.32463567584742736e-01
16 85 7.30507824590430288e-01
17 85 7.29529953093273953e-01
18 85 7.29529953093273953e-01
19 85 7.30507824590430399e-01
20 85 7.32463567584742625e-01
21 85 7.35397182076211076e-01
22 85 7.39308668064835750e-01
23 85 7.44198025550616649e-01
24 85 7.50065254533553549e-01
25 85 7.56910355013646896e-01
26 85 7.64733326990896245e-01
27 85 7.73534170465301596e-01
28 85 7.83312885436863504e-01
29 85 7.94069471905581414e-01
30 85 8.05803929871455660e-01
31 85 8.18516259334485796e-01
32 85 8.32206460294672046e-01
33 85 8.46874532752014630e-01
34 85 8.54697504729264201e-01
35 85 8.46874532752014630e-01
36 85 8.32206460294672157e-01
37 85 8.18516259334485907e-01
38 85 8.05803929871455771e-01
39 85 7.94069471905581414e-01
40 85 7.83312885436863504e-01
41 85 7.73534170465301596e-01
42 85 7.64733326990896245e-01
43 85 7.56910355013647118e-01
44 85 7.50065254533553549e-01
45 85 7.44198025550616649e-01
46 85 7.39308668064835750e-01
47 85 7.35397182076211076e-01
48 85 7.32463567584742736e-01
49 85 7.30507824590430288e-01
50 85 7.29529953093273953e-01
51 85 7.29529953093273953e-01
52 85 7.30507824590430399e-01
53 85 7.32463567584742625e-01
54 85 7.35397182076211076e-01
55 85 7.39308668064835750e-01
56 85 7.44198025550616649e-01
57 85 7.50065254533553549e-01
58 85 7.56910355013646896e-01
59 85 7.64733326990896245e-01
60 85 7.73534170465301596e-01
61 85 7.83312885436863504e-01
62 85 7.94069471905581414e-01
63 85 8.05803929871455660e-01
64 85 8.18516259334485796e-01
65 85 8.32206460294672046e-01
66 85 8.46874532752014630e-01
67 85 8.54697504729264201e-01
68 85 8.46874532752014630e-01
69 85 8.32206460294672157e-01
70 85 8.18516259334485907e-01
71 85 8.05803929871455771e-01
72 85 7.94069471905581414e-01
73 85 7.83312885436863504e-01
74 85 7.73534170465301596e-01
75 85 7.64733326990896245e-01
76 85 7.56910355013647118e-01
77 85 7.50065254533553549e-01
78 85 7.44198025550616649e-01
79 85 7.39308668064835750e-01
80 85 7.35397182076211076e-01
81 85 7.32463567584742736e-01
82 85 7.30507824590430288e-01
83 85 7.29529953093273953e-01
84 85 7.29529953093273953e-01
85 85 7.30507824590430399e-01
86 85 7.32463567584742625e-01
87 85 7.35397182076211076e-01
88 85 7.39308668064835750e-01
89 85 7.44198025550616649e-01
90 85 7.50065254533553549e-01
91 85 7.56910355013646896e-01
92 85 7.64733326990896245e-01
93 85 7.73534170465301596e-01
94 85 7.83312885436863504e-01
95 85 7.94069471905581414e-01
96 85 8.05803929871455660e-01
97 85 8.18516259334485796e-01
98 85 8.32206460294672046e-01
99 85 8.46874532752014630e-01
100 85 8.54697504729264201e-01
101 85 8.46874532752014630e-01
102 85 8.32206460294672157e-01
103 85 8.18516259334485907e-01
104 85 8.05803929871455771e-01
105 85 7.94069471905581414e-01
106 85 7.83312885436863504e-01
107 85 7.73534170465301596e-01
108 85 7.64733326990896245e-01
109 85 7.56910355013647118e-01
110 85 7.50065254533553549e-01
111 85 7.44198025550616649e-01
112 85 7.39308668064835750e-01
113 85 7.35397182076211076e-01
114 85 7.32463567584742736e-01
115 85 7.30507824590430288e-01
116 85 7.29529953093273953e-01
117 85 7.29529953093273953e-01
118 85 7.30507824590430399e-01
119 85 7.32463567584742625e-01
120 85 7.35397182076211076e-01
121 85 7.39308668064835750e-01
122 85 7.44198025550616649e-01
123 85 7.50065254533553549e-01
124 85 7.56910355013646896e-01
125 85 7.64733326990896245e-01
126 85 7.73534170465301596e-01
127 85 7.83312885436863504e-01
128 85 7.94069471905581414e-01
129 85 8.05803929871455660e-01
130 85 8.18516259334485796e-01
131 85 8.32206460294672046e-01
132 85 8.46874532752014630e-01
133 85 8.54697504729264201e-01
1 86 8.56985733001244254e-01
2 86 8.49141817069495985e-01
3 86 8.34434474697468342e-01
4 86 8.20707621816909261e-01
5 86 8.07961258427818629e-01
6 86 7.96195384530196226e-01
7 86 7.85410000124042496e-01
8 86 7.75605105209357104e-01
9 86 7.66780699786140718e-01
10 86 7.58936783854392782e-01
11 86 7.52073357414112853e-01
12 86 7.46190420465301818e-01
13 86 7.41287973007959122e-01
14 86 7.37366015042085099e-01
15 86 7.34424546567679859e-01
16 86 7.32463567584742625e-01
17 86 7.31483078093273953e-01
18 86 7.31483078093273953e-01
19 86 7.32463567584742736e-01
20 86 7.34424546567679637e-01
21 86 7.37366015042085099e-01
22 86 7.41287973007959122e-01
23 86 7.46190420465301818e-01
24 86 7.52073357414112853e-01
25 86 7.58936783854392560e-01
26 86 7.66780699786140718e-01
27 86 7.75605105209357104e-01
28 86 7.85410000124042496e-01
29 86 7.96195384530196226e-01
30 86 8.07961258427818518e-01
31 86 8.20707621816909150e-01
32 86 8.34434474697468120e-01
33 86 8.49141817069495985e-01
34 86 8.56985733001244254e-01
35 86 8.49141817069495985e-01
36 86 8.34434474697468342e-01
37 86 8.20707621816909261e-01
38 86 8.07961258427818629e-01
39 86 7.96195384530196226e-01
40 86 7.85410000124042496e-01
41 86 7.75605105209357104e-01
42 86 7.66780699786140718e-01
43 86 7.58936783854392782e-01
44 86 7.52073357414112853e-01
45 86 7.46190420465301818e-01
46 86 7.41287973007959122e-01
47 86 7.37366015042085099e-01
48 86 7.34424546567679859e-01
49 86 7.32463567584742625e-01
50 86 7.31483078093273953e-01
51 86 7.31483078093273953e-01
52 86 7.32463567584742736e-01
53 86 7.34424546567679637e-01
54 86 7.37366015042085099e-01
55 86 7.41287973007959122e-01
56 86 7.46190420465301818e-01
57 86 7.52073357414112853e-01
58 86 7.58936783854392560e-01
59 86 7.66780699786140718e-01
60 86 7.75605105209357104e-01
61 86 7.85410000124042496e-01
62 86 7.96195384530196226e-01
63 86 8.07961258427818518e-01
64 86 8.20707621816909150e-01
65 86 8.34434474697468120e-01
66 86 8.49141817069495985e-01
67 86 8.56985733001244254e-01
68 86 8.49141817069495985e-01
69 86 8.34434474697468342e-01
70 86 8.20707621816909261e-01
71 86 8.07961258427818629e-01
72 86 7.96195384530196226e-01
73 86 7.85410000124042496e-01
74 86 7.75605105209357104e-01
75 86 7.66780699786140718e-01
76 86 7.58936783854392782e-01
77 86 7.52073357414112853e-01
78 86 7.46190420465301818e-01
79 86 7.41287973007959122e-01
80 86 7.37366015042085099e-01
81 86 7.34424546567679859e-01
82 86 7.32463567584742625e-01
83 86 7.31483078093273953e-01
84 86 7.31483078093273953e-01
85 86 7.32463567584742736e-01
86 86 7.34424546567679637e-01
87 86 7.37366015042085099e-01
88 86 7.41287973007959122e-01
89 86 7.46190420465301818e-01
90 86 7.52073357414112853e-01
91 86 7.58936783854392560e-01
92 86 7.66780699786140718e-01
93 86 7.75605105209357104e-01
94 86 7.85410000124042496e-01
95 86 7.96195384530196226e-01
96 86 8.07961258427818518e-01
97 86 8.20707621816909150e-01
98 86 8.34434474697468120e-01
99 86 8.49141817069495985e-01
100 86 8.56985733001244254e-01
101 86 8.49141817069495985e-01
102 86 8.34434474697468342e-01
103 86 8.20707621816909261e-01
104 86 8.07961258427818629e-01
105 86 7.96195384530196226e-01
106 86 7.85410000124042496e-01
107 86 7.75605105209357104e-01
108 86 7.66780699786140718e-01
109 86 7.58936783854392782e-01
110 86 7.52073357414112853e-01
111 86 7.46190420465301818e-01
112 86 7.41287973007959122e-01
113 86 7.37366015042085099e-01
114 86 7.34424546567679859e-01
115 86 7.32463567584742625e-01
116 86 7.31483078093273953e-01
117 86 7.31483078093273953e-01
118 86 7.32463567584742736e-01
119 86 7.34424546567679637e-01
120 86 7.37366015042085099e-01
121 86 7.41287973007959122e-01
122 86 7.46190420465301818e-01
123 86 7.52073357414112853e-01
124 86 7.58936783854392560e-01
125 86 7.66780699786140718e-01
126 86 7.75605105209357104e-01
127 86 7.85410000124042496e-01
128 86 7.96195384530196226e-01
129 86 8.07961258427818518e-01
130 86 8.20707621816909150e-01
131 86 8.34434474697468120e-01
132 86 8.49141817069495985e-01
133 86 8.56985733001244254e-01
1 87 8.60418075409214334e-01
2 87 8.52542743545718018e-01
3 87 8.37776496301662510e-01
4 87 8.23994665540544236e-01
5 87 8.11197251262362862e-01
6 87 7.99384253467118278e-01
7 87 7.88555672154810816e-01
8 87 7.78711507325440366e-01
9 87 7.69851758979007372e-01
10 87 7.61976427115511279e-01
11 87 7.55085511734951753e-01
12 87 7.49179012837329572e-01
13 87 7.44256930422644292e-01
14 87 7.40319264490896245e-01
15 87 7.37366015042085321e-01
16 87 7.35397182076211076e-01
17 87 7.34412765593273953e-01
18 87 7.34412765593273953e-01
19 87 7.35397182076211187e-01
20 87 7.37366015042085099e-01
21 87 7.40319264490896245e-01
22 87 7.44256930422644292e-01
23 87 7.49179012837329572e-01
24 87 7.55085511734951753e-01
25 87 7.61976427115510946e-01
26 87 7.69851758979007261e-01
27 87 7.78711507325440366e-01
28 87 7.88555672154810816e-01
29 87 7.99384253467118278e-01
30 87 8.11197251262362751e-01
31 87 8.23994665540544124e-01
32 87 8.37776496301662288e-01
33 87 8.52542743545718018e-01
34 87 8.60418075409214334e-01
35 87 8.52542743545718018e-01
36 87 8.37776496301662510e-01
37 87 8.23994665540544236e-01
38 87 8.11197251262362862e-01
39 87 7.99384253467118278e-01
40 87 7.88555672154810816e-01
41 87 7.78711507325440366e-01
42 87 7.69851758979007372e-01
43 87 7.61976427115511279e-01
44 87 7.55085511734951753e-01
45 87 7.49179012837329572e-01
46 87 7.44256930422644292e-01
47 87 7.40319264490896245e-01
48 87 7.37366015042085321e-01
49 87 7.35397182076211076e-01
50 87 7.34412765593273953e-01
51 87 7.34412765593273953e-01
52 87 7.35397182076211187e-01
53 87 7.37366015042085099e-01
54 87 7.40319264490896245e-01
55 87 7.44256930422644292e-01
56 87 7.49179012837329572e-01
57 87 7.55085511734951753e-01
58 87 7.61976427115510946e-01
59 87 7.69851758979007261e-01
60 87 7.78711507325440366e-01
61 87 7.88555672154810816e-01
62 87 7.99384253467118278e-01
63 87 8.11197251262362751e-01
64 87 8.23994665540544124e-01
65 87 8.37776496301662288e-01
66 87 8.52542743545718018e-01
67 87 8.60418075409214334e-01
68 87 8.52542743545718018e-01
69 87 8.37776496301662510e-01
70 87 8.23994665540544236e-01
71 87 8.11197251262362862e-01
72 87 7.99384253467118278e-01
73 87 7.88555672154810816e-01
74 87 7.78711507325440366e-01
75 87 7.69851758979007372e-01
76 87 7.61976427115511279e-01
77 87 7.55085511734951753e-01
78 87 7.49179012837329572e-01
79 87 7.44256930422644292e-01
80 87 7.40319264490896245e-01
81 87 7.37366015042085321e-01
82 87 7.35397182076211076e-01
83 87 7.34412765593273953e-01
84 87 7.34412765593273953e-01
85 87 7.35397182076211187e-01
86 87 7.37366015042085099e-01
87 87 7.40319264490896245e-01
88 87 7.44256930422644292e-01
89 87 7.49179012837329572e-01
90 87 7.55085511734951753e-01
91 87 7.61976427115510946e-01
92 87 7.69851758979007261e-01
93 87 7.78711507325440366e-01
94 87 7.88555672154810816e-01
95 87 7.99384253467118278e-01
96 87 8.11197251262362751e-01
97 87 8.23994665540544124e-01
98 87 8.37776496301662288e-01
99 87 8.52542743545718018e-01
100 87 8.60418075409214334e-01
101 87 8.52542743545718018e-01
102 87 8.37776496301662510e-01
103 87 8.23994665540544236e-01
104 87 8.11197251262362862e-01
105 87 7.99384253467118278e-01
106 87 7.88555672154810816e-01
107 87 7.78711507325440366e-01
108 87 7.69851758979007372e-01
109 87 7.61976427115511279e-01
110 87 7.55085511734951753e-01
111 87 7.49179012837329572e-01
112 87 7.44256930422644292e-01
113 87 7.40319264490896245e-01
114 87 7.37366015042085321e-01
115 87 7.35397182076211076e-01
116 87 7.34412765593273953e-01
117 87 7.34412765593273953e-01
118 87 7.35397182076211187e-01
119 87 7.37366015042085099e-01
120 87 7.40319264490896245e-01
121 87 7.44256930422644292e-01
122 87 7.49179012837329572e-01
123 87 7.55085511734951753e-01
124 87 7.61976427115510946e-01
125 87 7.69851758979007261e-01
126 87 7.78711507325440366e-01
127 87 7.88555672154810816e-01
128 87 7.99384253467118278e-01
129 87 8.11197251262362751e-01
130 87 8.23994665540544124e-01
131 87 8.37776496301662288e-01
132 87 8.52542743545718018e-01
133 87 8.60418075409214334e-01
1 88 8.64994531953174550e-01
2 88 8.57077312180680728e-01
3 88 8.42232525107254881e-01
4 88 8.28377390505390943e-01
5 88 8.15511908375088579e-01
6 88 8.03636078716347790e-01
7 88 7.92749901529168688e-01
8 88 7.82853376813551383e-01
9 88 7.73946504569496208e-01
10 88 7.66029284797002497e-01
11 88 7.59101717496070139e-01
12 88 7.53163802666699911e-01
13 88 7.48215540308891147e-01
14 88 7.44256930422644403e-01
15 88 7.41287973007959455e-01
16 88 7.39308668064835750e-01
17 88 7.38319015593273953e-01
18 88 7.38319015593273953e-01
19 88 7.39308668064835861e-01
20 88 7.41287973007959233e-01
21 88 7.44256930422644403e-01
22 88 7.48215540308891147e-01
23 88 7.53163802666699911e-01
24 88 7.59101717496070139e-01
25 88 7.66029284797002274e-01
26 88 7.73946504569496097e-01
27 88 7.82853376813551383e-01
28 88 7.92749901529168688e-01
29 88 8.03636078716347790e-01
30 88 8.15511908375088468e-01
31 88 8.28377390505390832e-01
32 88 8.42232525107254659e-01
33 88 8.57077312180680728e-01
34 88 8.64994531953174550e-01
35 88 8.57077312180680728e-01
36 88 8.42232525107254881e-01
37 88 8.28377390505390943e-01
38 88 8.15511908375088579e-01
39 88 8.03636078716347790e-01
40 88 7.92749901529168688e-01
41 88 7.82853376813551383e-01
42 88 7.73946504569496208e-01
43 88 7.66029284797002497e-01
44 88 7.59101717496070139e-01
45 88 7.53163802666699911e-01
46 88 7.48215540308891147e-01
47 88 7.44256930422644403e-01
48 88 7.41287973007959455e-01
49 88 7.39308668064835750e-01
50 88 7.38319015593273953e-01
51 88 7.38319015593273953e-01
52 88 7.39308668064835861e-01
53 88 7.41287973007959233e-01
54 88 7.44256930422644403e-01
55 88 7.48215540308891147e-01
56 88 7.53163802666699911e-01
57 88 7.59101717496070139e-01
58 88 7.66029284797002274e-01
59 88 7.73946504569496097e-01
60 88 7.82853376813551383e-01
61 88 7.92749901529168688e-01
62 88 8.03636078716347790e-01
63 88 8.15511908375088468e-01
64 88 8.28377390505390832e-01
65 88 8.42232525107254659e-01
66 88 8.57077312180680728e-01
67 88 8.64994531953174550e-01
68 88 8.57077312180680728e-01
69 88 8.42232525107254881e-01
70 88 8.28377390505390943e-01
71 88 8.15511908375088579e-01
72 88 8.03636078716347790e-01
73 88 7.92749901529168688e-01
74 88 7.82853376813551383e-01
75 88 7.73946504569496208e-01
76 88 7.66029284797002497e-01
77 88 7.59101717496070139e-01
78 88 7.53163802666699911e-01
79 88 7.48215540308891147e-01
80 88 7.44256930422644403e-01
81 88 7.41287973007959455e-01
82 88 7.39308668064835750e-01
83 88 7.38319015593273953e-01
84 88 7.38319015593273953e-01
85 88 7.39308668064835861e-01
86 88 7.41287973007959233e-01
87 88 7.44256930422644403e-01
88 88 7.48215540308891147e-01
89 88 7.53163802666699911e-01
90 88 7.59101717496070139e-01
91 88 7.66029284797002274e-01
92 88 7.73946504569496097e-01
93 88 7.82853376813551383e-01
94 88 7.92749901529168688e-01
95 88 8.03636078716347790e-01
96 88 8.15511908375088468e-01
97 88 8.28377390505390832e-01
98 88 8.42232525107254659e-01
99 88 8.57077312180680728e-01
100 88 8.64994531953174550e-01
101 88 8.57077312180680728e-01
102 88 8.42232525107254881e-01
103 88 8.28377390505390943e-01
104 88 8.15511908375088579e-01
105 88 8.03636078716347790e-01
106 88 7.92749901529168688e-01
107 88 7.82853376813551383e-01
108 88 7.73946504569496208e-01
109 88 7.66029284797002497e-01
110 88 7.59101717496070139e-01
111 88 7.53163802666699911e-01
112 88 7.48215540308891147e-01
113 88 7.44256930422644403e-01
114 88 7.41287973007959455e-01
115 88 7.39308668064835750e-01
116 88 7.38319015593273953e-01
117 88 7.38319015593273953e-01
118 88 7.39308668064835861e-01
119 88 7.41287973007959233e-01
120 88 7.44256930422644403e-01
121 88 7.48215540308891147e-01
122 88 7.53163802666699911e-01
123 88 7.59101717496070139e-01
124 88 7.66029284797002274e-01
125 88 7.73946504569496097e-01
126 88 7.82853376813551383e-01
127 88 7.92749901529168688e-01
128 88 8.03636078716347790e-01
129 88 8.15511908375088468e-01
130 88 8.28377390505390832e-01
131 88 8.42232525107254659e-01
132 88 8.57077312180680728e-01
133 88 8.64994531953174550e-01
1 89 8.70715102633124793e-01
2 89 8.62745522974384116e-01
3 89 8.47802561114245345e-01
4 89 8.33855796711449271e-01
5 89 8.20905229765995781e-01
6 89 8.08950860277884654e-01
7 89 7.97992688247116111e-01
8 89 7.88030713673690153e-01
9 89 7.79064936557607224e-01
10 89 7.71095356898866546e-01
11 89 7.64121974697468231e-01
12 89 7.58144789953412834e-01
13 89 7.53163802666699800e-01
14 89 7.49179012837329572e-01
15 89 7.46190420465302040e-01
16 89 7.44198025550616649e-01
17 89 7.43201828093273953e-01
18 89 7.43201828093273953e-01
19 89 7.44198025550616760e-01
20 89 7.46190420465301818e-01
21 89 7.49179012837329572e-01
22 89 7.53163802666699800e-01
23 89 7.58144789953412834e-01
24 89 7.64121974697468231e-01
25 89 7.71095356898866435e-01
26 89 7.79064936557607113e-01
27 89 7.88030713673690153e-01
28 89 7.97992688247116111e-01
29 89 8.08950860277884654e-01
30 89 8.20905229765995670e-01
31 89 8.33855796711449271e-01
32 89 8.47802561114245123e-01
33 89 8.62745522974384116e-01
34 89 8.70715102633124793e-01
35 89 8.62745522974384116e-01
36 89 8.47802561114245345e-01
37 89 8.33855796711449271e-01
38 89 8.20905229765995781e-01
39 89 8.08950860277884654e-01
40 89 7.97992688247116111e-01
41 89 7.88030713673690153e-01
42 89 7.79064936557607224e-01
43 89 7.71095356898866546e-01
44 89 7.64121974697468231e-01
45 89 7.58144789953412834e-01
46 89 7.53163802666699800e-01
47 89 7.49179012837329572e-01
48 89 7.46190420465302040e-01
49 89 7.44198025550616649e-01
50 89 7.43201828093273953e-01
51 89 7.43201828093273953e-01
52 89 7.44198025550616760e-01
53 89 7.46190420465301818e-01
54 89 7.49179012837329572e-01
55 89 7.53163802666699800e-01
56 89 7.58144789953412834e-01
57 89 7.64121974697468231e-01
58 89 7.71095356898866435e-01
59 89 7.79064936557607113e-01
60 89 7.88030713673690153e-01
61 89 7.97992688247116111e-01
62 89 8.08950860277884654e-01
63 89 8.20905229765995670e-01
64 89 8.33855796711449271e-01
65 89 8.47802561114245123e-01
66 89 8.62745522974384116e-01
67 89 8.70715102633124793e-01
68 89 8.62745522974384116e-01
69 89 8.47802561114245345e-01
70 89 8.33855796711449271e-01
71 89 8.20905229765995781e-01
72 89 8.08950860277884654e-01
73 89 7.97992688247116111e-01
74 89 7.88030713673690153e-01
75 89 7.79064936557607224e-01
76 89 7.71095356898866546e-01
77 89 7.64121974697468231e-01
78 89 7.58144789953412834e-01
79 89 7.53163802666699800e-01
80 89 7.49179012837329572e-01
81 89 7.46190420465302040e-01
82 89 7.44198025550616649e-01
83 89 7.43201828093273953e-01
84 89 7.43201828093273953e-01
85 89 7.44198025550616760e-01
86 89 7.46190420465301818e-01
87 89 7.49179012837329572e-01
88 89 7.53163802666699800e-01
89 89 7.58144789953412834e-01
90 89 7.64121974697468231e-01
91 89 7.71095356898866435e-01
92 89 7.79064936557607113e-01
93 89 7.88030713673690153e-01
94 89 7.97992688247116111e-01
95 89 8.08950860277884654e-01
96 89 8.20905229765995670e-01
97 89 8.33855796711449271e-01
98 89 8.47802561114245123e-01
99 89 8.62745522974384116e-01
100 89 8.70715102633124793e-01
101 89 8.62745522974384116e-01
102 89 8.47802561114245345e-01
103 89 8.33855796711449271e-01
104 89 8.20905229765995781e-01
105 89 8.08950860277884654e-01
106 89 7.97992688247116111e-01
107 89 7.88030713673690153e-01
108 89 7.79064936557607224e-01
109 89 7.71095356898866546e-01
110 89 7.64121974697468231e-01
111 89 7.58144789953412834e-01
112 89 7.53163802666699800e-01
113 89 7.49179012837329572e-01
114 89 7.46190420465302040e-01
115 89 7.44198025550616649e-01
116 89 7.43201828093273953e-01
117 89 7.43201828093273953e-01
118 89 7.44198025550616760e-01
119 89 7.46190420465301818e-01
120 89 7.49179012837329572e-01
121 89 7.53163802666699800e-01
122 89 7.58144789953412834e-01
123 89 7.64121974697468231e-01
124 89 7.71095356898866435e-01
125 89 7.79064936557607113e-01
126 89 7.88030713673690153e-01
127 89 7.97992688247116111e-01
128 89 8.08950860277884654e-01
129 89 8.20905229765995670e-01
130 89 8.33855796711449271e-01
131 89 8.47802561114245123e-01
132 89 8.62745522974384116e-01
133 89 8.70715102633124793e-01
1 90 8.77579787449065063e-01
2 90 8.69547375926828181e-01
3 90 8.54486604322633791e-01
4 90 8.40429884158719331e-01
5 90 8.27377215435084357e-01
6 90 8.15328598151728867e-01
7 90 8.04284032308652863e-01
8 90 7.94243517905856677e-01
9 90 7.85207054943340421e-01
10 90 7.77174643421103539e-01
11 90 7.70146283339145921e-01
12 90 7.64121974697468342e-01
13 90 7.59101717496070028e-01
14 90 7.55085511734951753e-01
15 90 7.52073357414113075e-01
16 90 7.50065254533553660e-01
17 90 7.49061203093273953e-01
18 90 7.49061203093273953e-01
19 90 7.50065254533553660e-01
20 90 7.52073357414112964e-01
21 90 7.55085511734951753e-01
22 90 7.59101717496070028e-01
23 90 7.64121974697468342e-01
24 90 7.70146283339145921e-01
25 90 7.77174643421103317e-01
26 90 7.85207054943340310e-01
27 90 7.94243517905856677e-01
28 90 8.04284032308652863e-01
29 90 8.15328598151728867e-01
30 90 8.27377215435084246e-01
31 90 8.40429884158719220e-01
32 90 8.54486604322633569e-01
33 90 8.69547375926828070e-01
34 90 8.77579787449065063e-01
35 90 8.69547375926828181e-01
36 90 8.54486604322633791e-01
37 90 8.40429884158719331e-01
38 90 8.27377215435084357e-01
39 90 8.15328598151728867e-01
40 90 8.04284032308652863e-01
41 90 7.94243517905856677e-01
42 90 7.85207054943340421e-01
43 90 7.77174643421103539e-01
44 90 7.70146283339145921e-01
45 90 7.64121974697468342e-01
46 90 7.59101717496070028e-01
47 90 7.55085511734951753e-01
48 90 7.52073357414113075e-01
49 90 7.50065254533553660e-01
50 90 7.49061203093273953e-01
51 90 7.49061203093273953e-01
52 90 7.50065254533553660e-01
53 90 7.52073357414112964e-01
54 90 7.55085511734951753e-01
55 90 7.59101717496070028e-01
56 90 7.64121974697468342e-01
57 90 7.70146283339145921e-01
58 90 7.77174643421103317e-01
59 90 7.85207054943340310e-01
60 90 7.94243517905856677e-01
61 90 8.04284032308652863e-01
62 90 8.15328598151728867e-01
63 90 8.27377215435084246e-01
64 90 8.40429884158719220e-01
65 90 8.54486604322633569e-01
66 90 8.69547375926828070e-01
67 90 8.77579787449065063e-01
68 90 8.69547375926828181e-01
69 90 8.54486604322633791e-01
70 90 8.40429884158719331e-01
71 90 8.27377215435084357e-01
72 90 8.15328598151728867e-01
73 90 8.04284032308652863e-01
74 90 7.94243517905856677e-01
75 90 7.85207054943340421e-01
76 90 7.77174643421103539e-01
77 90 7.70146283339145921e-01
78 90 7.64121974697468342e-01
79 90 7.59101717496070028e-01
80 90 7.55085511734951753e-01
81 90 7.52073357414113075e-01
82 90 7.50065254533553660e-01
83 90 7.49061203093273953e-01
84 90 7.49061203093273953e-01
85 90 7.50065254533553660e-01
86 90 7.52073357414112964e-01
87 90 7.55085511734951753e-01
88 90 7.59101717496070028e-01
89 90 7.64121974697468342e-01
90 90 7.70146283339145921e-01
91 90 7.77174643421103317e-01
92 90 7.85207054943340310e-01
93 90 7.94243517905856677e-01
94 90 8.04284032308652863e-01
95 90 8.15328598151728867e-01
96 90 8.27377215435084246e-01
97 90 8.40429884158719220e-01
98 90 8.54486604322633569e-01
99 90 8.69547375926828070e-01
100 90 8.77579787449065063e-01
101 90 8.69547375926828181e-01
102 90 8.54486604322633791e-01
103 90 8.40429884158719331e-01
104 90 8.27377215435084357e-01
105 90 8.15328598151728867e-01
106 90 8.04284032308652863e-01
107 90 7.94243517905856677e-01
108 90 7.85207054943340421e-01
109 90 7.77174643421103539e-01
110 90 7.70146283339145921e-01
111 90 7.64121974697468342e-01
112 90 7.59101717496070028e-01
113 90 7.55085511734951753e-01
114 90 7.52073357414113075e-01
115 90 7.50065254533553660e-01
116 90 7.49061203093273953e-01
117 90 7.49061203093273953e-01
118 90 7.50065254533553660e-01
119 90 7.52073357414112964e-01
120 90 7.55085511734951753e-01
121 90 7.59101717496070028e-01
122 90 7.64121974697468342e-01
123 90 7.70146283339145921e-01
124 90 7.77174643421103317e-01
125 90 7.85207054943340310e-01
126 90 7.94243517905856677e-01
127 90 8.04284032308652863e-01
128 90 8.15328598151728867e-01
129 90 8.27377215435084246e-01
130 90 8.40429884158719220e-01
131 90 8.54486604322633569e-01
132 90 8.69547375926828070e-01
133 90 8.77579787449065063e-01
1 91 8.85588586400995359e-01
2 91 8.77482871038012924e-01
3 91 8.62284654732420441e-01
4 91 8.48099652847201124e-01
5 91 8.34927865382354528e-01
6 91 8.22769292337880542e-01
7 91 8.11623933713779278e-01
8 91 8.01491789510050956e-01
9 91 7.92372859726695911e-01
10 91 7.84267144363713253e-01
11 91 7.77174643421103206e-01
12 91 7.71095356898866435e-01
13 91 7.66029284797002163e-01
14 91 7.61976427115511057e-01
15 91 7.58936783854392671e-01
16 91 7.56910355013646896e-01
17 91 7.55897140593273953e-01
18 91 7.55897140593273953e-01
19 91 7.56910355013646896e-01
20 91 7.58936783854392560e-01
21 91 7.61976427115511057e-01
22 91 7.66029284797002163e-01
23 91 7.71095356898866435e-01
24 91 7.77174643421103206e-01
25 91 7.84267144363713142e-01
26 91 7.92372859726695800e-01
27 91 8.01491789510050956e-01
28 91 8.11623933713779278e-01
29 91 8.22769292337880431e-01
30 91 8.34927865382354306e-01
31 91 8.48099652847201013e-01
32 91 8.62284654732420219e-01
33 91 8.77482871038012702e-01
34 91 8.85588586400995359e-01
35 91 8.77482871038012924e-01
36 91 8.62284654732420441e-01
37 91 8.48099652847201124e-01
38 91 8.34927865382354528e-01
39 91 8.22769292337880542e-01
40 91 8.11623933713779278e-01
41 91 8.01491789510050956e-01
42 91 7.92372859726695911e-01
43 91 7.84267144363713253e-01
44 91 7.77174643421103206e-01
45 91 7.71095356898866435e-01
46 91 7.66029284797002163e-01
47 91 7.61976427115511057e-01
48 91 7.58936783854392671e-01
49 91 7.56910355013646896e-01
50 91 7.55897140593273953e-01
51 91 7.55897140593273953e-01
52 91 7.56910355013646896e-01
53 91 7.58936783854392560e-01
54 91 7.61976427115511057e-01
55 91 7.66029284797002163e-01
56 91 7.71095356898866435e-01
57 91 7.77174643421103206e-01
58 91 7.84267144363713142e-01
59 91 7.92372859726695800e-01
60 91 8.01491789510050956e-01
61 91 8.11623933713779278e-01
62 91 8.22769292337880431e-01
63 91 8.34927865382354306e-01
64 91 8.48099652847201013e-01
65 91 8.62284654732420219e-01
66 91 8.77482871038012702e-01
67 91 8.85588586400995359e-01
68 91 8.77482871038012924e-01
69 91 8.62284654732420441e-01
70 91 8.48099652847201124e-01
71 91 8.34927865382354528e-01
72 91 8.22769292337880542e-01
73 91 8.11623933713779278e-01
74 91 8.01491789510050956e-01
75 91 7.92372859726695911e-01
76 91 7.84267144363713253e-01
77 91 7.77174643421103206e-01
78 91 7.71095356898866435e-01
79 91 7.66029284797002163e-01
80 91 7.61976427115511057e-01
81 91 7.58936783854392671e-01
82 91 7.56910355013646896e-01
83 91 7.55897140593273953e-01
84 91 7.55897140593273953e-01
85 91 7.56910355013646896e-01
86 91 7.58936783854392560e-01
87 91 7.61976427115511057e-01
88 91 7.66029284797002163e-01
89 91 7.71095356898866435e-01
90 91 7.77174643421103206e-01
91 91 7.84267144363713142e-01
92 91 7.92372859726695800e-01
93 91 8.01491789510050956e-01
94 91 8.11623933713779278e-01
95 91 8.22769292337880431e-01
96 91 8.34927865382354306e-01
97 91 8.48099652847201013e-01
98 91 8.62284654732420219e-01
99 91 8.77482871038012702e-01
100 91 8.85588586400995359e-01
101 91 8.77482871038012924e-01
102 91 8.62284654732420441e-01
103 91 8.48099652847201124e-01
104 91 8.34927865382354528e-01
105 91 8.22769292337880542e-01
106 91 8.11623933713779278e-01
107 91 8.01491789510050956e-01
108 91 7.92372859726695911e-01
109 91 7.84267144363713253e-01
110 91 7.77174643421103206e-01
111 91 7.71095356898866435e-01
112 91 7.66029284797002163e-01
113 91 7.61976427115511057e-01
114 91 7.58936783854392671e-01
115 91 7.56910355013646896e-01
116 91 7.55897140593273953e-01
117 91 7.55897140593273953e-01
118 91 7.56910355013646896e-01
119 91 7.58936783854392560e-01
120 91 7.61976427115511057e-01
121 91 7.66029284797002163e-01
122 91 7.71095356898866435e-01
123 91 7.77174643421103206e-01
124 91 7.84267144363713142e-01
125 91 7.92372859726695800e-01
126 91 8.01491789510050956e-01
127 91 8.11623933713779278e-01
128 91 8.22769292337880431e-01
129 91 8.34927865382354306e-01
130 91 8.48099652847201013e-01
131 91 8.62284654732420219e-01
132 91 8.77482871038012702e-01
133 91 8.85588586400995359e-01
1 92 8.94741499488915792e-01
2 92 8.86552008307938233e-01
3 92 8.71196712343605073e-01
4 92 8.56865102776894427e-01
5 92 8.43557179607805963e-01
6 92 8.31272942836339457e-01
7 92 8.20012392462495021e-01
8 92 8.09775528486272989e-01
9 92 8.00562350907673470e-01
10 92 7.92372859726695800e-01
11 92 7.85207054943340199e-01
12 92 7.79064936557607113e-01
13 92 7.73946504569495985e-01
14 92 7.69851758979007261e-01
15 92 7.66780699786140829e-01
16 92 7.64733326990896245e-01
17 92 7.63709640593273842e-01
18 92 7.63709640593273842e-01
19 92 7.64733326990896245e-01
20 92 7.66780699786140718e-01
21 92 7.69851758979007261e-01
22 92 7.73946504569495985e-01
23 92 7.79064936557607113e-01
24 92 7.85207054943340199e-01
25 92 7.92372859726695689e-01
26 92 8.00562350907673359e-01
27 92 8.09775528486272989e-01
28 92 8.20012392462495021e-01
29 92 8.31272942836339346e-01
30 92 8.43557179607805740e-01
31 92 8.56865102776894316e-01
32 92 8.71196712343604851e-01
33 92 8.86552008307938011e-01
34 92 8.94741499488915792e-01
35 92 8.86552008307938233e-01
36 92 8.71196712343605073e-01
37 92 8.56865102776894427e-01
38 92 8.43557179607805963e-01
39 92 8.31272942836339457e-01
40 92 8.20012392462495021e-01
41 92 8.09775528486272989e-01
42 92 8.00562350907673470e-01
43 92 7.92372859726695800e-01
44 92 7.85207054943340199e-01
45 92 7.79064936557607113e-01
46 92 7.73946504569495985e-01
47 92 7.69851758979007261e-01
48 92 7.66780699786140829e-01
49 92 7.64733326990896245e-01
50 92 7.63709640593273842e-01
51 92 7.63709640593273842e-01
52 92 7.64733326990896245e-01
53 92 7.66780699786140718e-01
54 92 7.69851758979007261e-01
55 92 7.73946504569495985e-01
56 92 7.79064936557607113e-01
57 92 7.85207054943340199e-01
58 92 7.92372859726695689e-01
59 92 8.00562350907673359e-01
60 92 8.09775528486272989e-01
61 92 8.20012392462495021e-01
62 92 8.31272942836339346e-01
63 92 8.43557179607805740e-01
64 92 8.56865102776894316e-01
65 92 8.71196712343604851e-01
66 92 8.86552008307938011e-01
67 92 8.94741499488915792e-01
68 92 8.86552008307938233e-01
69 92 8.71196712343605073e-01
70 92 8.56865102776894427e-01
71 92 8.43557179607805963e-01
72 92 8.31272942836339457e-01
73 92 8.20012392462495021e-01
74 92 8.09775528486272989e-01
75 92 8.00562350907673470e-01
76 92 7.92372859726695800e-01
77 92 7.85207054943340199e-01
78 92 7.79064936557607113e-01
79 92 7.73946504569495985e-01
80 92 7.69851758979007261e-01
81 92 7.66780699786140829e-01
82 92 7.64733326990896245e-01
83 92 7.63709640593273842e-01
84 92 7.63709640593273842e-01
85 92 7.64733326990896245e-01
86 92 7.66780699786140718e-01
87 92 7.69851758979007261e-01
88 92 7.73946504569495985e-01
89 92 7.79064936557607113e-01
90 92 7.85207054943340199e-01
91 92 7.92372859726695689e-01
92 92 8.00562350907673359e-01
93 92 8.09775528486272989e-01
94 92 8.20012392462495021e-01
95 92 8.31272942836339346e-01
96 92 8.43557179607805740e-01
97 92 8.56865102776894316e-01
98 92 8.71196712343604851e-01
99 92 8.86552008307938011e-01
100 92 8.94741499488915792e-01
101 92 8.86552008307938233e-01
102 92 8.71196712343605073e-01
103 92 8.56865102776894427e-01
104 92 8.43557179607805963e-01
105 92 8.31272942836339457e-01
106 92 8.20012392462495021e-01
107 92 8.09775528486272989e-01
108 92 8.00562350907673470e-01
109 92 7.92372859726695800e-01
110 92 7.85207054943340199e-01
111 92 7.79064936557607113e-01
112 92 7.73946504569495985e-01
113 92 7.69851758979007261e-01
114 92 7.66780699786140829e-01
115 92 7.64733326990896245e-01
116 92 7.63709640593273842e-01
117 92 7.63709640593273842e-01
118 92 7.64733326990896245e-01
119 92 7.66780699786140718e-01
120 92 7.69851758979007261e-01
121 92 7.73946504569495985e-01
122 92 7.79064936557607113e-01
123 92 7.85207054943340199e-01
124 92 7.92372859726695689e-01
125 92 8.00562350907673359e-01
126 92 8.09775528486272989e-01
127 92 8.20012392462495021e-01
128 92 8.31272942836339346e-01
129 92 8.43557179607805740e-01
130 92 8.56865102776894316e-01
131 92 8.71196712343604851e-01
132 92 8.86552008307938011e-01
133 92 8.94741499488915792e-01
1 93 9.05038526712826141e-01
2 93 8.96754787736604220e-01
3 93 8.81222777156187798e-01
4 93 8.66726233947799352e-01
5 93 8.53265158111438882e-01
6 93 8.40839549647105722e-01
7 93 8.29449408554800316e-01
8 93 8.19094734834522664e-01
9 93 8.09775528486273322e-01
10 93 8.01491789510051178e-01
11 93 7.94243517905856788e-01
12 93 7.88030713673690375e-01
13 93 7.82853376813551494e-01
14 93 7.78711507325440588e-01
15 93 7.75605105209357437e-01
16 93 7.73534170465301818e-01
17 93 7.72498703093273842e-01
18 93 7.72498703093273842e-01
19 93 7.73534170465301818e-01
20 93 7.75605105209357326e-01
21 93 7.78711507325440588e-01
22 93 7.82853376813551494e-01
23 93 7.88030713673690375e-01
24 93 7.94243517905856788e-01
25 93 8.01491789510051067e-01
26 93 8.09775528486273211e-01
27 93 8.19094734834522664e-01
28 93 8.29449408554800316e-01
29 93 8.40839549647105722e-01
30 93 8.53265158111438660e-01
31 93 8.66726233947799241e-01
32 93 8.81222777156187576e-01
33 93 8.96754787736603998e-01
34 93 9.05038526712826141e-01
35 93 8.96754787736604220e-01
36 93 8.81222777156187798e-01
37 93 8.66726233947799352e-01
38 93 8.53265158111438882e-01
39 93 8.40839549647105722e-01
40 93 8.29449408554800316e-01
41 93 8.19094734834522664e-01
42 93 8.09775528486273322e-01
43 93 8.01491789510051178e-01
44 93 7.94243517905856788e-01
45 93 7.88030713673690375e-01
46 93 7.82853376813551494e-01
47 93 7.78711507325440588e-01
48 93 7.75605105209357437e-01
49 93 7.73534170465301818e-01
50 93 7.72498703093273842e-01
51 93 7.72498703093273842e-01
52 93 7.73534170465301818e-01
53 93 7.75605105209357326e-01
54 93 7.78711507325440588e-01
55 93 7.82853376813551494e-01
56 93 7.88030713673690375e-01
57 93 7.94243517905856788e-01
58 93 8.01491789510051067e-01
59 93 8.09775528486273211e-01
60 93 8.19094734834522664e-01
61 93 8.29449408554800316e-01
62 93 8.40839549647105722e-01
63 93 8.53265158111438660e-01
64 93 8.66726233947799241e-01
65 93 8.81222777156187576e-01
66 93 8.96754787736603998e-01
67 93 9.05038526712826141e-01
68 93 8.96754787736604220e-01
69 93 8.81222777156187798e-01
70 93 8.66726233947799352e-01
71 93 8.53265158111438882e-01
72 93 8.40839549647105722e-01
73 93 8.29449408554800316e-01
74 93 8.19094734834522664e-01
75 93 8.09775528486273322e-01
76 93 8.01491789510051178e-01
77 93 7.94243517905856788e-01
78 93 7.88030713673690375e-01
79 93 7.82853376813551494e-01
80 93 7.78711507325440588e-01
81 93 7.75605105209357437e-01
82 93 7.73534170465301818e-01
83 93 7.72498703093273842e-01
84 93 7.72498703093273842e-01
85 93 7.73534170465301818e-01
86 93 7.75605105209357326e-01
87 93 7.78711507325440588e-01
88 93 7.82853376813551494e-01
89 93 7.88030713673690375e-01
90 93 7.94243517905856788e-01
91 93 8.01491789510051067e-01
92 93 8.09775528486273211e-01
93 93 8.19094734834522664e-01
94 93 8.29449408554800316e-01
95 93 8.40839549647105722e-01
96 93 8.53265158111438660e-01
97 93 8.66726233947799241e-01
98 93 8.81222777156187576e-01
99 93 8.96754787736603998e-01
100 93 9.05038526712826141e-01
101 93 8.96754787736604220e-01
102 93 8.81222777156187798e-01
103 93 8.66726233947799352e-01
104 93 8.53265158111438882e-01
105 93 8.40839549647105722e-01
106 93 8.29449408554800316e-01
107 93 8.19094734834522664e-01
108 93 8.09775528486273322e-01
109 93 8.01491789510051178e-01
110 93 7.94243517905856788e-01
111 93 7.88030713673690375e-01
112 93 7.82853376813551494e-01
113 93 7.78711507325440588e-01
114 93 7.75605105209357437e-01
115 93 7.73534170465301818e-01
116 93 7.72498703093273842e-01
117 93 7.72498703093273842e-01
118 93 7.73534170465301818e-01
119 93 7.75605105209357326e-01
120 93 7.78711507325440588e-01
121 93 7.82853376813551494e-01
122 93 7.88030713673690375e-01
123 93 7.94243517905856788e-01
124 93 8.01491789510051067e-01
125 93 8.09775528486273211e-01
126 93 8.19094734834522664e-01
127 93 8.29449408554800316e-01
128 93 8.40839549647105722e-01
129 93 8.53265158111438660e-01
130 93 8.66726233947799241e-01
131 93 8.81222777156187576e-01
132 93 8.96754787736603998e-01
133 93 9.05038526712826141e-01
1 94 9.16479668072726628e-01
2 94 9.08091209324010884e-01
3 94 8.92362849170168726e-01
4 94 8.77683046359916119e-01
5 94 8.64051800893253175e-01
6 94 8.51469112770179448e-01
7 94 8.39934981990694940e-01
8 94 8.29449408554800205e-01
9 94 8.20012392462495243e-01
10 94 8.11623933713779389e-01
11 94 8.04284032308652974e-01
12 94 7.97992688247116222e-01
13 94 7.92749901529168799e-01
14 94 7.88555672154810927e-01
15 94 7.85410000124042607e-01
16 94 7.83312885436863504e-01
17 94 7.82264328093273842e-01
18 94 7.82264328093273842e-01
19 94 7.83312885436863504e-01
20 94 7.85410000124042496e-01
21 94 7.88555672154810927e-01
22 94 7.92749901529168799e-01
23 94 7.97992688247116111e-01
24 94 8.04284032308652974e-01
25 94 8.11623933713779278e-01
26 94 8.20012392462495243e-01
27 94 8.29449408554800205e-01
28 94 8.39934981990695051e-01
29 94 8.51469112770179448e-01
30 94 8.64051800893252953e-01
31 94 8.77683046359915897e-01
32 94 8.92362849170168504e-01
33 94 9.08091209324010662e-01
34 94 9.16479668072726628e-01
35 94 9.08091209324010884e-01
36 94 8.92362849170168726e-01
37 94 8.77683046359916119e-01
38 94 8.64051800893253175e-01
39 94 8.51469112770179448e-01
40 94 8.39934981990694940e-01
41 94 8.29449408554800205e-01
42 94 8.20012392462495243e-01
43 94 8.11623933713779389e-01
44 94 8.04284032308652974e-01
45 94 7.97992688247116222e-01
46 94 7.92749901529168799e-01
47 94 7.88555672154810927e-01
48 94 7.85410000124042607e-01
49 94 7.83312885436863504e-01
50 94 7.82264328093273842e-01
51 94 7.82264328093273842e-01
52 94 7.83312885436863504e-01
53 94 7.85410000124042496e-01
54 94 7.88555672154810927e-01
55 94 7.92749901529168799e-01
56 94 7.97992688247116111e-01
57 94 8.04284032308652974e-01
58 94 8.11623933713779278e-01
59 94 8.20012392462495243e-01
60 94 8.29449408554800205e-01
61 94 8.39934981990695051e-01
62 94 8.51469112770179448e-01
63 94 8.64051800893252953e-01
64 94 8.77683046359915897e-01
65 94 8.92362849170168504e-01
66 94 9.08091209324010662e-01
67 94 9.16479668072726628e-01
68 94 9.08091209324010884e-01
69 94 8.92362849170168726e-01
70 94 8.77683046359916119e-01
71 94 8.64051800893253175e-01
72 94 8.51469112770179448e-01
73 94 8.39934981990694940e-01
74 94 8.29449408554800205e-01
75 94 8.20012392462495243e-01
76 94 8.11623933713779389e-01
77 94 8.04284032308652974e-01
78 94 7.97992688247116222e-01
79 94 7.92749901529168799e-01
80 94 7.88555672154810927e-01
81 94 7.85410000124042607e-01
82 94 7.83312885436863504e-01
83 94 7.82264328093273842e-01
84 94 7.82264328093273842e-01
85 94 7.83312885436863504e-01
86 94 7.85410000124042496e-01
87 94 7.88555672154810927e-01
88 94 7.92749901529168799e-01
89 94 7.97992688247116111e-01
90 94 8.04284032308652974e-01
91 94 8.11623933713779278e-01
92 94 8.20012392462495243e-01
93 94 8.29449408554800205e-01
94 94 8.39934981990695051e-01
95 94 8.51469112770179448e-01
96 94 8.64051800893252953e-01
97 94 8.77683046359915897e-01
98 94 8.92362849170168504e-01
99 94 9.08091209324010662e-01
100 94 9.16479668072726628e-01
101 94 9.08091209324010884e-01
102 94 8.92362849170168726e-01
103 94 8.77683046359916119e-01
104 94 8.64051800893253175e-01
105 94 8.51469112770179448e-01
106 94 8.39934981990694940e-01
107 94 8.29449408554800205e-01
108 94 8.20012392462495243e-01
109 94 8.11623933713779389e-01
110 94 8.04284032308652974e-01
111 94 7.97992688247116222e-01
112 94 7.92749901529168799e-01
113 94 7.88555672154810927e-01
114 94 7.85410000124042607e-01
115 94 7.83312885436863504e-01
116 94 7.82264328093273842e-01
117 94 7.82264328093273842e-01
118 94 7.83312885436863504e-01
119 94 7.85410000124042496e-01
120 94 7.88555672154810927e-01
121 94 7.92749901529168799e-01
122 94 7.97992688247116111e-01
123 94 8.04284032308652974e-01
124 94 8.11623933713779278e-01
125 94 8.20012392462495243e-01
126 94 8.29449408554800205e-01
127 94 8.39934981990695051e-01
128 94 8.51469112770179448e-01
129 94 8.64051800893252953e-01
130 94 8.77683046359915897e-01
131 94 8.92362849170168504e-01
132 94 9.08091209324010662e-01
133 94 9.16479668072726628e-01
1 95 9.29064923568617140e-01
2 95 9.20561273070158226e-01
3 95 9.04616928385547636e-01
4 95 8.89735540013244397e-01
5 95 8.75917107953248841e-01
6 95 8.63161632205560414e-01
7 95 8.51469112770179115e-01
8 95 8.40839549647105500e-01
9 95 8.31272942836339457e-01
10 95 8.22769292337880431e-01
11 95 8.15328598151728756e-01
12 95 8.08950860277884543e-01
13 95 8.03636078716347790e-01
14 95 7.99384253467118167e-01
15 95 7.96195384530196226e-01
16 95 7.94069471905581414e-01
17 95 7.93006515593273842e-01
18 95 7.93006515593273842e-01
19 95 7.94069471905581414e-01
20 95 7.96195384530196115e-01
21 95 7.99384253467118167e-01
22 95 8.03636078716347790e-01
23 95 8.08950860277884543e-01
24 95 8.15328598151728756e-01
25 95 8.22769292337880320e-01
26 95 8.31272942836339457e-01
27 95 8.40839549647105500e-01
28 95 8.51469112770179226e-01
29 95 8.63161632205560414e-01
30 95 8.75917107953248619e-01
31 95 8.89735540013244286e-01
32 95 9.04616928385547525e-01
33 95 9.20561273070158004e-01
34 95 9.29064923568617140e-01
35 95 9.20561273070158226e-01
36 95 9.04616928385547636e-01
37 95 8.89735540013244397e-01
38 95 8.75917107953248841e-01
39 95 8.63161632205560414e-01
40 95 8.51469112770179115e-01
41 95 8.40839549647105500e-01
42 95 8.31272942836339457e-01
43 95 8.22769292337880431e-01
44 95 8.15328598151728756e-01
45 95 8.08950860277884543e-01
46 95 8.03636078716347790e-01
47 95 7.99384253467118167e-01
48 95 7.96195384530196226e-01
49 95 7.94069471905581414e-01
50 95 7.93006515593273842e-01
51 95 7.93006515593273842e-01
52 95 7.94069471905581414e-01
53 95 7.96195384530196115e-01
54 95 7.99384253467118167e-01
55 95 8.03636078716347790e-01
56 95 8.08950860277884543e-01
57 95 8.15328598151728756e-01
58 95 8.22769292337880320e-01
59 95 8.31272942836339457e-01
60 95 8.40839549647105500e-01
61 95 8.51469112770179226e-01
62 95 8.63161632205560414e-01
63 95 8.75917107953248619e-01
64 95 8.89735540013244286e-01
65 95 9.04616928385547525e-01
66 95 9.20561273070158004e-01
67 95 9.29064923568617140e-01
68 95 9.20561273070158226e-01
69 95 9.04616928385547636e-01
70 95 8.89735540013244397e-01
71 95 8.75917107953248841e-01
72 95 8.63161632205560414e-01
73 95 8.51469112770179115e-01
74 95 8.40839549647105500e-01
75 95 8.31272942836339457e-01
76 95 8.22769292337880431e-01
77 95 8.15328598151728756e-01
78 95 8.08950860277884543e-01
79 95 8.03636078716347790e-01
80 95 7.99384253467118167e-01
81 95 7.96195384530196226e-01
82 95 7.94069471905581414e-01
83 95 7.93006515593273842e-01
84 95 7.93006515593273842e-01
85 95 7.94069471905581414e-01
86 95 7.96195384530196115e-01
87 95 7.99384253467118167e-01
88 95 8.03636078716347790e-01
89 95 8.08950860277884543e-01
90 95 8.15328598151728756e-01
91 95 8.22769292337880320e-01
92 95 8.31272942836339457e-01
93 95 8.40839549647105500e-01
94 95 8.51469112770179226e-01
95 95 8.63161632205560414e-01
96 95 8.75917107953248619e-01
97 95 8.89735540013244286e-01
98 95 9.04616928385547525e-01
99 95 9.20561273070158004e-01
100 95 9.29064923568617140e-01
101 95 9.20561273070158226e-01
102 95 9.04616928385547636e-01
103 95 8.89735540013244397e-01
104 95 8.75917107953248841e-01
105 95 8.63161632205560414e-01
106 95 8.51469112770179115e-01
107 95 8.40839549647105500e-01
108 95 8.31272942836339457e-01
109 95 8.22769292337880431e-01
110 95 8.15328598151728756e-01
111 95 8.08950860277884543e-01
112 95 8.03636078716347790e-01
113 95 7.99384253467118167e-01
114 95 7.96195384530196226e-01
115 95 7.94069471905581414e-01
116 95 7.93006515593273842e-01
117 95 7.93006515593273842e-01
118 95 7.94069471905581414e-01
119 95 7.96195384530196115e-01
120 95 7.99384253467118167e-01
121 95 8.03636078716347790e-01
122 95 8.08950860277884543e-01
123 95 8.15328598151728756e-01
124 95 8.22769292337880320e-01
125 95 8.31272942836339457e-01
126 95 8.40839549647105500e-01
127 95 8.51469112770179226e-01
128 95 8.63161632205560414e-01
129 95 8.75917107953248619e-01
130 95 8.89735540013244286e-01
131 95 9.04616928385547525e-01
132 95 9.20561273070158004e-01
133 95 9.29064923568617140e-01
1 96 9.42794293200497679e-01
2 96 9.34164978975046245e-01
3 96 9.17985014802324750e-01
4 96 9.02883714907784518e-01
5 96 8.88861079291426104e-01
6 96 8.75917107953248841e-01
7 96 8.64051800893252842e-01
8 96 8.53265158111438549e-01
9 96 8.43557179607805852e-01
10 96 8.34927865382354306e-01
11 96 8.27377215435084135e-01
12 96 8.20905229765995559e-01
13 96 8.15511908375088468e-01
14 96 8.11197251262362640e-01
15 96 8.07961258427818518e-01
16 96 8.05803929871455549e-01
17 96 8.04725265593273953e-01
18 96 8.04725265593273953e-01
19 96 8.05803929871455549e-01
20 96 8.07961258427818407e-01
21 96 8.11197251262362640e-01
22 96 8.15511908375088468e-01
23 96 8.20905229765995559e-01
24 96 8.27377215435084135e-01
25 96 8.34927865382354306e-01
26 96 8.43557179607805963e-01
27 96 8.53265158111438549e-01
28 96 8.64051800893252953e-01
29 96 8.75917107953248841e-01
30 96 8.88861079291425882e-01
31 96 9.02883714907784407e-01
32 96 9.17985014802324528e-01
33 96 9.34164978975046023e-01
34 96 9.42794293200497679e-01
35 96 9.34164978975046245e-01
36 96 9.17985014802324750e-01
37 96 9.02883714907784518e-01
38 96 8.88861079291426104e-01
39 96 8.75917107953248841e-01
40 96 8.64051800893252842e-01
41 96 8.53265158111438549e-01
42 96 8.43557179607805852e-01
43 96 8.34927865382354306e-01
44 96 8.27377215435084135e-01
45 96 8.20905229765995559e-01
46 96 8.15511908375088468e-01
47 96 8.11197251262362640e-01
48 96 8.07961258427818518e-01
49 96 8.05803929871455549e-01
50 96 8.04725265593273953e-01
51 96 8.04725265593273953e-01
52 96 8.05803929871455549e-01
53 96 8.07961258427818407e-01
54 96 8.11197251262362640e-01
55 96 8.15511908375088468e-01
56 96 8.20905229765995559e-01
57 96 8.27377215435084135e-01
58 96 8.34927865382354306e-01
59 96 8.43557179607805963e-01
60 96 8.53265158111438549e-01
61 96 8.64051800893252953e-01
62 96 8.75917107953248841e-01
63 96 8.88861079291425882e-01
64 96 9.02883714907784407e-01
65 96 9.17985014802324528e-01
66 96 9.34164978975046023e-01
67 96 9.42794293200497679e-01
68 96 9.34164978975046245e-01
69 96 9.17985014802324750e-01
70 96 9.02883714907784518e-01
71 96 8.88861079291426104e-01
72 96 8.75917107953248841e-01
73 96 8.64051800893252842e-01
74 96 8.53265158111438549e-01
75 96 8.43557179607805852e-01
76 96 8.34927865382354306e-01
77 96 8.27377215435084135e-01
78 96 8.20905229765995559e-01
79 96 8.15511908375088468e-01
80 96 8.11197251262362640e-01
81 96 8.07961258427818518e-01
82 96 8.05803929871455549e-01
83 96 8.04725265593273953e-01
84 96 8.04725265593273953e-01
85 96 8.05803929871455549e-01
86 96 8.07961258427818407e-01
87 96 8.11197251262362640e-01
88 96 8.15511908375088468e-01
89 96 8.20905229765995559e-01
90 96 8.27377215435084135e-01
91 96 8.34927865382354306e-01
92 96 8.43557179607805963e-01
93 96 8.53265158111438549e-01
94 96 8.64051800893252953e-01
95 96 8.75917107953248841e-01
96 96 8.88861079291425882e-01
97 96 9.02883714907784407e-01
98 96 9.17985014802324528e-01
99 96 9.34164978975046023e-01
100 96 9.42794293200497679e-01
101 96 9.34164978975046245e-01
102 96 9.17985014802324750e-01
103 96 9.02883714907784518e-01
104 96 8.88861079291426104e-01
105 96 8.75917107953248841e-01
106 96 8.64051800893252842e-01
107 96 8.53265158111438549e-01
108 96 8.43557179607805852e-01
109 96 8.34927865382354306e-01
110 96 8.27377215435084135e-01
111 96 8.20905229765995559e-01
112 96 8.15511908375088468e-01
113 96 8.11197251262362640e-01
114 96 8.07961258427818518e-01
115 96 8.05803929871455549e-01
116 96 8.04725265593273953e-01
117 96 8.04725265593273953e-01
118 96 8.05803929871455549e-01
119 96 8.07961258427818407e-01
120 96 8.11197251262362640e-01
121 96 8.15511908375088468e-01
122 96 8.20905229765995559e-01
123 96 8.27377215435084135e-01
124 96 8.34927865382354306e-01
125 96 8.43557179607805963e-01
126 96 8.53265158111438549e-01
127 96 8.64051800893252953e-01
128 96 8.75917107953248841e-01
129 96 8.88861079291425882e-01
130 96 9.02883714907784407e-01
131 96 9.17985014802324528e-01
132 96 9.34164978975046023e-01
133 96 9.42794293200497679e-01
1 97 9.57667776968368245e-01
2 97 9.48902327038674942e-01
3 97 9.32467108420499846e-01
4 97 9.17127571043536260e-01
5 97 9.02883714907784740e-01
6 97 8.89735540013244619e-01
7 97 8.77683046359916008e-01
8 97 8.66726233947799241e-01
9 97 8.56865102776894427e-01
10 97 8.48099652847201013e-01
11 97 8.40429884158719220e-01
12 97 8.33855796711449160e-01
13 97 8.28377390505390832e-01
14 97 8.23994665540544013e-01
15 97 8.20707621816909150e-01
16 97 8.18516259334485796e-01
17 97 8.17420578093273953e-01
18 97 8.17420578093273953e-01
19 97 8.18516259334485796e-01
20 97 8.20707621816909150e-01
21 97 8.23994665540544013e-01
22 97 8.28377390505390832e-01
23 97 8.33855796711449160e-01
24 97 8.40429884158719220e-01
25 97 8.48099652847201013e-01
26 97 8.56865102776894538e-01
27 97 8.66726233947799352e-01
28 97 8.77683046359916119e-01
29 97 8.89735540013244619e-01
30 97 9.02883714907784629e-01
31 97 9.17127571043536149e-01
32 97 9.32467108420499624e-01
33 97 9.48902327038674720e-01
34 97 9.57667776968368245e-01
35 97 9.48902327038674942e-01
36 97 9.32467108420499846e-01
37 97 9.17127571043536260e-01
38 97 9.02883714907784740e-01
39 97 8.89735540013244619e-01
40 97 8.77683046359916008e-01
41 97 8.66726233947799241e-01
42 97 8.56865102776894427e-01
43 97 8.48099652847201013e-01
44 97 8.40429884158719220e-01
45 97 8.33855796711449160e-01
46 97 8.28377390505390832e-01
47 97 8.23994665540544013e-01
48 97 8.20707621816909150e-01
49 97 8.18516259334485796e-01
50 97 8.17420578093273953e-01
51 97 8.17420578093273953e-01
52 97 8.18516259334485796e-01
53 97 8.20707621816909150e-01
54 97 8.23994665540544013e-01
55 97 8.28377390505390832e-01
56 97 8.33855796711449160e-01
57 97 8.40429884158719220e-01
58 97 8.48099652847201013e-01
59 97 8.56865102776894538e-01
60 97 8.66726233947799352e-01
61 97 8.77683046359916119e-01
62 97 8.89735540013244619e-01
63 97 9.02883714907784629e-01
64 97 9.17127571043536149e-01
65 97 9.32467108420499624e-01
66 97 9.48902327038674720e-01
67 97 9.57667776968368245e-01
68 97 9.48902327038674942e-01
69 97 9.32467108420499846e-01
70 97 9.17127571043536260e-01
71 97 9.02883714907784740e-01
72 97 8.89735540013244619e-01
73 97 8.77683046359916008e-01
74 97 8.66726233947799241e-01
75 97 8.56865102776894427e-01
76 97 8.48099652847201013e-01
77 97 8.40429884158719220e-01
78 97 8.33855796711449160e-01
79 97 8.28377390505390832e-01
80 97 8.23994665540544013e-01
81 97 8.20707621816909150e-01
82 97 8.18516259334485796e-01
83 97 8.17420578093273953e-01
84 97 8.17420578093273953e-01
85 97 8.18516259334485796e-01
86 97 8.20707621816909150e-01
87 97 8.23994665540544013e-01
88 97 8.28377390505390832e-01
89 97 8.33855796711449160e-01
90 97 8.40429884158719220e-01
91 97 8.48099652847201013e-01
92 97 8.56865102776894538e-01
93 97 8.66726233947799352e-01
94 97 8.77683046359916119e-01
95 97 8.89735540013244619e-01
96 97 9.02883714907784629e-01
97 97 9.17127571043536149e-01
98 97 9.32467108420499624e-01
99 97 9.48902327038674720e-01
100 97 9.57667776968368245e-01
101 97 9.48902327038674942e-01
102 97 9.32467108420499846e-01
103 97 9.17127571043536260e-01
104 97 9.02883714907784740e-01
105 97 8.89735540013244619e-01
106 97 8.77683046359916008e-01
107 97 8.66726233947799241e-01
108 97 8.56865102776894427e-01
109 97 8.48099652847201013e-01
110 97 8.40429884158719220e-01
111 97 8.33855796711449160e-01
112 97 8.28377390505390832e-01
113 97 8.23994665540544013e-01
114 97 8.20707621816909150e-01
115 97 8.18516259334485796e-01
116 97 8.17420578093273953e-01
117 97 8.17420578093273953e-01
118 97 8.18516259334485796e-01
119 97 8.20707621816909150e-01
120 97 8.23994665540544013e-01
121 97 8.28377390505390832e-01
122 97 8.33855796711449160e-01
123 97 8.40429884158719220e-01
124 97 8.48099652847201013e-01
125 97 8.56865102776894538e-01
126 97 8.66726233947799352e-01
127 97 8.77683046359916119e-01
128 97 8.89735540013244619e-01
129 97 9.02883714907784629e-01
130 97 9.17127571043536149e-01
131 97 9.32467108420499624e-01
132 97 9.48902327038674720e-01
133 97 9.57667776968368245e-01
1 98 9.73685374872228837e-01
2 98 9.64773317261044316e-01
3 98 9.48063209240073035e-01
4 98 9.32467108420499735e-01
5 98 9.17985014802324750e-01
6 98 9.04616928385547747e-01
7 98 8.92362849170168615e-01
8 98 8.81222777156187687e-01
9 98 8.71196712343605184e-01
10 98 8.62284654732420552e-01
11 98 8.54486604322633791e-01
12 98 8.47802561114245345e-01
13 98 8.42232525107254881e-01
14 98 8.37776496301662510e-01
15 98 8.34434474697468342e-01
16 98 8.32206460294672157e-01
17 98 8.31092453093273953e-01
18 98 8.31092453093273953e-01
19 98 8.32206460294672268e-01
20 98 8.34434474697468342e-01
21 98 8.37776496301662510e-01
22 98 8.42232525107254881e-01
23 98 8.47802561114245345e-01
24 98 8.54486604322633791e-01
25 98 8.62284654732420552e-01
26 98 8.71196712343605295e-01
27 98 8.81222777156187798e-01
28 98 8.92362849170168726e-01
29 98 9.04616928385547747e-01
30 98 9.17985014802324750e-01
31 98 9.32467108420499624e-01
32 98 9.48063209240072813e-01
33 98 9.64773317261044094e-01
34 98 9.73685374872228837e-01
35 98 9.64773317261044316e-01
36 98 9.48063209240073035e-01
37 98 9.32467108420499735e-01
38 98 9.17985014802324750e-01
39 98 9.04616928385547747e-01
40 98 8.92362849170168615e-01
41 98 8.81222777156187687e-01
42 98 8.71196712343605184e-01
43 98 8.62284654732420552e-01
44 98 8.54486604322633791e-01
45 98 8.47802561114245345e-01
46 98 8.42232525107254881e-01
47 98 8.37776496301662510e-01
48 98 8.34434474697468342e-01
49 98 8.32206460294672157e-01
50 98 8.31092453093273953e-01
51 98 8.31092453093273953e-01
52 98 8.32206460294672268e-01
53 98 8.34434474697468342e-01
54 98 8.37776496301662510e-01
55 98 8.42232525107254881e-01
56 98 8.47802561114245345e-01
57 98 8.54486604322633791e-01
58 98 8.62284654732420552e-01
59 98 8.71196712343605295e-01
60 98 8.81222777156187798e-01
61 98 8.92362849170168726e-01
62 98 9.04616928385547747e-01
63 98 9.17985014802324750e-01
64 98 9.32467108420499624e-01
65 98 9.48063209240072813e-01
66 98 9.64773317261044094e-01
67 98 9.73685374872228837e-01
68 98 9.64773317261044316e-01
69 98 9.48063209240073035e-01
70 98 9.32467108420499735e-01
71 98 9.17985014802324750e-01
72 98 9.04616928385547747e-01
73 98 8.92362849170168615e-01
74 98 8.81222777156187687e-01
75 98 8.71196712343605184e-01
76 98 8.62284654732420552e-01
77 98 8.54486604322633791e-01
78 98 8.47802561114245345e-01
79 98 8.42232525107254881e-01
80 98 8.37776496301662510e-01
81 98 8.34434474697468342e-01
82 98 8.32206460294672157e-01
83 98 8.31092453093273953e-01
84 98 8.31092453093273953e-01
85 98 8.32206460294672268e-01
86 98 8.34434474697468342e-01
87 98 8.37776496301662510e-01
88 98 8.42232525107254881e-01
89 98 8.47802561114245345e-01
90 98 8.54486604322633791e-01
91 98 8.62284654732420552e-01
92 98 8.71196712343605295e-01
93 98 8.81222777156187798e-01
94 98 8.92362849170168726e-01
95 98 9.04616928385547747e-01
96 98 9.17985014802324750e-01
97 98 9.32467108420499624e-01
98 98 9.48063209240072813e-01
99 98 9.64773317261044094e-01
100 98 9.73685374872228837e-01
101 98 9.64773317261044316e-01
102 98 9.48063209240073035e-01
103 98 9.32467108420499735e-01
104 98 9.17985014802324750e-01
105 98 9.04616928385547747e-01
106 98 8.92362849170168615e-01
107 98 8.81222777156187687e-01
108 98 8.71196712343605184e-01
109 98 8.62284654732420552e-01
110 98 8.54486604322633791e-01
111 98 8.47802561114245345e-01
112 98 8.42232525107254881e-01
113 98 8.37776496301662510e-01
114 98 8.34434474697468342e-01
115 98 8.32206460294672157e-01
116 98 8.31092453093273953e-01
117 98 8.31092453093273953e-01
118 98 8.32206460294672268e-01
119 98 8.34434474697468342e-01
120 98 8.37776496301662510e-01
121 98 8.42232525107254881e-01
122 98 8.47802561114245345e-01
123 98 8.54486604322633791e-01
124 98 8.62284654732420552e-01
125 98 8.71196712343605295e-01
126 98 8.81222777156187798e-01
127 98 8.92362849170168726e-01
128 98 9.04616928385547747e-01
129 98 9.17985014802324750e-01
130 98 9.32467108420499624e-01
131 98 9.48063209240072813e-01
132 98 9.64773317261044094e-01
133 98 9.73685374872228837e-01
1 99 9.90847086912079567e-01
2 99 9.81777949642154368e-01
3 99 9.64773317261044427e-01
4 99 9.48902327038674942e-01
5 99 9.34164978975046245e-01
6 99 9.20561273070158226e-01
7 99 9.08091209324010773e-01
8 99 8.96754787736603998e-01
9 99 8.86552008307938122e-01
10 99 8.77482871038012813e-01
11 99 8.69547375926828070e-01
12 99 8.62745522974384116e-01
13 99 8.57077312180680617e-01
14 99 8.52542743545718018e-01
15 99 8.49141817069496097e-01
16 99 8.46874532752014741e-01
17 99 8.45740890593274064e-01
18 99 8.45740890593274064e-01
19 99 8.46874532752014852e-01
20 99 8.49141817069496097e-01
21 99 8.52542743545718018e-01
22 99 8.57077312180680728e-01
23 99 8.62745522974384116e-01
24 99 8.69547375926828070e-01
25 99 8.77482871038012813e-01
26 99 8.86552008307938233e-01
27 99 8.96754787736604109e-01
28 99 9.08091209324010884e-01
29 99 9.20561273070158226e-01
30 99 9.34164978975046245e-01
31 99 9.48902327038674831e-01
32 99 9.64773317261044094e-01
33 99 9.81777949642154146e-01
34 99 9.90847086912079567e-01
35 99 9.81777949642154368e-01
36 99 9.64773317261044427e-01
37 99 9.48902327038674942e-01
38 99 9.34164978975046245e-01
39 99 9.20561273070158226e-01
40 99 9.08091209324010773e-01
41 99 8.96754787736603998e-01
42 99 8.86552008307938122e-01
43 99 8.77482871038012813e-01
44 99 8.69547375926828070e-01
45 99 8.62745522974384116e-01
46 99 8.57077312180680617e-01
47 99 8.52542743545718018e-01
48 99 8.49141817069496097e-01
49 99 8.46874532752014741e-01
50 99 8.45740890593274064e-01
51 99 8.45740890593274064e-01
52 99 8.46874532752014852e-01
53 99 8.49141817069496097e-01
54 99 8.52542743545718018e-01
55 99 8.57077312180680728e-01
56 99 8.62745522974384116e-01
57 99 8.69547375926828070e-01
58 99 8.77482871038012813e-01
59 99 8.86552008307938233e-01
60 99 8.96754787736604109e-01
61 99 9.08091209324010884e-01
62 99 9.20561273070158226e-01
63 99 9.34164978975046245e-01
64 99 9.48902327038674831e-01
65 99 9.64773317261044094e-01
66 99 9.81777949642154146e-01
67 99 9.90847086912079567e-01
68 99 9.81777949642154368e-01
69 99 9.64773317261044427e-01
70 99 9.48902327038674942e-01
71 99 9.34164978975046245e-01
72 99 9.20561273070158226e-01
73 99 9.08091209324010773e-01
74 99 8.96754787736603998e-01
75 99 8.86552008307938122e-01
76 99 8.77482871038012813e-01
77 99 8.69547375926828070e-01
78 99 8.62745522974384116e-01
79 99 8.57077312180680617e-01
80 99 8.52542743545718018e-01
81 99 8.49141817069496097e-01
82 99 8.46874532752014741e-01
83 99 8.45740890593274064e-01
84 99 8.45740890593274064e-01
85 99 8.46874532752014852e-01
86 99 8.49141817069496097e-01
87 99 8.52542743545718018e-01
88 99 8.57077312180680728e-01
89 99 8.62745522974384116e-01
90 99 8.69547375926828070e-01
91 99 8.77482871038012813e-01
92 99 8.86552008307938233e-01
93 99 8.96754787736604109e-01
94 99 9.08091209324010884e-01
95 99 9.20561273070158226e-01
96 99 9.34164978975046245e-01
97 99 9.48902327038674831e-01
98 99 9.64773317261044094e-01
99 99 9.81777949642154146e-01
100 99 9.90847086912079567e-01
101 99 9.81777949642154368e-01
102 99 9.64773317261044427e-01
103 99 9.48902327038674942e-01
104 99 9.34164978975046245e-01
105 99 9.20561273070158226e-01
106 99 9.08091209324010773e-01
107 99 8.96754787736603998e-01
108 99 8.86552008307938122e-01
109 99 8.77482871038012813e-01
110 99 8.69547375926828070e-01
111 99 8.62745522974384116e-01
112 99 8.57077312180680617e-01
113 99 8.52542743545718018e-01
114 99 8.49141817069496097e-01
115 99 8.46874532752014741e-01
116 99 8.45740890593274064e-01
117 99 8.45740890593274064e-01
118 99 8.46874532752014852e-01
119 99 8.49141817069496097e-01
120 99 8.52542743545718018e-01
121 99 8.57077312180680728e-01
122 99 8.62745522974384116e-01
123 99 8.69547375926828070e-01
124 99 8.77482871038012813e-01
125 99 8.86552008307938233e-01
126 99 8.96754787736604109e-01
127 99 9.08091209324010884e-01
128 99 9.20561273070158226e-01
129 99 9.34164978975046245e-01
130 99 9.48902327038674831e-01
131 99 9.64773317261044094e-01
132 99 9.81777949642154146e-01
133 99 9.90847086912079567e-01
1 100 1.00000000000000000e+00
2 100 9.90847086912079678e-01
3 100 9.73685374872229059e-01
4 100 9.57667776968368356e-01
5 100 9.42794293200497679e-01
6 100 9.29064923568617140e-01
7 100 9.16479668072726517e-01
8 100 9.05038526712826030e-01
9 100 8.94741499488915681e-01
10 100 8.85588586400995359e-01
11 100 8.77579787449064952e-01
12 100 8.70715102633124793e-01
13 100 8.64994531953174439e-01
14 100 8.60418075409214334e-01
15 100 8.56985733001244254e-01
16 100 8.54697504729264090e-01
17 100 8.53553390593274064e-01
18 100 8.53553390593274064e-01
19 100 8.54697504729264201e-01
20 100 8.56985733001244254e-01
21 100 8.60418075409214334e-01
22 100 8.64994531953174550e-01
23 100 8.70715102633124793e-01
24 100 8.77579787449065063e-01
25 100 8.85588586400995359e-01
26 100 8.94741499488915792e-01
27 100 9.05038526712826141e-01
28 100 9.16479668072726628e-01
29 100 9.29064923568617140e-01
30 100 9.42794293200497679e-01
31 100 9.57667776968368245e-01
32 100 9.73685374872228837e-01
33 100 9.90847086912079567e-01
34 100 1.00000000000000000e+00
35 100 9.90847086912079678e-01
36 100 9.73685374872229059e-01
37 100 9.57667776968368356e-01
38 100 9.42794293200497679e-01
39 100 9.29064923568617140e-01
40 100 9.16479668072726517e-01
41 100 9.05038526712826030e-01
42 100 8.94741499488915681e-01
43 100 8.85588586400995359e-01
44 100 8.77579787449064952e-01
45 100 8.70715102633124793e-01
46 100 8.64994531953174439e-01
47 100 8.60418075409214334e-01
48 100 8.56985733001244254e-01
49 100 8.54697504729264090e-01
50 100 8.53553390593274064e-01
51 100 8.53553390593274064e-01
52 100 8.54697504729264201e-01
53 100 8.56985733001244254e-01
54 100 8.60418075409214334e-01
55 100 8.64994531953174550e-01
56 100 8.70715102633124793e-01
57 100 8.77579787449065063e-01
58 100 8.85588586400995359e-01
59 100 8.94741499488915792e-01
60 100 9.05038526712826141e-01
61 100 9.16479668072726628e-01
62 100 9.29064923568617140e-01
63 100 9.42794293200497679e-01
64 100 9.57667776968368245e-01
65 100 9.73685374872228837e-01
66 100 9.90847086912079567e-01
67 100 1.00000000000000000e+00
68 100 9.90847086912079678e-01
69 100 9.73685374872229059e-01
70 100 9.57667776968368356e-01
71 100 9.42794293200497679e-01
72 100 9.29064923568617140e-01
73 100 9.16479668072726517e-01
74 100 9.05038526712826030e-01
75 100 8.94741499488915681e-01
76 100 8.85588586400995359e-01
77 100 8.77579787449064952e-01
78 100 8.70715102633124793e-01
79 100 8.64994531953174439e-01
80 100 8.60418075409214334e-01
81 100 8.56985733001244254e-01
82 100 8.54697504729264090e-01
83 100 8.53553390593274064e-01
84 100 8.53553390593274064e-01
85 100 8.54697504729264201e-01
86 100 8.56985733001244254e-01
87 100 8.60418075409214334e-01
88 100 8.64994531953174550e-01
89 100 8.70715102633124793e-01
90 100 8.77579787449065063e-01
91 100 8.85588586400995359e-01
92 100 8.94741499488915792e-01
93 100 9.05038526712826141e-01
94 100 9.16479668072726628e-01
95 100 9.29064923568617140e-01
96 100 9.42794293200497679e-01
97 100 9.57667776968368245e-01
98 100 9.73685374872228837e-01
99 100 9.90847086912079567e-01
100 100 1.00000000000000000e+00
101 100 9.90847086912079678e-01
102 100 9.73685374872229059e-01
103 100 9.57667776968368356e-01
104 100 9.42794293200497679e-01
105 100 9.29064923568617140e-01
106 100 9.16479668072726517e-01
107 100 9.05038526712826030e-01
108 100 8.94741499488915681e-01
109 100 8.85588586400995359e-01
110 100 8.77579787449064952e-01
111 100 8.70715102633124793e-01
112 100 8.64994531953174439e-01
113 100 8.60418075409214334e-01
114 100 8.56985733001244254e-01
115 100 8.54697504729264090e-01
116 100 8.53553390593274064e-01
117 100 8.53553390593274064e-01
118 100 8.54697504729264201e-01
119 100 8.56985733001244254e-01
120 100 8.60418075409214334e-01
121 100 8.64994531953174550e-01
122 100 8.70715102633124793e-01
123 100 8.77579787449065063e-01
124 100 8.85588586400995359e-01
125 100 8.94741499488915792e-01
126 100 9.05038526712826141e-01
127 100 9.16479668072726628e-01
128 100 9.29064923568617140e-01
129 100 9.42794293200497679e-01
130 100 9.57667776968368245e-01
131 100 9.73685374872228837e-01
132 100 9.90847086912079567e-01
133 100 1.00000000000000000e+00
1 101 9.90847086912079678e-01
2 101 9.81777949642154368e-01
3 101 9.64773317261044427e-01
4 101 9.48902327038675053e-01
5 101 9.34164978975046134e-01
6 101 9.20561273070158226e-01
7 101 9.08091209324010773e-01
8 101 8.96754787736603998e-01
9 101 8.86552008307938122e-01
10 101 8.77482871038012924e-01
11 101 8.69547375926828070e-01
12 101 8.62745522974384227e-01
13 101 8.57077312180680728e-01
14 101 8.52542743545718129e-01
15 101 8.49141817069496208e-01
16 101 8.46874532752014852e-01
17 101 8.45740890593274175e-01
18 101 8.45740890593274175e-01
19 101 8.46874532752014852e-01
20 101 8.49141817069496208e-01
21 101 8.52542743545718129e-01
22 101 8.57077312180680950e-01
23 101 8.62745522974384227e-01
24 101 8.69547375926828181e-01
25 101 8.77482871038012924e-01
26 101 8.86552008307938233e-01
27 101 8.96754787736604220e-01
28 101 9.08091209324010884e-01
29 101 9.20561273070158226e-01
30 101 9.34164978975046134e-01
31 101 9.48902327038674942e-01
32 101 9.64773317261044205e-01
33 101 9.81777949642154368e-01
34 101 9.90847086912079678e-01
35 101 9.81777949642154368e-01
36 101 9.64773317261044427e-01
37 101 9.48902327038675053e-01
38 101 9.34164978975046134e-01
39 101 9.20561273070158226e-01
40 101 9.08091209324010773e-01
41 101 8.96754787736603998e-01
42 101 8.86552008307938122e-01
43 101 8.77482871038012924e-01
44 101 8.69547375926828070e-01
45 101 8.62745522974384227e-01
46 101 8.57077312180680728e-01
47 101 8.52542743545718129e-01
48 101 8.49141817069496208e-01
49 101 8.46874532752014852e-01
50 101 8.45740890593274175e-01
51 101 8.45740890593274175e-01
52 101 8.46874532752014852e-01
53 101 8.49141817069496208e-01
54 101 8.52542743545718129e-01
55 101 8.57077312180680950e-01
56 101 8.62745522974384227e-01
57 101 8.69547375926828181e-01
58 101 8.77482871038012924e-01
59 101 8.86552008307938233e-01
60 101 8.96754787736604220e-01
61 101 9.08091209324010884e-01
62 101 9.20561273070158226e-01
63 101 9.34164978975046134e-01
64 101 9.48902327038674942e-01
65 101 9.64773317261044205e-01
66 101 9.81777949642154368e-01
67 101 9.90847086912079678e-01
68 101 9.81777949642154368e-01
69 101 9.64773317261044427e-01
70 101 9.48902327038675053e-01
71 101 9.34164978975046134e-01
72 101 9.20561273070158226e-01
73 101 9.08091209324010773e-01
74 101 8.96754787736603998e-01
75 101 8.86552008307938122e-01
76 101 8.77482871038012924e-01
77 101 8.69547375926828070e-01
78 101 8.62745522974384227e-01
79 101 8.57077312180680728e-01
80 101 8.52542743545718129e-01
81 101 8.49141817069496208e-01
82 101 8.46874532752014852e-01
83 101 8.45740890593274175e-01
84 101 8.45740890593274175e-01
85 101 8.46874532752014852e-01
86 101 8.49141817069496208e-01
87 101 8.52542743545718129e-01
88 101 8.57077312180680950e-01
89 101 8.62745522974384227e-01
90 101 8.69547375926828181e-01
91 101 8.77482871038012924e-01
92 101 8.86552008307938233e-01
93 101 8.96754787736604220e-01
94 101 9.08091209324010884e-01
95 101 9.20561273070158226e-01
96 101 9.34164978975046134e-01
97 101 9.48902327038674942e-01
98 101 9.64773317261044205e-01
99 101 9.81777949642154368e-01
100 101 9.90847086912079678e-01
101 101 9.81777949642154368e-01
102 101 9.64773317261044427e-01
103 101 9.48902327038675053e-01
104 101 9.34164978975046134e-01
105 101 9.20561273070158226e-01
106 101 9.08091209324010773e-01
107 101 8.96754787736603998e-01
108 101 8.86552008307938122e-01
109 101 8.77482871038012924e-01
110 101 8.69547375926828070e-01
111 101 8.62745522974384227e-01
112 101 8.57077312180680728e-01
113 101 8.52542743545718129e-01
114 101 8.49141817069496208e-01
115 101 8.46874532752014852e-01
116 101 8.45740890593274175e-01
117 101 8.45740890593274175e-01
118 101 8.46874532752014852e-01
119 101 8.49141817069496208e-01
120 101 8.52542743545718129e-01
121 101 8.57077312180680950e-01
122 101 8.62745522974384227e-01
123 101 8.69547375926828181e-01
124 101 8.77482871038012924e-01
125 101 8.86552008307938233e-01
126 101 8.96754787736604220e-01
127 101 9.08091209324010884e-01
128 101 9.20561273070158226e-01
129 101 9.34164978975046134e-01
130 101 9.48902327038674942e-01
131 101 9.64773317261044205e-01
132 101 9.81777949642154368e-01
133 101 9.90847086912079678e-01
1 102 9.73685374872229059e-01
2 102 9.64773317261044427e-01
3 102 9.48063209240073146e-01
4 102 9.32467108420500068e-01
5 102 9.17985014802324639e-01
6 102 9.04616928385547858e-01
7 102 8.92362849170168726e-01
8 102 8.81222777156187798e-01
9 102 8.71196712343605295e-01
10 102 8.62284654732420774e-01
11 102 8.54486604322633791e-01
12 102 8.47802561114245457e-01
13 102 8.42232525107254881e-01
14 102 8.37776496301662732e-01
15 102 8.34434474697468342e-01
16 102 8.32206460294672268e-01
17 102 8.31092453093274175e-01
18 102 8.31092453093274175e-01
19 102 8.32206460294672379e-01
20 102 8.34434474697468342e-01
21 102 8.37776496301662732e-01
22 102 8.42232525107255214e-01
23 102 8.47802561114245457e-01
24 102 8.54486604322633903e-01
25 102 8.62284654732420774e-01
26 102 8.71196712343605295e-01
27 102 8.81222777156187798e-01
28 102 8.92362849170168726e-01
29 102 9.04616928385547858e-01
30 102 9.17985014802324639e-01
31 102 9.32467108420499846e-01
32 102 9.48063209240073146e-01
33 102 9.64773317261044427e-01
34 102 9.73685374872229059e-01
35 102 9.64773317261044427e-01
36 102 9.48063209240073146e-01
37 102 9.32467108420500068e-01
38 102 9.17985014802324639e-01
39 102 9.04616928385547858e-01
40 102 8.92362849170168726e-01
41 102 8.81222777156187798e-01
42 102 8.71196712343605295e-01
43 102 8.62284654732420774e-01
44 102 8.54486604322633791e-01
45 102 8.47802561114245457e-01
46 102 8.42232525107254881e-01
47 102 8.37776496301662732e-01
48 102 8.34434474697468342e-01
49 102 8.32206460294672268e-01
50 102 8.31092453093274175e-01
51 102 8.31092453093274175e-01
52 102 8.32206460294672379e-01
53 102 8.34434474697468342e-01
54 102 8.37776496301662732e-01
55 102 8.42232525107255214e-01
56 102 8.47802561114245457e-01
57 102 8.54486604322633903e-01
58 102 8.62284654732420774e-01
59 102 8.71196712343605295e-01
60 102 8.81222777156187798e-01
61 102 8.92362849170168726e-01
62 102 9.04616928385547858e-01
63 102 9.17985014802324639e-01
64 102 9.32467108420499846e-01
65 102 9.48063209240073146e-01
66 102 9.64773317261044427e-01
67 102 9.73685374872229059e-01
68 102 9.64773317261044427e-01
69 102 9.48063209240073146e-01
70 102 9.32467108420500068e-01
71 102 9.17985014802324639e-01
72 102 9.04616928385547858e-01
73 102 8.92362849170168726e-01
74 102 8.81222777156187798e-01
75 102 8.71196712343605295e-01
76 102 8.62284654732420774e-01
77 102 8.54486604322633791e-01
78 102 8.47802561114245457e-01
79 102 8.42232525107254881e-01
80 102 8.37776496301662732e-01
81 102 8.34434474697468342e-01
82 102 8.32206460294672268e-01
83 102 8.31092453093274175e-01
84 102 8.31092453093274175e-01
85 102 8.32206460294672379e-01
86 102 8.34434474697468342e-01
87 102 8.37776496301662732e-01
88 102 8.42232525107255214e-01
89 102 8.47802561114245457e-01
90 102 8.54486604322633903e-01
91 102 8.62284654732420774e-01
92 102 8.71196712343605295e-01
93 102 8.81222777156187798e-01
94 102 8.92362849170168726e-01
95 102 9.04616928385547858e-01
96 102 9.17985014802324639e-01
97 102 9.32467108420499846e-01
98 102 9.48063209240073146e-01
99 102 9.64773317261044427e-01
100 102 9.73685374872229059e-01
101 102 9.64773317261044427e-01
102 102 9.48063209240073146e-01
103 102 9.32467108420500068e-01
104 102 9.17985014802324639e-01
105 102 9.04616928385547858e-01
106 102 8.92362849170168726e-01
107 102 8.81222777156187798e-01
108 102 8.71196712343605295e-01
109 102 8.62284654732420774e-01
110 102 8.54486604322633791e-01
111 102 8.47802561114245457e-01
112 102 8.42232525107254881e-01
113 102 8.37776496301662732e-01
114 102 8.34434474697468342e-01
115 102 8.32206460294672268e-01
116 102 8.31092453093274175e-01
117 102 8.31092453093274175e-01
118 102 8.32206460294672379e-01
119 102 8.34434474697468342e-01
120 102 8.37776496301662732e-01
121 102 8.42232525107255214e-01
122 102 8.47802561114245457e-01
123 102 8.54486604322633903e-01
124 102 8.62284654732420774e-01
125 102 8.71196712343605295e-01
126 102 8.81222777156187798e-01
127 102 8.92362849170168726e-01
128 102 9.04616928385547858e-01
129 102 9.17985014802324639e-01
130 102 9.32467108420499846e-01
131 102 9.48063209240073146e-01
132 102 9.64773317261044427e-01
133 102 9.73685374872229059e-01
1 103 9.57667776968368356e-01
2 103 9.48902327038675053e-01
3 103 9.32467108420499846e-01
4 103 9.17127571043536594e-01
5 103 9.02883714907784629e-01
6 103 8.89735540013244730e-01
7 103 8.77683046359916119e-01
8 103 8.66726233947799241e-01
9 103 8.56865102776894538e-01
10 103 8.48099652847201124e-01
11 103 8.40429884158719109e-01
12 103 8.33855796711449382e-01
13 103 8.28377390505390720e-01
14 103 8.23994665540544124e-01
15 103 8.20707621816909150e-01
16 103 8.18516259334485796e-01
17 103 8.17420578093274175e-01
18 103 8.17420578093274175e-01
19 103 8.18516259334485907e-01
20 103 8.20707621816909150e-01
21 103 8.23994665540544124e-01
22 103 8.28377390505391054e-01
23 103 8.33855796711449382e-01
24 103 8.40429884158719220e-01
25 103 8.48099652847201124e-01
26 103 8.56865102776894538e-01
27 103 8.66726233947799352e-01
28 103 8.77683046359916119e-01
29 103 8.89735540013244619e-01
30 103 9.02883714907784629e-01
31 103 9.17127571043536371e-01
32 103 9.32467108420499846e-01
33 103 9.48902327038675053e-01
34 103 9.57667776968368356e-01
35 103 9.48902327038675053e-01
36 103 9.32467108420499846e-01
37 103 9.17127571043536594e-01
38 103 9.02883714907784629e-01
39 103 8.89735540013244730e-01
40 103 8.77683046359916119e-01
41 103 8.66726233947799241e-01
42 103 8.56865102776894538e-01
43 103 8.48099652847201124e-01
44 103 8.40429884158719109e-01
45 103 8.33855796711449382e-01
46 103 8.28377390505390720e-01
47 103 8.23994665540544124e-01
48 103 8.20707621816909150e-01
49 103 8.18516259334485796e-01
50 103 8.17420578093274175e-01
51 103 8.17420578093274175e-01
52 103 8.18516259334485907e-01
53 103 8.20707621816909150e-01
54 103 8.23994665540544124e-01
55 103 8.28377390505391054e-01
56 103 8.33855796711449382e-01
57 103 8.40429884158719220e-01
58 103 8.48099652847201124e-01
59 103 8.56865102776894538e-01
60 103 8.66726233947799352e-01
61 103 8.77683046359916119e-01
62 103 8.89735540013244619e-01
63 103 9.02883714907784629e-01
64 103 9.17127571043536371e-01
65 103 9.32467108420499846e-01
66 103 9.48902327038675053e-01
67 103 9.57667776968368356e-01
68 103 9.48902327038675053e-01
69 103 9.32467108420499846e-01
70 103 9.17127571043536594e-01
71 103 9.02883714907784629e-01
72 103 8.89735540013244730e-01
73 103 8.77683046359916119e-01
74 103 8.66726233947799241e-01
75 103 8.56865102776894538e-01
76 103 8.48099652847201124e-01
77 103 8.40429884158719109e-01
78 103 8.33855796711449382e-01
79 103 8.28377390505390720e-01
80 103 8.23994665540544124e-01
81 103 8.20707621816909150e-01
82 103 8.18516259334485796e-01
83 103 8.17420578093274175e-01
84 103 8.17420578093274175e-01
85 103 8.18516259334485907e-01
86 103 8.20707621816909150e-01
87 103 8.23994665540544124e-01
88 103 8.28377390505391054e-01
89 103 8.33855796711449382e-01
90 103 8.40429884158719220e-01
91 103 8.48099652847201124e-01
92 103 8.56865102776894538e-01
93 103 8.66726233947799352e-01
94 103 8.77683046359916119e-01
95 103 8.89735540013244619e-01
96 103 9.02883714907784629e-01
97 103 9.17127571043536371e-01
98 103 9.32467108420499846e-01
99 103 9.48902327038675053e-01
100 103 9.57667776968368356e-01
101 103 9.48902327038675053e-01
102 103 9.32467108420499846e-01
103 103 9.17127571043536594e-01
104 103 9.02883714907784629e-01
105 103 8.89735540013244730e-01
106 103 8.77683046359916119e-01
107 103 8.66726233947799241e-01
108 103 8.56865102776894538e-01
109 103 8.48099652847201124e-01
110 103 8.40429884158719109e-01
111 103 8.33855796711449382e-01
112 103 8.28377390505390720e-01
113 103 8.23994665540544124e-01
114 103 8.20707621816909150e-01
115 103 8.18516259334485796e-01
116 103 8.17420578093274175e-01
117 103 8.17420578093274175e-01
118 103 8.18516259334485907e-01
119 103 8.20707621816909150e-01
120 103 8.23994665540544124e-01
121 103 8.28377390505391054e-01
122 103 8.33855796711449382e-01
123 103 8.40429884158719220e-01
124 103 8.48099652847201124e-01
125 103 8.56865102776894538e-01
126 103 8.66726233947799352e-01
127 103 8.77683046359916119e-01
128 103 8.89735540013244619e-01
129 103 9.02883714907784629e-01
130 103 9.17127571043536371e-01
131 103 9.32467108420499846e-01
132 103 9.48902327038675053e-01
133 103 9.57667776968368356e-01
1 104 9.42794293200497679e-01
2 104 9.34164978975046356e-01
3 104 9.17985014802324750e-01
4 104 9.02883714907784851e-01
5 104 8.88861079291426104e-01
6 104 8.75917107953249063e-01
7 104 8.64051800893252953e-01
8 104 8.53265158111438549e-01
9 104 8.43557179607805852e-01
10 104 8.34927865382354417e-01
11 104 8.27377215435084024e-01
12 104 8.20905229765995781e-01
13 104 8.15511908375088357e-01
14 104 8.11197251262362751e-01
15 104 8.07961258427818518e-01
16 104 8.05803929871455549e-01
17 104 8.04725265593274175e-01
18 104 8.04725265593274175e-01
19 104 8.05803929871455660e-01
20 104 8.07961258427818407e-01
21 104 8.11197251262362751e-01
22 104 8.15511908375088579e-01
23 104 8.20905229765995781e-01
24 104 8.27377215435084135e-01
25 104 8.34927865382354417e-01
26 104 8.43557179607805963e-01
27 104 8.53265158111438549e-01
28 104 8.64051800893252953e-01
29 104 8.75917107953248841e-01
30 104 8.88861079291426104e-01
31 104 9.02883714907784629e-01
32 104 9.17985014802324750e-01
33 104 9.34164978975046356e-01
34 104 9.42794293200497679e-01
35 104 9.34164978975046356e-01
36 104 9.17985014802324750e-01
37 104 9.02883714907784851e-01
38 104 8.88861079291426104e-01
39 104 8.75917107953249063e-01
40 104 8.64051800893252953e-01
41 104 8.53265158111438549e-01
42 104 8.43557179607805852e-01
43 104 8.34927865382354417e-01
44 104 8.27377215435084024e-01
45 104 8.20905229765995781e-01
46 104 8.15511908375088357e-01
47 104 8.11197251262362751e-01
48 104 8.07961258427818518e-01
49 104 8.05803929871455549e-01
50 104 8.04725265593274175e-01
51 104 8.04725265593274175e-01
52 104 8.05803929871455660e-01
53 104 8.07961258427818407e-01
54 104 8.11197251262362751e-01
55 104 8.15511908375088579e-01
56 104 8.20905229765995781e-01
57 104 8.27377215435084135e-01
58 104 8.34927865382354417e-01
59 104 8.43557179607805963e-01
60 104 8.53265158111438549e-01
61 104 8.64051800893252953e-01
62 104 8.75917107953248841e-01
63 104 8.88861079291426104e-01
64 104 9.02883714907784629e-01
65 104 9.17985014802324750e-01
66 104 9.34164978975046356e-01
67 104 9.42794293200497679e-01
68 104 9.34164978975046356e-01
69 104 9.17985014802324750e-01
70 104 9.02883714907784851e-01
71 104 8.88861079291426104e-01
72 104 8.75917107953249063e-01
73 104 8.64051800893252953e-01
74 104 8.53265158111438549e-01
75 104 8.43557179607805852e-01
76 104 8.34927865382354417e-01
77 104 8.27377215435084024e-01
78 104 8.20905229765995781e-01
79 104 8.15511908375088357e-01
80 104 8.11197251262362751e-01
81 104 8.07961258427818518e-01
82 104 8.05803929871455549e-01
83 104 8.04725265593274175e-01
84 104 8.04725265593274175e-01
85 104 8.05803929871455660e-01
86 104 8.07961258427818407e-01
87 104 8.11197251262362751e-01
88 104 8.15511908375088579e-01
89 104 8.20905229765995781e-01
90 104 8.27377215435084135e-01
91 104 8.34927865382354417e-01
92 104 8.43557179607805963e-01
93 104 8.53265158111438549e-01
94 104 8.64051800893252953e-01
95 104 8.75917107953248841e-01
96 104 8.88861079291426104e-01
97 104 9.02883714907784629e-01
98 104 9.17985014802324750e-01
99 104 9.34164978975046356e-01
100 104 9.42794293200497679e-01
101 104 9.34164978975046356e-01
102 104 9.17985014802324750e-01
103 104 9.02883714907784851e-01
104 104 8.88861079291426104e-01
105 104 8.75917107953249063e-01
106 104 8.64051800893252953e-01
107 104 8.53265158111438549e-01
108 104 8.43557179607805852e-01
109 104 8.34927865382354417e-01
110 104 8.27377215435084024e-01
111 104 8.20905229765995781e-01
112 104 8.15511908375088357e-01
113 104 8.11197251262362751e-01
114 104 8.07961258427818518e-01
115 104 8.05803929871455549e-01
116 104 8.04725265593274175e-01
117 104 8.04725265593274175e-01
118 104 8.05803929871455660e-01
119 104 8.07961258427818407e-01
120 104 8.11197251262362751e-01
121 104 8.15511908375088579e-01
122 104 8.20905229765995781e-01
123 104 8.27377215435084135e-01
124 104 8.34927865382354417e-01
125 104 8.43557179607805963e-01
126 104 8.53265158111438549e-01
127 104 8.64051800893252953e-01
128 104 8.75917107953248841e-01
129 104 8.88861079291426104e-01
130 104 9.02883714907784629e-01
131 104 9.17985014802324750e-01
132 104 9.34164978975046356e-01
133 104 9.42794293200497679e-01
1 105 9.29064923568617140e-01
2 105 9.20561273070158226e-01
3 105 9.04616928385547747e-01
4 105 8.89735540013244730e-01
5 105 8.75917107953248841e-01
6 105 8.63161632205560636e-01
7 105 8.51469112770179226e-01
8 105 8.40839549647105500e-01
9 105 8.31272942836339457e-01
10 105 8.22769292337880542e-01
11 105 8.15328598151728645e-01
12 105 8.08950860277884765e-01
13 105 8.03636078716347790e-01
14 105 7.99384253467118389e-01
15 105 7.96195384530196337e-01
16 105 7.94069471905581414e-01
17 105 7.93006515593274175e-01
18 105 7.93006515593274175e-01
19 105 7.94069471905581636e-01
20 105 7.96195384530196115e-01
21 105 7.99384253467118389e-01
22 105 8.03636078716347901e-01
23 105 8.08950860277884765e-01
24 105 8.15328598151728645e-01
25 105 8.22769292337880542e-01
26 105 8.31272942836339568e-01
27 105 8.40839549647105500e-01
28 105 8.51469112770179226e-01
29 105 8.63161632205560414e-01
30 105 8.75917107953248841e-01
31 105 8.89735540013244619e-01
32 105 9.04616928385547636e-01
33 105 9.20561273070158226e-01
34 105 9.29064923568617140e-01
35 105 9.20561273070158226e-01
36 105 9.04616928385547747e-01
37 105 8.89735540013244730e-01
38 105 8.75917107953248841e-01
39 105 8.63161632205560636e-01
40 105 8.51469112770179226e-01
41 105 8.40839549647105500e-01
42 105 8.31272942836339457e-01
43 105 8.22769292337880542e-01
44 105 8.15328598151728645e-01
45 105 8.08950860277884765e-01
46 105 8.03636078716347790e-01
47 105 7.99384253467118389e-01
48 105 7.96195384530196337e-01
49 105 7.94069471905581414e-01
50 105 7.93006515593274175e-01
51 105 7.93006515593274175e-01
52 105 7.94069471905581636e-01
53 105 7.96195384530196115e-01
54 105 7.99384253467118389e-01
55 105 8.03636078716347901e-01
56 105 8.08950860277884765e-01
57 105 8.15328598151728645e-01
58 105 8.22769292337880542e-01
59 105 8.31272942836339568e-01
60 105 8.40839549647105500e-01
61 105 8.51469112770179226e-01
62 105 8.63161632205560414e-01
63 105 8.75917107953248841e-01
64 105 8.89735540013244619e-01
65 105 9.04616928385547636e-01
66 105 9.20561273070158226e-01
67 105 9.29064923568617140e-01
68 105 9.20561273070158226e-01
69 105 9.04616928385547747e-01
70 105 8.89735540013244730e-01
71 105 8.75917107953248841e-01
72 105 8.63161632205560636e-01
73 105 8.51469112770179226e-01
74 105 8.40839549647105500e-01
75 105 8.31272942836339457e-01
76 105 8.22769292337880542e-01
77 105 8.15328598151728645e-01
78 105 8.08950860277884765e-01
79 105 8.03636078716347790e-01
80 105 7.99384253467118389e-01
81 105 7.96195384530196337e-01
82 105 7.94069471905581414e-01
83 105 7.93006515593274175e-01
84 105 7.93006515593274175e-01
85 105 7.94069471905581636e-01
86 105 7.96195384530196115e-01
87 105 7.99384253467118389e-01
88 105 8.03636078716347901e-01
89 105 8.08950860277884765e-01
90 105 8.15328598151728645e-01
91 105 8.22769292337880542e-01
92 105 8.31272942836339568e-01
93 105 8.40839549647105500e-01
94 105 8.51469112770179226e-01
95 105 8.63161632205560414e-01
96 105 8.75917107953248841e-01
97 105 8.89735540013244619e-01
98 105 9.04616928385547636e-01
99 105 9.20561273070158226e-01
100 105 9.29064923568617140e-01
101 105 9.20561273070158226e-01
102 105 9.04616928385547747e-01
103 105 8.89735540013244730e-01
104 105 8.75917107953248841e-01
105 105 8.63161632205560636e-01
106 105 8.51469112770179226e-01
107 105 8.40839549647105500e-01
108 105 8.31272942836339457e-01
109 105 8.22769292337880542e-01
110 105 8.15328598151728645e-01
111 105 8.08950860277884765e-01
112 105 8.03636078716347790e-01
113 105 7.99384253467118389e-01
114 105 7.96195384530196337e-01
115 105 7.94069471905581414e-01
116 105 7.93006515593274175e-01
117 105 7.93006515593274175e-01
118 105 7.94069471905581636e-01
119 105 7.96195384530196115e-01
120 105 7.99384253467118389e-01
121 105 8.03636078716347901e-01
122 105 8.08950860277884765e-01
123 105 8.15328598151728645e-01
124 105 8.22769292337880542e-01
125 105 8.31272942836339568e-01
126 105 8.40839549647105500e-01
127 105 8.51469112770179226e-01
128 105 8.63161632205560414e-01
129 105 8.75917107953248841e-01
130 105 8.89735540013244619e-01
131 105 9.04616928385547636e-01
132 105 9.20561273070158226e-01
133 105 9.29064923568617140e-01
1 106 9.16479668072726517e-01
2 106 9.08091209324010773e-01
3 106 8.92362849170168726e-01
4 106 8.77683046359916119e-01
5 106 8.64051800893252953e-01
6 106 8.51469112770179448e-01
7 106 8.39934981990694940e-01
8 106 8.29449408554800205e-01
9 106 8.20012392462495132e-01
10 106 8.11623933713779389e-01
11 106 8.04284032308652752e-01
12 106 7.97992688247116222e-01
13 106 7.92749901529168799e-01
14 106 7.88555672154810927e-01
15 106 7.85410000124042607e-01
16 106 7.83312885436863393e-01
17 106 7.82264328093274175e-01
18 106 7.82264328093274175e-01
19 106 7.83312885436863615e-01
20 106 7.85410000124042385e-01
21 106 7.88555672154810927e-01
22 106 7.92749901529168799e-01
23 106 7.97992688247116222e-01
24 106 8.04284032308652752e-01
25 106 8.11623933713779389e-01
26 106 8.20012392462495354e-01
27 106 8.29449408554800205e-01
28 106 8.39934981990694940e-01
29 106 8.51469112770179226e-01
30 106 8.64051800893252953e-01
31 106 8.77683046359916119e-01
32 106 8.92362849170168504e-01
33 106 9.08091209324010773e-01
34 106 9.16479668072726517e-01
35 106 9.08091209324010773e-01
36 106 8.92362849170168726e-01
37 106 8.77683046359916119e-01
38 106 8.64051800893252953e-01
39 106 8.51469112770179448e-01
40 106 8.39934981990694940e-01
41 106 8.29449408554800205e-01
42 106 8.20012392462495132e-01
43 106 8.11623933713779389e-01
44 106 8.04284032308652752e-01
45 106 7.97992688247116222e-01
46 106 7.92749901529168799e-01
47 106 7.88555672154810927e-01
48 106 7.85410000124042607e-01
49 106 7.83312885436863393e-01
50 106 7.82264328093274175e-01
51 106 7.82264328093274175e-01
52 106 7.83312885436863615e-01
53 106 7.85410000124042385e-01
54 106 7.88555672154810927e-01
55 106 7.92749901529168799e-01
56 106 7.97992688247116222e-01
57 106 8.04284032308652752e-01
58 106 8.11623933713779389e-01
59 106 8.20012392462495354e-01
60 106 8.29449408554800205e-01
61 106 8.39934981990694940e-01
62 106 8.51469112770179226e-01
63 106 8.64051800893252953e-01
64 106 8.77683046359916119e-01
65 106 8.92362849170168504e-01
66 106 9.08091209324010773e-01
67 106 9.16479668072726517e-01
68 106 9.08091209324010773e-01
69 106 8.92362849170168726e-01
70 106 8.77683046359916119e-01
71 106 8.64051800893252953e-01
72 106 8.51469112770179448e-01
73 106 8.39934981990694940e-01
74 106 8.29449408554800205e-01
75 106 8.20012392462495132e-01
76 106 8.11623933713779389e-01
77 106 8.04284032308652752e-01
78 106 7.97992688247116222e-01
79 106 7.92749901529168799e-01
80 106 7.88555672154810927e-01
81 106 7.85410000124042607e-01
82 106 7.83312885436863393e-01
83 106 7.82264328093274175e-01
84 106 7.82264328093274175e-01
85 106 7.83312885436863615e-01
86 106 7.85410000124042385e-01
87 106 7.88555672154810927e-01
88 106 7.92749901529168799e-01
89 106 7.97992688247116222e-01
90 106 8.04284032308652752e-01
91 106 8.11623933713779389e-01
92 106 8.20012392462495354e-01
93 106 8.29449408554800205e-01
94 106 8.39934981990694940e-01
95 106 8.51469112770179226e-01
96 106 8.64051800893252953e-01
97 106 8.77683046359916119e-01
98 106 8.92362849170168504e-01
99 106 9.08091209324010773e-01
100 106 9.16479668072726517e-01
101 106 9.08091209324010773e-01
102 106 8.92362849170168726e-01
103 106 8.77683046359916119e-01
104 106 8.64051800893252953e-01
105 106 8.51469112770179448e-01
106 106 8.39934981990694940e-01
107 106 8.29449408554800205e-01
108 106 8.20012392462495132e-01
109 106 8.11623933713779389e-01
110 106 8.04284032308652752e-01
111 106 7.97992688247116222e-01
112 106 7.92749901529168799e-01
113 106 7.88555672154810927e-01
114 106 7.85410000124042607e-01
115 106 7.83312885436863393e-01
116 106 7.82264328093274175e-01
117 106 7.82264328093274175e-01
118 106 7.83312885436863615e-01
119 106 7.85410000124042385e-01
120 106 7.88555672154810927e-01
121 106 7.92749901529168799e-01
122 106 7.97992688247116222e-01
123 106 8.04284032308652752e-01
124 106 8.11623933713779389e-01
125 106 8.20012392462495354e-01
126 106 8.29449408554800205e-01
127 106 8.39934981990694940e-01
128 106 8.51469112770179226e-01
129 106 8.64051800893252953e-01
130 106 8.77683046359916119e-01
131 106 8.92362849170168504e-01
132 106 9.08091209324010773e-01
133 106 9.16479668072726517e-01
1 107 9.05038526712826030e-01
2 107 8.96754787736604109e-01
3 107 8.81222777156187909e-01
4 107 8.66726233947799352e-01
5 107 8.53265158111438660e-01
6 107 8.40839549647105722e-01
7 107 8.29449408554800205e-01
8 107 8.19094734834522664e-01
9 107 8.09775528486273100e-01
10 107 8.01491789510051178e-01
11 107 7.94243517905856566e-01
12 107 7.88030713673690375e-01
13 107 7.82853376813551605e-01
14 107 7.78711507325440699e-01
15 107 7.75605105209357437e-01
16 107 7.73534170465301596e-01
17 107 7.72498703093274175e-01
18 107 7.72498703093274175e-01
19 107 7.73534170465301929e-01
20 107 7.75605105209357215e-01
21 107 7.78711507325440699e-01
22 107 7.82853376813551605e-01
23 107 7.88030713673690375e-01
24 107 7.94243517905856566e-01
25 107 8.01491789510051178e-01
26 107 8.09775528486273322e-01
27 107 8.19094734834522775e-01
28 107 8.29449408554800205e-01
29 107 8.40839549647105611e-01
30 107 8.53265158111438660e-01
31 107 8.66726233947799352e-01
32 107 8.81222777156187798e-01
33 107 8.96754787736604109e-01
34 107 9.05038526712826030e-01
35 107 8.96754787736604109e-01
36 107 8.81222777156187909e-01
37 107 8.66726233947799352e-01
38 107 8.53265158111438660e-01
39 107 8.40839549647105722e-01
40 107 8.29449408554800205e-01
41 107 8.19094734834522664e-01
42 107 8.09775528486273100e-01
43 107 8.01491789510051178e-01
44 107 7.94243517905856566e-01
45 107 7.88030713673690375e-01
46 107 7.82853376813551605e-01
47 107 7.78711507325440699e-01
48 107 7.75605105209357437e-01
49 107 7.73534170465301596e-01
50 107 7.72498703093274175e-01
51 107 7.72498703093274175e-01
52 107 7.73534170465301929e-01
53 107 7.75605105209357215e-01
54 107 7.78711507325440699e-01
55 107 7.82853376813551605e-01
56 107 7.88030713673690375e-01
57 107 7.94243517905856566e-01
58 107 8.01491789510051178e-01
59 107 8.09775528486273322e-01
60 107 8.19094734834522775e-01
61 107 8.29449408554800205e-01
62 107 8.40839549647105611e-01
63 107 8.53265158111438660e-01
64 107 8.66726233947799352e-01
65 107 8.81222777156187798e-01
66 107 8.96754787736604109e-01
67 107 9.05038526712826030e-01
68 107 8.96754787736604109e-01
69 107 8.81222777156187909e-01
70 107 8.66726233947799352e-01
71 107 8.53265158111438660e-01
72 107 8.40839549647105722e-01
73 107 8.29449408554800205e-01
74 107 8.19094734834522664e-01
75 107 8.09775528486273100e-01
76 107 8.01491789510051178e-01
77 107 7.94243517905856566e-01
78 107 7.88030713673690375e-01
79 107 7.82853376813551605e-01
80 107 7.78711507325440699e-01
81 107 7.75605105209357437e-01
82 107 7.73534170465301596e-01
83 107 7.72498703093274175e-01
84 107 7.72498703093274175e-01
85 107 7.73534170465301929e-01
86 107 7.75605105209357215e-01
87 107 7.78711507325440699e-01
88 107 7.82853376813551605e-01
89 107 7.88030713673690375e-01
90 107 7.94243517905856566e-01
91 107 8.01491789510051178e-01
92 107 8.09775528486273322e-01
93 107 8.19094734834522775e-01
94 107 8.29449408554800205e-01
95 107 8.40839549647105611e-01
96 107 8.53265158111438660e-01
97 107 8.66726233947799352e-01
98 107 8.81222777156187798e-01
99 107 8.96754787736604109e-01
100 107 9.05038526712826030e-01
101 107 8.96754787736604109e-01
102 107 8.81222777156187909e-01
103 107 8.66726233947799352e-01
104 107 8.53265158111438660e-01
105 107 8.40839549647105722e-01
106 107 8.29449408554800205e-01
107 107 8.19094734834522664e-01
108 107 8.09775528486273100e-01
109 107 8.01491789510051178e-01
110 107 7.94243517905856566e-01
111 107 7.88030713673690375e-01
112 107 7.82853376813551605e-01
113 107 7.78711507325440699e-01
114 107 7.75605105209357437e-01
115 107 7.73534170465301596e-01
116 107 7.72498703093274175e-01
117 107 7.72498703093274175e-01
118 107 7.73534170465301929e-01
119 107 7.75605105209357215e-01
120 107 7.78711507325440699e-01
121 107 7.82853376813551605e-01
122 107 7.88030713673690375e-01
123 107 7.94243517905856566e-01
124 107 8.01491789510051178e-01
125 107 8.09775528486273322e-01
126 107 8.19094734834522775e-01
127 107 8.29449408554800205e-01
128 107 8.40839549647105611e-01
129 107 8.53265158111438660e-01
130 107 8.66726233947799352e-01
131 107 8.81222777156187798e-01
132 107 8.96754787736604109e-01
133 107 9.05038526712826030e-01
1 108 8.94741499488915681e-01
2 108 8.86552008307938122e-01
3 108 8.71196712343605073e-01
4 108 8.56865102776894316e-01
5 108 8.43557179607805740e-01
6 108 8.31272942836339346e-01
7 108 8.20012392462495021e-01
8 108 8.09775528486272878e-01
9 108 8.00562350907673359e-01
10 108 7.92372859726695800e-01
11 108 7.85207054943340088e-01
12 108 7.79064936557607224e-01
13 108 7.73946504569496097e-01
14 108 7.69851758979007372e-01
15 108 7.66780699786140829e-01
16 108 7.64733326990896023e-01
17 108 7.63709640593274064e-01
18 108 7.63709640593274064e-01
19 108 7.64733326990896356e-01
20 108 7.66780699786140607e-01
21 108 7.69851758979007372e-01
22 108 7.73946504569496097e-01
23 108 7.79064936557607224e-01
24 108 7.85207054943339977e-01
25 108 7.92372859726695800e-01
26 108 8.00562350907673470e-01
27 108 8.09775528486272878e-01
28 108 8.20012392462495021e-01
29 108 8.31272942836339346e-01
30 108 8.43557179607805740e-01
31 108 8.56865102776894316e-01
32 108 8.71196712343604962e-01
33 108 8.86552008307938122e-01
34 108 8.94741499488915681e-01
35 108 8.86552008307938122e-01
36 108 8.71196712343605073e-01
37 108 8.56865102776894316e-01
38 108 8.43557179607805740e-01
39 108 8.31272942836339346e-01
40 108 8.20012392462495021e-01
41 108 8.09775528486272878e-01
42 108 8.00562350907673359e-01
43 108 7.92372859726695800e-01
44 108 7.85207054943340088e-01
45 108 7.79064936557607224e-01
46 108 7.73946504569496097e-01
47 108 7.69851758979007372e-01
48 108 7.66780699786140829e-01
49 108 7.64733326990896023e-01
50 108 7.63709640593274064e-01
51 108 7.63709640593274064e-01
52 108 7.64733326990896356e-01
53 108 7.66780699786140607e-01
54 108 7.69851758979007372e-01
55 108 7.73946504569496097e-01
56 108 7.79064936557607224e-01
57 108 7.85207054943339977e-01
58 108 7.92372859726695800e-01
59 108 8.00562350907673470e-01
60 108 8.09775528486272878e-01
61 108 8.20012392462495021e-01
62 108 8.31272942836339346e-01
63 108 8.43557179607805740e-01
64 108 8.56865102776894316e-01
65 108 8.71196712343604962e-01
66 108 8.86552008307938122e-01
67 108 8.94741499488915681e-01
68 108 8.86552008307938122e-01
69 108 8.71196712343605073e-01
70 108 8.56865102776894316e-01
71 108 8.43557179607805740e-01
72 108 8.31272942836339346e-01
73 108 8.20012392462495021e-01
74 108 8.09775528486272878e-01
75 108 8.00562350907673359e-01
76 108 7.92372859726695800e-01
77 108 7.85207054943340088e-01
78 108 7.79064936557607224e-01
79 108 7.73946504569496097e-01
80 108 7.69851758979007372e-01
81 108 7.66780699786140829e-01
82 108 7.64733326990896023e-01
83 108 7.63709640593274064e-01
84 108 7.63709640593274064e-01
85 108 7.64733326990896356e-01
86 108 7.66780699786140607e-01
87 108 7.69851758979007372e-01
88 108 7.73946504569496097e-01
89 108 7.79064936557607224e-01
90 108 7.85207054943339977e-01
91 108 7.92372859726695800e-01
92 108 8.00562350907673470e-01
93 108 8.09775528486272878e-01
94 108 8.20012392462495021e-01
95 108 8.31272942836339346e-01
96 108 8.43557179607805740e-01
97 108 8.56865102776894316e-01
98 108 8.71196712343604962e-01
99 108 8.86552008307938122e-01
100 108 8.94741499488915681e-01
101 108 8.86552008307938122e-01
102 108 8.71196712343605073e-01
103 108 8.56865102776894316e-01
104 108 8.43557179607805740e-01
105 108 8.31272942836339346e-01
106 108 8.20012392462495021e-01
107 108 8.09775528486272878e-01
108 108 8.00562350907673359e-01
109 108 7.92372859726695800e-01
110 108 7.85207054943340088e-01
111 108 7.79064936557607224e-01
112 108 7.73946504569496097e-01
113 108 7.69851758979007372e-01
114 108 7.66780699786140829e-01
115 108 7.64733326990896023e-01
116 108 7.63709640593274064e-01
117 108 7.63709640593274064e-01
118 108 7.64733326990896356e-01
119 108 7.66780699786140607e-01
120 108 7.69851758979007372e-01
121 108 7.73946504569496097e-01
122 108 7.79064936557607224e-01
123 108 7.85207054943339977e-01
124 108 7.92372859726695800e-01
125 108 8.00562350907673470e-01
126 108 8.09775528486272878e-01
127 108 8.20012392462495021e-01
128 108 8.31272942836339346e-01
129 108 8.43557179607805740e-01
130 108 8.56865102776894316e-01
131 108 8.71196712343604962e-01
132 108 8.86552008307938122e-01
133 108 8.94741499488915681e-01
1 109 8.85588586400995359e-01
2 109 8.77482871038012813e-01
3 109 8.62284654732420441e-01
4 109 8.48099652847201013e-01
5 109 8.34927865382354417e-01
6 109 8.22769292337880431e-01
7 109 8.11623933713779278e-01
8 109 8.01491789510050956e-01
9 109 7.92372859726695689e-01
10 109 7.84267144363713253e-01
11 109 7.77174643421103095e-01
12 109 7.71095356898866546e-01
13 109 7.66029284797002274e-01
14 109 7.61976427115511168e-01
15 109 7.58936783854392671e-01
16 109 7.56910355013646674e-01
17 109 7.55897140593274064e-01
18 109 7.55897140593274064e-01
19 109 7.56910355013646896e-01
20 109 7.58936783854392560e-01
21 109 7.61976427115511168e-01
22 109 7.66029284797002274e-01
23 109 7.71095356898866546e-01
24 109 7.77174643421103095e-01
25 109 7.84267144363713253e-01
26 109 7.92372859726695800e-01
27 109 8.01491789510050956e-01
28 109 8.11623933713779278e-01
29 109 8.22769292337880431e-01
30 109 8.34927865382354417e-01
31 109 8.48099652847201013e-01
32 109 8.62284654732420330e-01
33 109 8.77482871038012813e-01
34 109 8.85588586400995359e-01
35 109 8.77482871038012813e-01
36 109 8.62284654732420441e-01
37 109 8.48099652847201013e-01
38 109 8.34927865382354417e-01
39 109 8.22769292337880431e-01
40 109 8.11623933713779278e-01
41 109 8.01491789510050956e-01
42 109 7.92372859726695689e-01
43 109 7.84267144363713253e-01
44 109 7.77174643421103095e-01
45 109 7.71095356898866546e-01
46 109 7.66029284797002274e-01
47 109 7.61976427115511168e-01
48 109 7.58936783854392671e-01
49 109 7.56910355013646674e-01
50 109 7.55897140593274064e-01
51 109 7.55897140593274064e-01
52 109 7.56910355013646896e-01
53 109 7.58936783854392560e-01
54 109 7.61976427115511168e-01
55 109 7.66029284797002274e-01
56 109 7.71095356898866546e-01
57 109 7.77174643421103095e-01
58 109 7.84267144363713253e-01
59 109 7.92372859726695800e-01
60 109 8.01491789510050956e-01
61 109 8.11623933713779278e-01
62 109 8.22769292337880431e-01
63 109 8.34927865382354417e-01
64 109 8.48099652847201013e-01
65 109 8.62284654732420330e-01
66 109 8.77482871038012813e-01
67 109 8.85588586400995359e-01
68 109 8.77482871038012813e-01
69 109 8.62284654732420441e-01
70 109 8.48099652847201013e-01
71 109 8.34927865382354417e-01
72 109 8.22769292337880431e-01
73 109 8.11623933713779278e-01
74 109 8.01491789510050956e-01
75 109 7.92372859726695689e-01
76 109 7.84267144363713253e-01
77 109 7.77174643421103095e-01
78 109 7.71095356898866546e-01
79 109 7.66029284797002274e-01
80 109 7.61976427115511168e-01
81 109 7.58936783854392671e-01
82 109 7.56910355013646674e-01
83 109 7.55897140593274064e-01
84 109 7.55897140593274064e-01
85 109 7.56910355013646896e-01
86 109 7.58936783854392560e-01
87 109 7.61976427115511168e-01
88 109 7.66029284797002274e-01
89 109 7.71095356898866546e-01
90 109 7.77174643421103095e-01
91 109 7.84267144363713253e-01
92 109 7.92372859726695800e-01
93 109 8.01491789510050956e-01
94 109 8.11623933713779278e-01
95 109 8.22769292337880431e-01
96 109 8.34927865382354417e-01
97 109 8.48099652847201013e-01
98 109 8.62284654732420330e-01
99 109 8.77482871038012813e-01
100 109 8.85588586400995359e-01
101 109 8.77482871038012813e-01
102 109 8.62284654732420441e-01
103 109 8.48099652847201013e-01
104 109 8.34927865382354417e-01
105 109 8.22769292337880431e-01
106 109 8.11623933713779278e-01
107 109 8.01491789510050956e-01
108 109 7.92372859726695689e-01
109 109 7.84267144363713253e-01
110 109 7.77174643421103095e-01
111 109 7.71095356898866546e-01
112 109 7.66029284797002274e-01
113 109 7.61976427115511168e-01
114 109 7.58936783854392671e-01
115 109 7.56910355013646674e-01
116 109 7.55897140593274064e-01
117 109 7.55897140593274064e-01
118 109 7.56910355013646896e-01
119 109 7.58936783854392560e-01
120 109 7.61976427115511168e-01
121 109 7.66029284797002274e-01
122 109 7.71095356898866546e-01
123 109 7.77174643421103095e-01
124 109 7.84267144363713253e-01
125 109 7.92372859726695800e-01
126 109 8.01491789510050956e-01
127 109 8.11623933713779278e-01
128 109 8.22769292337880431e-01
129 109 8.34927865382354417e-01
130 109 8.48099652847201013e-01
131 109 8.62284654732420330e-01
132 109 8.77482871038012813e-01
133 109 8.85588586400995359e-01
1 110 8.77579787449064952e-01
2 110 8.69547375926828070e-01
3 110 8.54486604322633791e-01
4 110 8.40429884158719220e-01
5 110 8.27377215435084357e-01
6 110 8.15328598151728867e-01
7 110 8.04284032308652863e-01
8 110 7.94243517905856677e-01
9 110 7.85207054943340199e-01
10 110 7.77174643421103428e-01
11 110 7.70146283339145699e-01
12 110 7.64121974697468342e-01
13 110 7.59101717496070139e-01
14 110 7.55085511734951864e-01
15 110 7.52073357414112964e-01
16 110 7.50065254533553438e-01
17 110 7.49061203093273953e-01
18 110 7.49061203093273953e-01
19 110 7.50065254533553660e-01
20 110 7.52073357414112853e-01
21 110 7.55085511734951864e-01
22 110 7.59101717496070139e-01
23 110 7.64121974697468342e-01
24 110 7.70146283339145699e-01
25 110 7.77174643421103428e-01
26 110 7.85207054943340310e-01
27 110 7.94243517905856677e-01
28 110 8.04284032308652863e-01
29 110 8.15328598151728756e-01
30 110 8.27377215435084357e-01
31 110 8.40429884158719220e-01
32 110 8.54486604322633680e-01
33 110 8.69547375926828070e-01
34 110 8.77579787449064952e-01
35 110 8.69547375926828070e-01
36 110 8.54486604322633791e-01
37 110 8.40429884158719220e-01
38 110 8.27377215435084357e-01
39 110 8.15328598151728867e-01
40 110 8.04284032308652863e-01
41 110 7.94243517905856677e-01
42 110 7.85207054943340199e-01
43 110 7.77174643421103428e-01
44 110 7.70146283339145699e-01
45 110 7.64121974697468342e-01
46 110 7.59101717496070139e-01
47 110 7.55085511734951864e-01
48 110 7.52073357414112964e-01
49 110 7.50065254533553438e-01
50 110 7.49061203093273953e-01
51 110 7.49061203093273953e-01
52 110 7.50065254533553660e-01
53 110 7.52073357414112853e-01
54 110 7.55085511734951864e-01
55 110 7.59101717496070139e-01
56 110 7.64121974697468342e-01
57 110 7.70146283339145699e-01
58 110 7.77174643421103428e-01
59 110 7.85207054943340310e-01
60 110 7.94243517905856677e-01
61 110 8.04284032308652863e-01
62 110 8.15328598151728756e-01
63 110 8.27377215435084357e-01
64 110 8.40429884158719220e-01
65 110 8.54486604322633680e-01
66 110 8.69547375926828070e-01
67 110 8.77579787449064952e-01
68 110 8.69547375926828070e-01
69 110 8.54486604322633791e-01
70 110 8.40429884158719220e-01
71 110 8.27377215435084357e-01
72 110 8.15328598151728867e-01
73 110 8.04284032308652863e-01
74 110 7.94243517905856677e-01
75 110 7.85207054943340199e-01
76 110 7.77174643421103428e-01
77 110 7.70146283339145699e-01
78 110 7.64121974697468342e-01
79 110 7.59101717496070139e-01
80 110 7.55085511734951864e-01
81 110 7.52073357414112964e-01
82 110 7.50065254533553438e-01
83 110 7.49061203093273953e-01
84 110 7.49061203093273953e-01
85 110 7.50065254533553660e-01
86 110 7.52073357414112853e-01
87 110 7.55085511734951864e-01
88 110 7.59101717496070139e-01
89 110 7.64121974697468342e-01
90 110 7.70146283339145699e-01
91 110 7.77174643421103428e-01
92 110 7.85207054943340310e-01
93 110 7.94243517905856677e-01
94 110 8.04284032308652863e-01
95 110 8.15328598151728756e-01
96 110 8.27377215435084357e-01
97 110 8.40429884158719220e-01
98 110 8.54486604322633680e-01
99 110 8.69547375926828070e-01
100 110 8.77579787449064952e-01
101 110 8.69547375926828070e-01
102 110 8.54486604322633791e-01
103 110 8.40429884158719220e-01
104 110 8.27377215435084357e-01
105 110 8.15328598151728867e-01
106 110 8.04284032308652863e-01
107 110 7.94243517905856677e-01
108 110 7.85207054943340199e-01
109 110 7.77174643421103428e-01
110 110 7.70146283339145699e-01
111 110 7.64121974697468342e-01
112 110 7.59101717496070139e-01
113 110 7.55085511734951864e-01
114 110 7.52073357414112964e-01
115 110 7.50065254533553438e-01
116 110 7.49061203093273953e-01
117 110 7.49061203093273953e-01
118 110 7.50065254533553660e-01
119 110 7.52073357414112853e-01
120 110 7.55085511734951864e-01
121 110 7.59101717496070139e-01
122 110 7.64121974697468342e-01
123 110 7.70146283339145699e-01
124 110 7.77174643421103428e-01
125 110 7.85207054943340310e-01
126 110 7.94243517905856677e-01
127 110 8.04284032308652863e-01
128 110 8.15328598151728756e-01
129 110 8.27377215435084357e-01
130 110 8.40429884158719220e-01
131 110 8.54486604322633680e-01
132 110 8.69547375926828070e-01
133 110 8.77579787449064952e-01
1 111 8.70715102633124793e-01
2 111 8.62745522974384116e-01
3 111 8.47802561114245345e-01
4 111 8.33855796711449160e-01
5 111 8.20905229765995781e-01
6 111 8.08950860277884654e-01
7 111 7.97992688247116111e-01
8 111 7.88030713673690264e-01
9 111 7.79064936557607002e-01
10 111 7.71095356898866546e-01
11 111 7.64121974697468120e-01
12 111 7.58144789953412834e-01
13 111 7.53163802666699800e-01
14 111 7.49179012837329683e-01
15 111 7.46190420465301929e-01
16 111 7.44198025550616427e-01
17 111 7.43201828093273953e-01
18 111 7.43201828093273953e-01
19 111 7.44198025550616649e-01
20 111 7.46190420465301818e-01
21 111 7.49179012837329683e-01
22 111 7.53163802666699800e-01
23 111 7.58144789953412834e-01
24 111 7.64121974697468009e-01
25 111 7.71095356898866546e-01
26 111 7.79064936557607113e-01
27 111 7.88030713673690264e-01
28 111 7.97992688247116111e-01
29 111 8.08950860277884543e-01
30 111 8.20905229765995781e-01
31 111 8.33855796711449160e-01
32 111 8.47802561114245234e-01
33 111 8.62745522974384116e-01
34 111 8.70715102633124793e-01
35 111 8.62745522974384116e-01
36 111 8.47802561114245345e-01
37 111 8.33855796711449160e-01
38 111 8.20905229765995781e-01
39 111 8.08950860277884654e-01
40 111 7.97992688247116111e-01
41 111 7.88030713673690264e-01
42 111 7.79064936557607002e-01
43 111 7.71095356898866546e-01
44 111 7.64121974697468120e-01
45 111 7.58144789953412834e-01
46 111 7.53163802666699800e-01
47 111 7.49179012837329683e-01
48 111 7.46190420465301929e-01
49 111 7.44198025550616427e-01
50 111 7.43201828093273953e-01
51 111 7.43201828093273953e-01
52 111 7.44198025550616649e-01
53 111 7.46190420465301818e-01
54 111 7.49179012837329683e-01
55 111 7.53163802666699800e-01
56 111 7.58144789953412834e-01
57 111 7.64121974697468009e-01
58 111 7.71095356898866546e-01
59 111 7.79064936557607113e-01
60 111 7.88030713673690264e-01
61 111 7.97992688247116111e-01
62 111 8.08950860277884543e-01
63 111 8.20905229765995781e-01
64 111 8.33855796711449160e-01
65 111 8.47802561114245234e-01
66 111 8.62745522974384116e-01
67 111 8.70715102633124793e-01
68 111 8.62745522974384116e-01
69 111 8.47802561114245345e-01
70 111 8.33855796711449160e-01
71 111 8.20905229765995781e-01
72 111 8.08950860277884654e-01
73 111 7.97992688247116111e-01
74 111 7.88030713673690264e-01
75 111 7.79064936557607002e-01
76 111 7.71095356898866546e-01
77 111 7.64121974697468120e-01
78 111 7.58144789953412834e-01
79 111 7.53163802666699800e-01
80 111 7.49179012837329683e-01
81 111 7.46190420465301929e-01
82 111 7.44198025550616427e-01
83 111 7.43201828093273953e-01
84 111 7.43201828093273953e-01
85 111 7.44198025550616649e-01
86 111 7.46190420465301818e-01
87 111 7.49179012837329683e-01
88 111 7.53163802666699800e-01
89 111 7.58144789953412834e-01
90 111 7.64121974697468009e-01
91 111 7.71095356898866546e-01
92 111 7.79064936557607113e-01
93 111 7.88030713673690264e-01
94 111 7.97992688247116111e-01
95 111 8.08950860277884543e-01
96 111 8.20905229765995781e-01
97 111 8.33855796711449160e-01
98 111 8.47802561114245234e-01
99 111 8.62745522974384116e-01
100 111 8.70715102633124793e-01
101 111 8.62745522974384116e-01
102 111 8.47802561114245345e-01
103 111 8.33855796711449160e-01
104 111 8.20905229765995781e-01
105 111 8.08950860277884654e-01
106 111 7.97992688247116111e-01
107 111 7.88030713673690264e-01
108 111 7.79064936557607002e-01
109 111 7.71095356898866546e-01
110 111 7.64121974697468120e-01
111 111 7.58144789953412834e-01
112 111 7.53163802666699800e-01
113 111 7.49179012837329683e-01
114 111 7.46190420465301929e-01
115 111 7.44198025550616427e-01
116 111 7.43201828093273953e-01
117 111 7.43201828093273953e-01
118 111 7.44198025550616649e-01
119 111 7.46190420465301818e-01
120 111 7.49179012837329683e-01
121 111 7.53163802666699800e-01
122 111 7.58144789953412834e-01
123 111 7.64121974697468009e-01
124 111 7.71095356898866546e-01
125 111 7.79064936557607113e-01
126 111 7.88030713673690264e-01
127 111 7.97992688247116111e-01
128 111 8.08950860277884543e-01
129 111 8.20905229765995781e-01
130 111 8.33855796711449160e-01
131 111 8.47802561114245234e-01
132 111 8.62745522974384116e-01
133 111 8.70715102633124793e-01
1 112 8.64994531953174439e-01
2 112 8.57077312180680728e-01
3 112 8.42232525107254881e-01
4 112 8.28377390505390832e-01
5 112 8.15511908375088579e-01
6 112 8.03636078716347790e-01
7 112 7.92749901529168799e-01
8 112 7.82853376813551494e-01
9 112 7.73946504569495985e-01
10 112 7.66029284797002497e-01
11 112 7.59101717496070028e-01
12 112 7.53163802666699911e-01
13 112 7.48215540308891147e-01
14 112 7.44256930422644403e-01
15 112 7.41287973007959344e-01
16 112 7.39308668064835528e-01
17 112 7.38319015593273953e-01
18 112 7.38319015593273953e-01
19 112 7.39308668064835861e-01
20 112 7.41287973007959233e-01
21 112 7.44256930422644403e-01
22 112 7.48215540308891258e-01
23 112 7.53163802666699911e-01
24 112 7.59101717496069917e-01
25 112 7.66029284797002386e-01
26 112 7.73946504569496097e-01
27 112 7.82853376813551494e-01
28 112 7.92749901529168799e-01
29 112 8.03636078716347790e-01
30 112 8.15511908375088579e-01
31 112 8.28377390505390832e-01
32 112 8.42232525107254770e-01
33 112 8.57077312180680728e-01
34 112 8.64994531953174439e-01
35 112 8.57077312180680728e-01
36 112 8.42232525107254881e-01
37 112 8.28377390505390832e-01
38 112 8.15511908375088579e-01
39 112 8.03636078716347790e-01
40 112 7.92749901529168799e-01
41 112 7.82853376813551494e-01
42 112 7.73946504569495985e-01
43 112 7.66029284797002497e-01
44 112 7.59101717496070028e-01
45 112 7.53163802666699911e-01
46 112 7.48215540308891147e-01
47 112 7.44256930422644403e-01
48 112 7.41287973007959344e-01
49 112 7.39308668064835528e-01
50 112 7.38319015593273953e-01
51 112 7.38319015593273953e-01
52 112 7.39308668064835861e-01
53 112 7.41287973007959233e-01
54 112 7.44256930422644403e-01
55 112 7.48215540308891258e-01
56 112 7.53163802666699911e-01
57 112 7.59101717496069917e-01
58 112 7.66029284797002386e-01
59 112 7.73946504569496097e-01
60 112 7.82853376813551494e-01
61 112 7.92749901529168799e-01
62 112 8.03636078716347790e-01
63 112 8.15511908375088579e-01
64 112 8.28377390505390832e-01
65 112 8.42232525107254770e-01
66 112 8.57077312180680728e-01
67 112 8.64994531953174439e-01
68 112 8.57077312180680728e-01
69 112 8.42232525107254881e-01
70 112 8.28377390505390832e-01
71 112 8.15511908375088579e-01
72 112 8.03636078716347790e-01
73 112 7.92749901529168799e-01
74 112 7.82853376813551494e-01
75 112 7.73946504569495985e-01
76 112 7.66029284797002497e-01
77 112 7.59101717496070028e-01
78 112 7.53163802666699911e-01
79 112 7.48215540308891147e-01
80 112 7.44256930422644403e-01
81 112 7.41287973007959344e-01
82 112 7.39308668064835528e-01
83 112 7.38319015593273953e-01
84 112 7.38319015593273953e-01
85 112 7.39308668064835861e-01
86 112 7.41287973007959233e-01
87 112 7.44256930422644403e-01
88 112 7.48215540308891258e-01
89 112 7.53163802666699911e-01
90 112 7.59101717496069917e-01
91 112 7.66029284797002386e-01
92 112 7.73946504569496097e-01
93 112 7.82853376813551494e-01
94 112 7.92749901529168799e-01
95 112 8.03636078716347790e-01
96 112 8.15511908375088579e-01
97 112 8.28377390505390832e-01
98 112 8.42232525107254770e-01
99 112 8.57077312180680728e-01
100 112 8.64994531953174439e-01
101 112 8.57077312180680728e-01
102 112 8.42232525107254881e-01
103 112 8.28377390505390832e-01
104 112 8.15511908375088579e-01
105 112 8.03636078716347790e-01
106 112 7.92749901529168799e-01
107 112 7.82853376813551494e-01
108 112 7.73946504569495985e-01
109 112 7.66029284797002497e-01
110 112 7.59101717496070028e-01
111 112 7.53163802666699911e-01
112 112 7.48215540308891147e-01
113 112 7.44256930422644403e-01
114 112 7.41287973007959344e-01
115 112 7.39308668064835528e-01
116 112 7.38319015593273953e-01
117 112 7.38319015593273953e-01
118 112 7.39308668064835861e-01
119 112 7.41287973007959233e-01
120 112 7.44256930422644403e-01
121 112 7.48215540308891258e-01
122 112 7.53163802666699911e-01
123 112 7.59101717496069917e-01
124 112 7.66029284797002386e-01
125 112 7.73946504569496097e-01
126 112 7.82853376813551494e-01
127 112 7.92749901529168799e-01
128 112 8.03636078716347790e-01
129 112 8.15511908375088579e-01
130 112 8.28377390505390832e-01
131 112 8.42232525107254770e-01
132 112 8.57077312180680728e-01
133 112 8.64994531953174439e-01
1 113 8.60418075409214334e-01
2 113 8.52542743545718018e-01
3 113 8.37776496301662510e-01
4 113 8.23994665540544124e-01
5 113 8.11197251262362862e-01
6 113 7.99384253467118278e-01
7 113 7.88555672154810816e-01
8 113 7.78711507325440477e-01
9 113 7.69851758979007150e-01
10 113 7.61976427115511279e-01
11 113 7.55085511734951531e-01
12 113 7.49179012837329572e-01
13 113 7.44256930422644292e-01
14 113 7.40319264490896245e-01
15 113 7.37366015042085321e-01
16 113 7.35397182076210854e-01
17 113 7.34412765593273953e-01
18 113 7.34412765593273953e-01
19 113 7.35397182076211187e-01
20 113 7.37366015042085210e-01
21 113 7.40319264490896245e-01
22 113 7.44256930422644292e-01
23 113 7.49179012837329572e-01
24 113 7.55085511734951531e-01
25 113 7.61976427115511168e-01
26 113 7.69851758979007261e-01
27 113 7.78711507325440477e-01
28 113 7.88555672154810816e-01
29 113 7.99384253467118278e-01
30 113 8.11197251262362862e-01
31 113 8.23994665540544124e-01
32 113 8.37776496301662399e-01
33 113 8.52542743545718018e-01
34 113 8.60418075409214334e-01
35 113 8.52542743545718018e-01
36 113 8.37776496301662510e-01
37 113 8.23994665540544124e-01
38 113 8.11197251262362862e-01
39 113 7.99384253467118278e-01
40 113 7.88555672154810816e-01
41 113 7.78711507325440477e-01
42 113 7.69851758979007150e-01
43 113 7.61976427115511279e-01
44 113 7.55085511734951531e-01
45 113 7.49179012837329572e-01
46 113 7.44256930422644292e-01
47 113 7.40319264490896245e-01
48 113 7.37366015042085321e-01
49 113 7.35397182076210854e-01
50 113 7.34412765593273953e-01
51 113 7.34412765593273953e-01
52 113 7.35397182076211187e-01
53 113 7.37366015042085210e-01
54 113 7.40319264490896245e-01
55 113 7.44256930422644292e-01
56 113 7.49179012837329572e-01
57 113 7.55085511734951531e-01
58 113 7.61976427115511168e-01
59 113 7.69851758979007261e-01
60 113 7.78711507325440477e-01
61 113 7.88555672154810816e-01
62 113 7.99384253467118278e-01
63 113 8.11197251262362862e-01
64 113 8.23994665540544124e-01
65 113 8.37776496301662399e-01
66 113 8.52542743545718018e-01
67 113 8.60418075409214334e-01
68 113 8.52542743545718018e-01
69 113 8.37776496301662510e-01
70 113 8.23994665540544124e-01
71 113 8.11197251262362862e-01
72 113 7.99384253467118278e-01
73 113 7.88555672154810816e-01
74 113 7.78711507325440477e-01
75 113 7.69851758979007150e-01
76 113 7.61976427115511279e-01
77 113 7.55085511734951531e-01
78 113 7.49179012837329572e-01
79 113 7.44256930422644292e-01
80 113 7.40319264490896245e-01
81 113 7.37366015042085321e-01
82 113 7.35397182076210854e-01
83 113 7.34412765593273953e-01
84 113 7.34412765593273953e-01
85 113 7.35397182076211187e-01
86 113 7.37366015042085210e-01
87 113 7.40319264490896245e-01
88 113 7.44256930422644292e-01
89 113 7.49179012837329572e-01
90 113 7.55085511734951531e-01
91 113 7.61976427115511168e-01
92 113 7.69851758979007261e-01
93 113 7.78711507325440477e-01
94 113 7.88555672154810816e-01
95 113 7.99384253467118278e-01
96 113 8.11197251262362862e-01
97 113 8.23994665540544124e-01
98 113 8.37776496301662399e-01
99 113 8.52542743545718018e-01
100 113 8.60418075409214334e-01
101 113 8.52542743545718018e-01
102 113 8.37776496301662510e-01
103 113 8.23994665540544124e-01
104 113 8.11197251262362862e-01
105 113 7.99384253467118278e-01
106 113 7.88555672154810816e-01
107 113 7.78711507325440477e-01
108 113 7.69851758979007150e-01
109 113 7.61976427115511279e-01
110 113 7.55085511734951531e-01
111 113 7.49179012837329572e-01
112 113 7.44256930422644292e-01
113 113 7.40319264490896245e-01
114 113 7.37366015042085321e-01
115 113 7.35397182076210854e-01
116 113 7.34412765593273953e-01
117 113 7.34412765593273953e-01
118 113 7.35397182076211187e-01
119 113 7.37366015042085210e-01
120 113 7.40319264490896245e-01
121 113 7.44256930422644292e-01
122 113 7.49179012837329572e-01
123 113 7.55085511734951531e-01
124 113 7.61976427115511168e-01
125 113 7.69851758979007261e-01
126 113 7.78711507325440477e-01
127 113 7.88555672154810816e-01
128 113 7.99384253467118278e-01
129 113 8.11197251262362862e-01
130 113 8.23994665540544124e-01
131 113 8.37776496301662399e-01
132 113 8.52542743545718018e-01
133 113 8.60418075409214334e-01
1 114 8.56985733001244254e-01
2 114 8.49141817069495874e-01
3 114 8.34434474697468231e-01
4 114 8.20707621816909150e-01
5 114 8.07961258427818518e-01
6 114 7.96195384530196115e-01
7 114 7.85410000124042273e-01
8 114 7.75605105209357215e-01
9 114 7.66780699786140496e-01
10 114 7.58936783854392782e-01
11 114 7.52073357414112742e-01
12 114 7.46190420465301818e-01
13 114 7.41287973007959122e-01
14 114 7.37366015042085099e-01
15 114 7.34424546567679748e-01
16 114 7.32463567584742292e-01
17 114 7.31483078093273953e-01
18 114 7.31483078093273953e-01
19 114 7.32463567584742736e-01
20 114 7.34424546567679637e-01
21 114 7.37366015042085099e-01
22 114 7.41287973007959122e-01
23 114 7.46190420465301818e-01
24 114 7.52073357414112742e-01
25 114 7.58936783854392560e-01
26 114 7.66780699786140607e-01
27 114 7.75605105209357215e-01
28 114 7.85410000124042273e-01
29 114 7.96195384530196115e-01
30 114 8.07961258427818518e-01
31 114 8.20707621816909150e-01
32 114 8.34434474697468120e-01
33 114 8.49141817069495874e-01
34 114 8.56985733001244254e-01
35 114 8.49141817069495874e-01
36 114 8.34434474697468231e-01
37 114 8.20707621816909150e-01
38 114 8.07961258427818518e-01
39 114 7.96195384530196115e-01
40 114 7.85410000124042273e-01
41 114 7.75605105209357215e-01
42 114 7.66780699786140496e-01
43 114 7.58936783854392782e-01
44 114 7.52073357414112742e-01
45 114 7.46190420465301818e-01
46 114 7.41287973007959122e-01
47 114 7.37366015042085099e-01
48 114 7.34424546567679748e-01
49 114 7.32463567584742292e-01
50 114 7.31483078093273953e-01
51 114 7.31483078093273953e-01
52 114 7.32463567584742736e-01
53 114 7.34424546567679637e-01
54 114 7.37366015042085099e-01
55 114 7.41287973007959122e-01
56 114 7.46190420465301818e-01
57 114 7.52073357414112742e-01
58 114 7.58936783854392560e-01
59 114 7.66780699786140607e-01
60 114 7.75605105209357215e-01
61 114 7.85410000124042273e-01
62 114 7.96195384530196115e-01
63 114 8.07961258427818518e-01
64 114 8.20707621816909150e-01
65 114 8.34434474697468120e-01
66 114 8.49141817069495874e-01
67 114 8.56985733001244254e-01
68 114 8.49141817069495874e-01
69 114 8.34434474697468231e-01
70 114 8.20707621816909150e-01
71 114 8.07961258427818518e-01
72 114 7.96195384530196115e-01
73 114 7.85410000124042273e-01
74 114 7.75605105209357215e-01
75 114 7.66780699786140496e-01
76 114 7.58936783854392782e-01
77 114 7.52073357414112742e-01
78 114 7.46190420465301818e-01
79 114 7.41287973007959122e-01
80 114 7.37366015042085099e-01
81 114 7.34424546567679748e-01
82 114 7.32463567584742292e-01
83 114 7.31483078093273953e-01
84 114 7.31483078093273953e-01
85 114 7.32463567584742736e-01
86 114 7.34424546567679637e-01
87 114 7.37366015042085099e-01
88 114 7.41287973007959122e-01
89 114 7.46190420465301818e-01
90 114 7.52073357414112742e-01
91 114 7.58936783854392560e-01
92 114 7.66780699786140607e-01
93 114 7.75605105209357215e-01
94 114 7.85410000124042273e-01
95 114 7.96195384530196115e-01
96 114 8.07961258427818518e-01
97 114 8.20707621816909150e-01
98 114 8.34434474697468120e-01
99 114 8.49141817069495874e-01
100 114 8.56985733001244254e-01
101 114 8.49141817069495874e-01
102 114 8.34434474697468231e-01
103 114 8.20707621816909150e-01
104 114 8.07961258427818518e-01
105 114 7.96195384530196115e-01
106 114 7.85410000124042273e-01
107 114 7.75605105209357215e-01
108 114 7.66780699786140496e-01
109 114 7.58936783854392782e-01
110 114 7.52073357414112742e-01
111 114 7.46190420465301818e-01
112 114 7.41287973007959122e-01
113 114 7.37366015042085099e-01
114 114 7.34424546567679748e-01
115 114 7.32463567584742292e-01
116 114 7.31483078093273953e-01
117 114 7.31483078093273953e-01
118 114 7.32463567584742736e-01
119 114 7.34424546567679637e-01
120 114 7.37366015042085099e-01
121 114 7.41287973007959122e-01
122 114 7.46190420465301818e-01
123 114 7.52073357414112742e-01
124 114 7.58936783854392560e-01
125 114 7.66780699786140607e-01
126 114 7.75605105209357215e-01
127 114 7.85410000124042273e-01
128 114 7.96195384530196115e-01
129 114 8.07961258427818518e-01
130 114 8.20707621816909150e-01
131 114 8.34434474697468120e-01
132 114 8.49141817069495874e-01
133 114 8.56985733001244254e-01
1 115 8.54697504729264090e-01
2 115 8.46874532752014408e-01
3 115 8.32206460294672046e-01
4 115 8.18516259334485685e-01
5 115 8.05803929871455660e-01
6 115 7.94069471905581303e-01
7 115 7.83312885436863282e-01
8 115 7.73534170465301596e-01
9 115 7.64733326990896023e-01
10 115 7.56910355013647118e-01
11 115 7.50065254533553438e-01
12 115 7.44198025550616538e-01
13 115 7.39308668064835639e-01
14 115 7.35397182076210965e-01
15 115 7.32463567584742736e-01
16 115 7.30507824590429955e-01
17 115 7.29529953093273842e-01
18 115 7.29529953093273842e-01
19 115 7.30507824590430399e-01
20 115 7.32463567584742514e-01
21 115 7.35397182076210965e-01
22 115 7.39308668064835639e-01
23 115 7.44198025550616538e-01
24 115 7.50065254533553438e-01
25 115 7.56910355013646896e-01
26 115 7.64733326990896134e-01
27 115 7.73534170465301596e-01
28 115 7.83312885436863282e-01
29 115 7.94069471905581303e-01
30 115 8.05803929871455660e-01
31 115 8.18516259334485685e-01
32 115 8.32206460294671935e-01
33 115 8.46874532752014408e-01
34 115 8.54697504729264090e-01
35 115 8.46874532752014408e-01
36 115 8.32206460294672046e-01
37 115 8.18516259334485685e-01
38 115 8.05803929871455660e-01
39 115 7.94069471905581303e-01
40 115 7.83312885436863282e-01
41 115 7.73534170465301596e-01
42 115 7.64733326990896023e-01
43 115 7.56910355013647118e-01
44 115 7.50065254533553438e-01
45 115 7.44198025550616538e-01
46 115 7.39308668064835639e-01
47 115 7.35397182076210965e-01
48 115 7.32463567584742736e-01
49 115 7.30507824590429955e-01
50 115 7.29529953093273842e-01
51 115 7.29529953093273842e-01
52 115 7.30507824590430399e-01
53 115 7.32463567584742514e-01
54 115 7.35397182076210965e-01
55 115 7.39308668064835639e-01
56 115 7.44198025550616538e-01
57 115 7.50065254533553438e-01
58 115 7.56910355013646896e-01
59 115 7.64733326990896134e-01
60 115 7.73534170465301596e-01
61 115 7.83312885436863282e-01
62 115 7.94069471905581303e-01
63 115 8.05803929871455660e-01
64 115 8.18516259334485685e-01
65 115 8.32206460294671935e-01
66 115 8.46874532752014408e-01
67 115 8.54697504729264090e-01
68 115 8.46874532752014408e-01
69 115 8.32206460294672046e-01
70 115 8.18516259334485685e-01
71 115 8.05803929871455660e-01
72 115 7.94069471905581303e-01
73 115 7.83312885436863282e-01
74 115 7.73534170465301596e-01
75 115 7.64733326990896023e-01
76 115 7.56910355013647118e-01
77 115 7.50065254533553438e-01
78 115 7.44198025550616538e-01
79 115 7.39308668064835639e-01
80 115 7.35397182076210965e-01
81 115 7.32463567584742736e-01
82 115 7.30507824590429955e-01
83 115 7.29529953093273842e-01
84 115 7.29529953093273842e-01
85 115 7.30507824590430399e-01
86 115 7.32463567584742514e-01
87 115 7.35397182076210965e-01
88 115 7.39308668064835639e-01
89 115 7.44198025550616538e-01
90 115 7.50065254533553438e-01
91 115 7.56910355013646896e-01
92 115 7.64733326990896134e-01
93 115 7.73534170465301596e-01
94 115 7.83312885436863282e-01
95 115 7.94069471905581303e-01
96 115 8.05803929871455660e-01
97 115 8.18516259334485685e-01
98 115 8.32206460294671935e-01
99 115 8.46874532752014408e-01
100 115 8.54697504729264090e-01
101 115 8.46874532752014408e-01
102 115 8.32206460294672046e-01
103 115 8.18516259334485685e-01
104 115 8.05803929871455660e-01
105 115 7.94069471905581303e-01
106 115 7.83312885436863282e-01
107 115 7.73534170465301596e-01
108 115 7.64733326990896023e-01
109 115 7.56910355013647118e-01
110 115 7.50065254533553438e-01
111 115 7.44198025550616538e-01
112 115 7.39308668064835639e-01
113 115 7.35397182076210965e-01
114 115 7.32463567584742736e-01
115 115 7.30507824590429955e-01
116 115 7.29529953093273842e-01
117 115 7.29529953093273842e-01
118 115 7.30507824590430399e-01
119 115 7.32463567584742514e-01
120 115 7.35397182076210965e-01
121 115 7.39308668064835639e-01
122 115 7.44198025550616538e-01
123 115 7.50065254533553438e-01
124 115 7.56910355013646896e-01
125 115 7.64733326990896134e-01
126 115 7.73534170465301596e-01
127 115 7.83312885436863282e-01
128 115 7.94069471905581303e-01
129 115 8.05803929871455660e-01
130 115 8.18516259334485685e-01
131 115 8.32206460294671935e-01
132 115 8.46874532752014408e-01
133 115 8.54697504729264090e-01
1 116 8.53553390593274064e-01
2 116 8.45740890593273731e-01
3 116 8.31092453093273953e-01
4 116 8.17420578093274064e-01
5 116 8.04725265593274175e-01
6 116 7.93006515593273953e-01
7 116 7.82264328093273842e-01
8 116 7.72498703093273842e-01
9 116 7.63709640593273842e-01
10 116 7.55897140593274286e-01
11 116 7.49061203093273842e-01
12 116 7.43201828093273953e-01
13 116 7.38319015593273953e-01
14 116 7.34412765593273953e-01
15 116 7.31483078093274175e-01
16 116 7.29529953093273842e-01
17 116 7.28553390593273842e-01
18 116 7.28553390593273842e-01
19 116 7.29529953093274175e-01
20 116 7.31483078093273953e-01
21 116 7.34412765593273953e-01
22 116 7.38319015593273953e-01
23 116 7.43201828093273953e-01
24 116 7.49061203093273842e-01
25 116 7.55897140593274064e-01
26 116 7.63709640593273953e-01
27 116 7.72498703093273842e-01
28 116 7.82264328093273842e-01
29 116 7.93006515593273953e-01
30 116 8.04725265593274175e-01
31 116 8.17420578093273953e-01
32 116 8.31092453093273842e-01
33 116 8.45740890593273731e-01
34 116 8.53553390593274064e-01
35 116 8.45740890593273731e-01
36 116 8.31092453093273953e-01
37 116 8.17420578093274064e-01
38 116 8.04725265593274175e-01
39 116 7.93006515593273953e-01
40 116 7.82264328093273842e-01
41 116 7.72498703093273842e-01
42 116 7.63709640593273842e-01
43 116 7.55897140593274286e-01
44 116 7.49061203093273842e-01
45 116 7.43201828093273953e-01
46 116 7.38319015593273953e-01
47 116 7.34412765593273953e-01
48 116 7.31483078093274175e-01
49 116 7.29529953093273842e-01
50 116 7.28553390593273842e-01
51 116 7.28553390593273842e-01
52 116 7.29529953093274175e-01
53 116 7.31483078093273953e-01
54 116 7.34412765593273953e-01
55 116 7.38319015593273953e-01
56 116 7.43201828093273953e-01
57 116 7.49061203093273842e-01
58 116 7.55897140593274064e-01
59 116 7.63709640593273953e-01
60 116 7.72498703093273842e-01
61 116 7.82264328093273842e-01
62 116 7.93006515593273953e-01
63 116 8.04725265593274175e-01
64 116 8.17420578093273953e-01
65 116 8.31092453093273842e-01
66 116 8.45740890593273731e-01
67 116 8.53553390593274064e-01
68 116 8.45740890593273731e-01
69 116 8.31092453093273953e-01
70 116 8.17420578093274064e-01
71 116 8.04725265593274175e-01
72 116 7.93006515593273953e-01
73 116 7.82264328093273842e-01
74 116 7.72498703093273842e-01
75 116 7.63709640593273842e-01
76 116 7.55897140593274286e-01
77 116 7.49061203093273842e-01
78 116 7.43201828093273953e-01
79 116 7.38319015593273953e-01
80 116 7.34412765593273953e-01
81 116 7.31483078093274175e-01
82 116 7.29529953093273842e-01
83 116 7.28553390593273842e-01
84 116 7.28553390593273842e-01
85 116 7.29529953093274175e-01
86 116 7.31483078093273953e-01
87 116 7.34412765593273953e-01
88 116 7.38319015593273953e-01
89 116 7.43201828093273953e-01
90 116 7.49061203093273842e-01
91 116 7.55897140593274064e-01
92 116 7.63709640593273953e-01
93 116 7.72498703093273842e-01
94 116 7.82264328093273842e-01
95 116 7.93006515593273953e-01
96 116 8.04725265593274175e-01
97 116 8.17420578093273953e-01
98 116 8.31092453093273842e-01
99 116 8.45740890593273731e-01
100 116 8.53553390593274064e-01
101 116 8.45740890593273731e-01
102 116 8.31092453093273953e-01
103 116 8.17420578093274064e-01
104 116 8.04725265593274175e-01
105 116 7.93006515593273953e-01
106 116 7.82264328093273842e-01
107 116 7.72498703093273842e-01
108 116 7.63709640593273842e-01
109 116 7.55897140593274286e-01
110 116 7.49061203093273842e-01
111 116 7.43201828093273953e-01
112 116 7.38319015593273953e-01
113 116 7.34412765593273953e-01
114 116 7.31483078093274175e-01
115 116 7.29529953093273842e-01
116 116 7.28553390593273842e-01
117 116 7.28553390593273842e-01
118 116 7.29529953093274175e-01
119 116 7.31483078093273953e-01
120 116 7.34412765593273953e-01
121 116 7.38319015593273953e-01
122 116 7.43201828093273953e-01
123 116 7.49061203093273842e-01
124 116 7.55897140593274064e-01
125 116 7.63709640593273953e-01
126 116 7.72498703093273842e-01
127 116 7.82264328093273842e-01
128 116 7.93006515593273953e-01
129 116 8.04725265593274175e-01
130 116 8.17420578093273953e-01
131 116 8.31092453093273842e-01
132 116 8.45740890593273731e-01
133 116 8.53553390593274064e-01
1 117 8.53553390593274064e-01
2 117 8.45740890593273842e-01
3 117 8.31092453093274064e-01
4 117 8.17420578093274175e-01
5 117 8.04725265593274286e-01
6 117 7.93006515593273953e-01
7 117 7.82264328093273953e-01
8 117 7.72498703093273842e-01
9 117 7.63709640593273953e-01
10 117 7.55897140593274286e-01
11 117 7.49061203093273842e-01
12 117 7.43201828093273953e-01
13 117 7.38319015593273953e-01
14 117 7.34412765593274064e-01
15 117 7.31483078093274175e-01
16 117 7.29529953093273953e-01
17 117 7.28553390593273842e-01
18 117 7.28553390593273842e-01
19 117 7.29529953093274175e-01
20 117 7.31483078093274064e-01
21 117 7.34412765593274064e-01
22 117 7.38319015593273953e-01
23 117 7.43201828093273953e-01
24 117 7.49061203093273842e-01
25 117 7.55897140593274064e-01
26 117 7.63709640593273953e-01
27 117 7.72498703093273842e-01
28 117 7.82264328093273953e-01
29 117 7.93006515593273953e-01
30 117 8.04725265593274175e-01
31 117 8.17420578093274064e-01
32 117 8.31092453093273953e-01
33 117 8.45740890593273842e-01
34 117 8.53553390593274064e-01
35 117 8.45740890593273842e-01
36 117 8.31092453093274064e-01
37 117 8.17420578093274175e-01
38 117 8.04725265593274286e-01
39 117 7.93006515593273953e-01
40 117 7.82264328093273953e-01
41 117 7.72498703093273842e-01
42 117 7.63709640593273953e-01
43 117 7.55897140593274286e-01
44 117 7.49061203093273842e-01
45 117 7.43201828093273953e-01
46 117 7.38319015593273953e-01
47 117 7.34412765593274064e-01
48 117 7.31483078093274175e-01
49 117 7.29529953093273953e-01
50 117 7.28553390593273842e-01
51 117 7.28553390593273842e-01
52 117 7.29529953093274175e-01
53 117 7.31483078093274064e-01
54 117 7.34412765593274064e-01
55 117 7.38319015593273953e-01
56 117 7.43201828093273953e-01
57 117 7.49061203093273842e-01
58 117 7.55897140593274064e-01
59 117 7.63709640593273953e-01
60 117 7.72498703093273842e-01
61 117 7.82264328093273953e-01
62 117 7.93006515593273953e-01
63 117 8.04725265593274175e-01
64 117 8.17420578093274064e-01
65 117 8.31092453093273953e-01
66 117 8.45740890593273842e-01
67 117 8.53553390593274064e-01
68 117 8.45740890593273842e-01
69 117 8.31092453093274064e-01
70 117 8.17420578093274175e-01
71 117 8.04725265593274286e-01
72 117 7.93006515593273953e-01
73 117 7.82264328093273953e-01
74 117 7.72498703093273842e-01
75 117 7.63709640593273953e-01
76 117 7.55897140593274286e-01
77 117 7.49061203093273842e-01
78 117 7.43201828093273953e-01
79 117 7.38319015593273953e-01
80 117 7.34412765593274064e-01
81 117 7.31483078093274175e-01
82 117 7.29529953093273953e-01
83 117 7.28553390593273842e-01
84 117 7.28553390593273842e-01
85 117 7.29529953093274175e-01
86 117 7.31483078093274064e-01
87 117 7.34412765593274064e-01
88 117 7.38319015593273953e-01
89 117 7.43201828093273953e-01
90 117 7.49061203093273842e-01
91 117 7.55897140593274064e-01
92 117 7.63709640593273953e-01
93 117 7.72498703093273842e-01
94 117 7.82264328093273953e-01
95 117 7.93006515593273953e-01
96 117 8.04725265593274175e-01
97 117 8.17420578093274064e-01
98 117 8.31092453093273953e-01
99 117 8.45740890593273842e-01
100 117 8.53553390593274064e-01
101 117 8.45740890593273842e-01
102 117 8.31092453093274064e-01
103 117 8.17420578093274175e-01
104 117 8.04725265593274286e-01
105 117 7.93006515593273953e-01
106 117 7.82264328093273953e-01
107 117 7.72498703093273842e-01
108 117 7.63709640593273953e-01
109 117 7.55897140593274286e-01
110 117 7.49061203093273842e-01
111 117 7.43201828093273953e-01
112 117 7.38319015593273953e-01
113 117 7.34412765593274064e-01
114 117 7.31483078093274175e-01
115 117 7.29529953093273953e-01
116 117 7.28553390593273842e-01
117 117 7.28553390593273842e-01
118 117 7.29529953093274175e-01
119 117 7.31483078093274064e-01
120 117 7.34412765593274064e-01
121 117 7.38319015593273953e-01
122 117 7.43201828093273953e-01
123 117 7.49061203093273842e-01
124 117 7.55897140593274064e-01
125 117 7.63709640593273953e-01
126 117 7.72498703093273842e-01
127 117 7.82264328093273953e-01
128 117 7.93006515593273953e-01
129 117 8.04725265593274175e-01
130 117 8.17420578093274064e-01
131 117 8.31092453093273953e-01
132 117 8.45740890593273842e-01
133 117 8.53553390593274064e-01
1 118 8.54697504729264201e-01
2 118 8.46874532752014630e-01
3 118 8.32206460294672157e-01
4 118 8.18516259334485907e-01
5 118 8.05803929871455771e-01
6 118 7.94069471905581414e-01
7 118 7.83312885436863504e-01
8 118 7.73534170465301596e-01
9 118 7.64733326990896245e-01
10 118 7.56910355013647118e-01
11 118 7.50065254533553549e-01
12 118 7.44198025550616649e-01
13 118 7.39308668064835750e-01
14 118 7.35397182076211076e-01
15 118 7.32463567584742736e-01
16 118 7.30507824590430288e-01
17 118 7.29529953093273953e-01
18 118 7.29529953093273953e-01
19 118 7.30507824590430399e-01
20 118 7.32463567584742625e-01
21 118 7.35397182076211076e-01
22 118 7.39308668064835750e-01
23 118 7.44198025550616649e-01
24 118 7.50065254533553549e-01
25 118 7.56910355013646896e-01
26 118 7.64733326990896245e-01
27 118 7.73534170465301596e-01
28 118 7.83312885436863504e-01
29 118 7.94069471905581414e-01
30 118 8.05803929871455660e-01
31 118 8.18516259334485796e-01
32 118 8.32206460294672046e-01
33 118 8.46874532752014630e-01
34 118 8.54697504729264201e-01
35 118 8.46874532752014630e-01
36 118 8.32206460294672157e-01
37 118 8.18516259334485907e-01
38 118 8.05803929871455771e-01
39 118 7.94069471905581414e-01
40 118 7.83312885436863504e-01
41 118 7.73534170465301596e-01
42 118 7.64733326990896245e-01
43 118 7.56910355013647118e-01
44 118 7.50065254533553549e-01
45 118 7.44198025550616649e-01
46 118 7.39308668064835750e-01
47 118 7.35397182076211076e-01
48 118 7.32463567584742736e-01
49 118 7.30507824590430288e-01
50 118 7.29529953093273953e-01
51 118 7.29529953093273953e-01
52 118 7.30507824590430399e-01
53 118 7.32463567584742625e-01
54 118 7.35397182076211076e-01
55 118 7.39308668064835750e-01
56 118 7.44198025550616649e-01
57 118 7.50065254533553549e-01
58 118 7.56910355013646896e-01
59 118 7.64733326990896245e-01
60 118 7.73534170465301596e-01
61 118 7.83312885436863504e-01
62 118 7.94069471905581414e-01
63 118 8.05803929871455660e-01
64 118 8.18516259334485796e-01
65 118 8.32206460294672046e-01
66 118 8.46874532752014630e-01
67 118 8.54697504729264201e-01
68 118 8.46874532752014630e-01
69 118 8.32206460294672157e-01
70 118 8.18516259334485907e-01
71 118 8.05803929871455771e-01
72 118 7.94069471905581414e-01
73 118 7.83312885436863504e-01
74 118 7.73534170465301596e-01
75 118 7.64733326990896245e-01
76 118 7.56910355013647118e-01
77 118 7.50065254533553549e-01
78 118 7.44198025550616649e-01
79 118 7.39308668064835750e-01
80 118 7.35397182076211076e-01
81 118 7.32463567584742736e-01
82 118 7.30507824590430288e-01
83 118 7.29529953093273953e-01
84 118 7.29529953093273953e-01
85 118 7.30507824590430399e-01
86 118 7.32463567584742625e-01
87 118 7.35397182076211076e-01
88 118 7.39308668064835750e-01
89 118 7.44198025550616649e-01
90 118 7.50065254533553549e-01
91 118 7.56910355013646896e-01
92 118 7.64733326990896245e-01
93 118 7.73534170465301596e-01
94 118 7.83312885436863504e-01
95 118 7.94069471905581414e-01
96 118 8.05803929871455660e-01
97 118 8.18516259334485796e-01
98 118 8.32206460294672046e-01
99 118 8.46874532752014630e-01
100 118 8.54697504729264201e-01
101 118 8.46874532752014630e-01
102 118 8.32206460294672157e-01
103 118 8.18516259334485907e-01
104 118 8.05803929871455771e-01
105 118 7.94069471905581414e-01
106 118 7.83312885436863504e-01
107 118 7.73534170465301596e-01
108 118 7.64733326990896245e-01
109 118 7.56910355013647118e-01
110 118 7.50065254533553549e-01
111 118 7.44198025550616649e-01
112 118 7.39308668064835750e-01
113 118 7.35397182076211076e-01
114 118 7.32463567584742736e-01
115 118 7.30507824590430288e-01
116 118 7.29529953093273953e-01
117 118 7.29529953093273953e-01
118 118 7.30507824590430399e-01
119 118 7.32463567584742625e-01
120 118 7.35397182076211076e-01
121 118 7.39308668064835750e-01
122 118 7.44198025550616649e-01
123 118 7.50065254533553549e-01
124 118 7.56910355013646896e-01
125 118 7.64733326990896245e-01
126 118 7.73534170465301596e-01
127 118 7.83312885436863504e-01
128 118 7.94069471905581414e-01
129 118 8.05803929871455660e-01
130 118 8.18516259334485796e-01
131 118 8.32206460294672046e-01
132 118 8.46874532752014630e-01
133 118 8.54697504729264201e-01
1 119 8.56985733001244254e-01
2 119 8.49141817069495985e-01
3 119 8.34434474697468342e-01
4 119 8.20707621816909261e-01
5 119 8.07961258427818629e-01
6 119 7.96195384530196226e-01
7 119 7.85410000124042496e-01
8 119 7.75605105209357104e-01
9 119 7.66780699786140718e-01
10 119 7.58936783854392782e-01
11 119 7.52073357414112853e-01
12 119 7.46190420465301818e-01
13 119 7.41287973007959122e-01
14 119 7.37366015042085099e-01
15 119 7.34424546567679859e-01
16 119 7.32463567584742625e-01
17 119 7.31483078093273953e-01
18 119 7.31483078093273953e-01
19 119 7.32463567584742736e-01
20 119 7.34424546567679637e-01
21 119 7.37366015042085099e-01
22 119 7.41287973007959122e-01
23 119 7.46190420465301818e-01
24 119 7.52073357414112853e-01
25 119 7.58936783854392560e-01
26 119 7.66780699786140718e-01
27 119 7.75605105209357104e-01
28 119 7.85410000124042496e-01
29 119 7.96195384530196226e-01
30 119 8.07961258427818518e-01
31 119 8.20707621816909150e-01
32 119 8.34434474697468120e-01
33 119 8.49141817069495985e-01
34 119 8.56985733001244254e-01
35 119 8.49141817069495985e-01
36 119 8.34434474697468342e-01
37 119 8.20707621816909261e-01
38 119 8.07961258427818629e-01
39 119 7.96195384530196226e-01
40 119 7.85410000124042496e-01
41 119 7.75605105209357104e-01
42 119 7.66780699786140718e-01
43 119 7.58936783854392782e-01
44 119 7.52073357414112853e-01
45 119 7.46190420465301818e-01
46 119 7.41287973007959122e-01
47 119 7.37366015042085099e-01
48 119 7.34424546567679859e-01
49 119 7.32463567584742625e-01
50 119 7.31483078093273953e-01
51 119 7.31483078093273953e-01
52 119 7.32463567584742736e-01
53 119 7.34424546567679637e-01
54 119 7.37366015042085099e-01
55 119 7.41287973007959122e-01
56 119 7.46190420465301818e-01
57 119 7.52073357414112853e-01
58 119 7.58936783854392560e-01
59 119 7.66780699786140718e-01
60 119 7.75605105209357104e-01
61 119 7.85410000124042496e-01
62 119 7.96195384530196226e-01
63 119 8.07961258427818518e-01
64 119 8.20707621816909150e-01
65 119 8.34434474697468120e-01
66 119 8.49141817069495985e-01
67 119 8.56985733001244254e-01
68 119 8.49141817069495985e-01
69 119 8.34434474697468342e-01
70 119 8.20707621816909261e-01
71 119 8.07961258427818629e-01
72 119 7.96195384530196226e-01
73 119 7.85410000124042496e-01
74 119 7.75605105209357104e-01
75 119 7.66780699786140718e-01
76 119 7.58936783854392782e-01
77 119 7.52073357414112853e-01
78 119 7.46190420465301818e-01
79 119 7.41287973007959122e-01
80 119 7.37366015042085099e-01
81 119 7.34424546567679859e-01
82 119 7.32463567584742625e-01
83 119 7.31483078093273953e-01
84 119 7.31483078093273953e-01
85 119 7.32463567584742736e-01
86 119 7.34424546567679637e-01
87 119 7.37366015042085099e-01
88 119 7.41287973007959122e-01
89 119 7.46190420465301818e-01
90 119 7.52073357414112853e-01
91 119 7.58936783854392560e-01
92 119 7.66780699786140718e-01
93 119 7.75605105209357104e-01
94 119 7.85410000124042496e-01
95 119 7.96195384530196226e-01
96 119 8.07961258427818518e-01
97 119 8.20707621816909150e-01
98 119 8.34434474697468120e-01
99 119 8.49141817069495985e-01
100 119 8.56985733001244254e-01
101 119 8.49141817069495985e-01
102 119 8.34434474697468342e-01
103 119 8.20707621816909261e-01
104 119 8.07961258427818629e-01
105 119 7.96195384530196226e-01
106 119 7.85410000124042496e-01
107 119 7.75605105209357104e-01
108 119 7.66780699786140718e-01
109 119 7.58936783854392782e-01
110 119 7.52073357414112853e-01
111 119 7.46190420465301818e-01
112 119 7.41287973007959122e-01
113 119 7.37366015042085099e-01
114 119 7.34424546567679859e-01
115 119 7.32463567584742625e-01
116 119 7.31483078093273953e-01
117 119 7.31483078093273953e-01
118 119 7.32463567584742736e-01
119 119 7.34424546567679637e-01
120 119 7.37366015042085099e-01
121 119 7.41287973007959122e-01
122 119 7.46190420465301818e-01
123 119 7.52073357414112853e-01
124 119 7.58936783854392560e-01
125 119 7.66780699786140718e-01
126 119 7.75605105209357104e-01
127 119 7.85410000124042496e-01
128 119 7.96195384530196226e-01
129 119 8.07961258427818518e-01
130 119 8.20707621816909150e-01
131 119 8.34434474697468120e-01
132 119 8.49141817069495985e-01
133 119 8.56985733001244254e-01
1 120 8.60418075409214334e-01
2 120 8.52542743545718018e-01
3 120 8.37776496301662510e-01
4 120 8.23994665540544236e-01
5 120 8.11197251262362862e-01
6 120 7.99384253467118278e-01
7 120 7.88555672154810816e-01
8 120 7.78711507325440366e-01
9 120 7.69851758979007372e-01
10 120 7.61976427115511279e-01
11 120 7.55085511734951753e-01
12 120 7.49179012837329572e-01
13 120 7.44256930422644292e-01
14 120 7.40319264490896245e-01
15 120 7.37366015042085321e-01
16 120 7.35397182076211076e-01
17 120 7.34412765593273953e-01
18 120 7.34412765593273953e-01
19 120 7.35397182076211187e-01
20 120 7.37366015042085099e-01
21 120 7.40319264490896245e-01
22 120 7.44256930422644292e-01
23 120 7.49179012837329572e-01
24 120 7.55085511734951753e-01
25 120 7.61976427115510946e-01
26 120 7.69851758979007261e-01
27 120 7.78711507325440366e-01
28 120 7.88555672154810816e-01
29 120 7.99384253467118278e-01
30 120 8.11197251262362751e-01
31 120 8.23994665540544124e-01
32 120 8.37776496301662288e-01
33 120 8.52542743545718018e-01
34 120 8.60418075409214334e-01
35 120 8.52542743545718018e-01
36 120 8.37776496301662510e-01
37 120 8.23994665540544236e-01
38 120 8.11197251262362862e-01
39 120 7.99384253467118278e-01
40 120 7.88555672154810816e-01
41 120 7.78711507325440366e-01
42 120 7.69851758979007372e-01
43 120 7.61976427115511279e-01
44 120 7.55085511734951753e-01
45 120 7.49179012837329572e-01
46 120 7.44256930422644292e-01
47 120 7.40319264490896245e-01
48 120 7.37366015042085321e-01
49 120 7.35397182076211076e-01
50 120 7.34412765593273953e-01
51 120 7.34412765593273953e-01
52 120 7.35397182076211187e-01
53 120 7.37366015042085099e-01
54 120 7.40319264490896245e-01
55 120 7.44256930422644292e-01
56 120 7.49179012837329572e-01
57 120 7.55085511734951753e-01
58 120 7.61976427115510946e-01
59 120 7.69851758979007261e-01
60 120 7.78711507325440366e-01
61 120 7.88555672154810816e-01
62 120 7.99384253467118278e-01
63 120 8.11197251262362751e-01
64 120 8.23994665540544124e-01
65 120 8.37776496301662288e-01
66 120 8.52542743545718018e-01
67 120 8.60418075409214334e-01
68 120 8.52542743545718018e-01
69 120 8.37776496301662510e-01
70 120 8.23994665540544236e-01
71 120 8.11197251262362862e-01
72 120 7.99384253467118278e-01
73 120 7.88555672154810816e-01
74 120 7.78711507325440366e-01
75 120 7.69851758979007372e-01
76 120 7.61976427115511279e-01
77 120 7.55085511734951753e-01
78 120 7.49179012837329572e-01
79 120 7.44256930422644292e-01
80 120 7.40319264490896245e-01
81 120 7.37366015042085321e-01
82 120 7.35397182076211076e-01
83 120 7.34412765593273953e-01
84 120 7.34412765593273953e-01
85 120 7.35397182076211187e-01
86 120 7.37366015042085099e-01
87 120 7.40319264490896245e-01
88 120 7.44256930422644292e-01
89 120 7.49179012837329572e-01
90 120 7.55085511734951753e-01
91 120 7.61976427115510946e-01
92 120 7.69851758979007261e-01
93 120 7.78711507325440366e-01
94 120 7.88555672154810816e-01
95 120 7.99384253467118278e-01
96 120 8.11197251262362751e-01
97 120 8.23994665540544124e-01
98 120 8.37776496301662288e-01
99 120 8.52542743545718018e-01
100 120 8.60418075409214334e-01
101 120 8.52542743545718018e-01
102 120 8.37776496301662510e-01
103 120 8.23994665540544236e-01
104 120 8.11197251262362862e-01
105 120 7.99384253467118278e-01
106 120 7.88555672154810816e-01
107 120 7.78711507325440366e-01
108 120 7.69851758979007372e-01
109 120 7.61976427115511279e-01
110 120 7.55085511734951753e-01
111 120 7.49179012837329572e-01
112 120 7.44256930422644292e-01
113 120 7.40319264490896245e-01
114 120 7.37366015042085321e-01
115 120 7.35397182076211076e-01
116 120 7.34412765593273953e-01
117 120 7.34412765593273953e-01
118 120 7.35397182076211187e-01
119 120 7.37366015042085099e-01
120 120 7.40319264490896245e-01
121 120 7.44256930422644292e-01
122 120 7.49179012837329572e-01
123 120 7.55085511734951753e-01
124 120 7.61976427115510946e-01
125 120 7.69851758979007261e-01
126 120 7.78711507325440366e-01
127 120 7.88555672154810816e-01
128 120 7.99384253467118278e-01
129 120 8.11197251262362751e-01
130 120 8.23994665540544124e-01
131 120 8.37776496301662288e-01
132 120 8.52542743545718018e-01
133 120 8.60418075409214334e-01
1 121 8.64994531953174550e-01
2 121 8.57077312180680728e-01
3 121 8.42232525107254881e-01
4 121 8.28377390505390943e-01
5 121 8.15511908375088579e-01
6 121 8.03636078716347790e-01
7 121 7.92749901529168688e-01
8 121 7.82853376813551383e-01
9 121 7.73946504569496208e-01
10 121 7.66029284797002497e-01
11 121 7.59101717496070139e-01
12 121 7.53163802666699911e-01
13 121 7.48215540308891147e-01
14 121 7.44256930422644403e-01
15 121 7.41287973007959455e-01
16 121 7.39308668064835750e-01
17 121 7.38319015593273953e-01
18 121 7.38319015593273953e-01
19 121 7.39308668064835861e-01
20 121 7.41287973007959233e-01
21 121 7.44256930422644403e-01
22 121 7.48215540308891147e-01
23 121 7.53163802666699911e-01
24 121 7.59101717496070139e-01
25 121 7.66029284797002274e-01
26 121 7.73946504569496097e-01
27 121 7.82853376813551383e-01
28 121 7.92749901529168688e-01
29 121 8.03636078716347790e-01
30 121 8.15511908375088468e-01
31 121 8.28377390505390832e-01
32 121 8.42232525107254659e-01
33 121 8.57077312180680728e-01
34 121 8.64994531953174550e-01
35 121 8.57077312180680728e-01
36 121 8.42232525107254881e-01
37 121 8.28377390505390943e-01
38 121 8.15511908375088579e-01
39 121 8.03636078716347790e-01
40 121 7.92749901529168688e-01
41 121 7.82853376813551383e-01
42 121 7.73946504569496208e-01
43 121 7.66029284797002497e-01
44 121 7.59101717496070139e-01
45 121 7.53163802666699911e-01
46 121 7.48215540308891147e-01
47 121 7.44256930422644403e-01
48 121 7.41287973007959455e-01
49 121 7.39308668064835750e-01
50 121 7.38319015593273953e-01
51 121 7.38319015593273953e-01
52 121 7.39308668064835861e-01
53 121 7.41287973007959233e-01
54 121 7.44256930422644403e-01
55 121 7.48215540308891147e-01
56 121 7.53163802666699911e-01
57 121 7.59101717496070139e-01
58 121 7.66029284797002274e-01
59 121 7.73946504569496097e-01
60 121 7.82853376813551383e-01
61 121 7.92749901529168688e-01
62 121 8.03636078716347790e-01
63 121 8.15511908375088468e-01
64 121 8.28377390505390832e-01
65 121 8.42232525107254659e-01
66 121 8.57077312180680728e-01
67 121 8.64994531953174550e-01
68 121 8.57077312180680728e-01
69 121 8.42232525107254881e-01
70 121 8.28377390505390943e-01
71 121 8.15511908375088579e-01
72 121 8.03636078716347790e-01
73 121 7.92749901529168688e-01
74 121 7.82853376813551383e-01
75 121 7.73946504569496208e-01
76 121 7.66029284797002497e-01
77 121 7.59101717496070139e-01
78 121 7.53163802666699911e-01
79 121 7.48215540308891147e-01
80 121 7.44256930422644403e-01
81 121 7.41287973007959455e-01
82 121 7.39308668064835750e-01
83 121 7.38319015593273953e-01
84 121 7.38319015593273953e-01
85 121 7.39308668064835861e-01
86 121 7.41287973007959233e-01
87 121 7.44256930422644403e-01
88 121 7.48215540308891147e-01
89 121 7.53163802666699911e-01
90 121 7.59101717496070139e-01
91 121 7.66029284797002274e-01
92 121 7.73946504569496097e-01
93 121 7.82853376813551383e-01
94 121 7.92749901529168688e-01
95 121 8.03636078716347790e-01
96 121 8.15511908375088468e-01
97 121 8.28377390505390832e-01
98 121 8.42232525107254659e-01
99 121 8.57077312180680728e-01
100 121 8.64994531953174550e-01
101 121 8.57077312180680728e-01
102 121 8.42232525107254881e-01
103 121 8.28377390505390943e-01
104 121 8.15511908375088579e-01
105 121 8.03636078716347790e-01
106 121 7.92749901529168688e-01
107 121 7.82853376813551383e-01
108 121 7.73946504569496208e-01
109 121 7.66029284797002497e-01
110 121 7.59101717496070139e-01
111 121 7.53163802666699911e-01
112 121 7.48215540308891147e-01
113 121 7.44256930422644403e-01
114 121 7.41287973007959455e-01
115 121 7.39308668064835750e-01
116 121 7.38319015593273953e-01
117 121 7.38319015593273953e-01
118 121 7.39308668064835861e-01
119 121 7.41287973007959233e-01
120 121 7.44256930422644403e-01
121 121 7.48215540308891147e-01
122 121 7.53163802666699911e-01
123 121 7.59101717496070139e-01
124 121 7.66029284797002274e-01
125 121 7.73946504569496097e-01
126 121 7.82853376813551383e-01
127 121 7.92749901529168688e-01
128 121 8.03636078716347790e-01
129 121 8.15511908375088468e-01
130 121 8.28377390505390832e-01
131 121 8.42232525107254659e-01
132 121 8.57077312180680728e-01
133 121 8.64994531953174550e-01
1 122 8.70715102633124793e-01
2 122 8.62745522974384116e-01
3 122 8.47802561114245345e-01
4 122 8.33855796711449271e-01
5 122 8.20905229765995781e-01
6 122 8.08950860277884654e-01
7 122 7.97992688247116111e-01
8 122 7.88030713673690153e-01
9 122 7.79064936557607224e-01
10 122 7.71095356898866546e-01
11 122 7.64121974697468231e-01
12 122 7.58144789953412834e-01
13 122 7.53163802666699800e-01
14 122 7.49179012837329572e-01
15 122 7.46190420465302040e-01
16 122 7.44198025550616649e-01
17 122 7.43201828093273953e-01
18 122 7.43201828093273953e-01
19 122 7.44198025550616760e-01
20 122 7.46190420465301818e-01
21 122 7.49179012837329572e-01
22 122 7.53163802666699800e-01
23 122 7.58144789953412834e-01
24 122 7.64121974697468231e-01
25 122 7.71095356898866435e-01
26 122 7.79064936557607113e-01
27 122 7.88030713673690153e-01
28 122 7.97992688247116111e-01
29 122 8.08950860277884654e-01
30 122 8.20905229765995670e-01
31 122 8.33855796711449271e-01
32 122 8.47802561114245123e-01
33 122 8.62745522974384116e-01
34 122 8.70715102633124793e-01
35 122 8.62745522974384116e-01
36 122 8.47802561114245345e-01
37 122 8.33855796711449271e-01
38 122 8.20905229765995781e-01
39 122 8.08950860277884654e-01
40 122 7.97992688247116111e-01
41 122 7.88030713673690153e-01
42 122 7.79064936557607224e-01
43 122 7.71095356898866546e-01
44 122 7.64121974697468231e-01
45 122 7.58144789953412834e-01
46 122 7.53163802666699800e-01
47 122 7.49179012837329572e-01
48 122 7.46190420465302040e-01
49 122 7.44198025550616649e-01
50 122 7.43201828093273953e-01
51 122 7.43201828093273953e-01
52 122 7.44198025550616760e-01
53 122 7.46190420465301818e-01
54 122 7.49179012837329572e-01
55 122 7.53163802666699800e-01
56 122 7.58144789953412834e-01
57 122 7.64121974697468231e-01
58 122 7.71095356898866435e-01
59 122 7.79064936557607113e-01
60 122 7.88030713673690153e-01
61 122 7.97992688247116111e-01
62 122 8.08950860277884654e-01
63 122 8.20905229765995670e-01
64 122 8.33855796711449271e-01
65 122 8.47802561114245123e-01
66 122 8.62745522974384116e-01
67 122 8.70715102633124793e-01
68 122 8.62745522974384116e-01
69 122 8.47802561114245345e-01
70 122 8.33855796711449271e-01
71 122 8.20905229765995781e-01
72 122 8.08950860277884654e-01
73 122 7.97992688247116111e-01
74 122 7.88030713673690153e-01
75 122 7.79064936557607224e-01
76 122 7.71095356898866546e-01
77 122 7.64121974697468231e-01
78 122 7.58144789953412834e-01
79 122 7.53163802666699800e-01
80 122 7.49179012837329572e-01
81 122 7.46190420465302040e-01
82 122 7.44198025550616649e-01
83 122 7.43201828093273953e-01
84 122 7.43201828093273953e-01
85 122 7.44198025550616760e-01
86 122 7.46190420465301818e-01
87 122 7.49179012837329572e-01
88 122 7.53163802666699800e-01
89 122 7.58144789953412834e-01
90 122 7.64121974697468231e-01
91 122 7.71095356898866435e-01
92 122 7.79064936557607113e-01
93 122 7.88030713673690153e-01
94 122 7.97992688247116111e-01
95 122 8.08950860277884654e-01
96 122 8.20905229765995670e-01
97 122 8.33855796711449271e-01
98 122 8.47802561114245123e-01
99 122 8.62745522974384116e-01
100 122 8.70715102633124793e-01
101 122 8.62745522974384116e-01
102 122 8.47802561114245345e-01
103 122 8.33855796711449271e-01
104 122 8.20905229765995781e-01
105 122 8.08950860277884654e-01
106 122 7.97992688247116111e-01
107 122 7.88030713673690153e-01
108 122 7.79064936557607224e-01
109 122 7.71095356898866546e-01
110 122 7.64121974697468231e-01
111 122 7.58144789953412834e-01
112 122 7.53163802666699800e-01
113 122 7.49179012837329572e-01
114 122 7.46190420465302040e-01
115 122 7.44198025550616649e-01
116 122 7.43201828093273953e-01
117 122 7.43201828093273953e-01
118 122 7.44198025550616760e-01
119 122 7.46190420465301818e-01
120 122 7.49179012837329572e-01
121 122 7.53163802666699800e-01
122 122 7.58144789953412834e-01
123 122 7.64121974697468231e-01
124 122 7.71095356898866435e-01
125 122 7.79064936557607113e-01
126 122 7.88030713673690153e-01
127 122 7.97992688247116111e-01
128 122 8.08950860277884654e-01
129 122 8.20905229765995670e-01
130 122 8.33855796711449271e-01
131 122 8.47802561114245123e-01
132 122 8.62745522974384116e-01
133 122 8.70715102633124793e-01
1 123 8.77579787449065063e-01
2 123 8.69547375926828181e-01
3 123 8.54486604322633791e-01
4 123 8.40429884158719331e-01
5 123 8.27377215435084357e-01
6 123 8.15328598151728867e-01
7 123 8.04284032308652863e-01
8 123 7.94243517905856677e-01
9 123 7.85207054943340421e-01
10 123 7.77174643421103539e-01
11 123 7.70146283339145921e-01
12 123 7.64121974697468342e-01
13 123 7.59101717496070028e-01
14 123 7.55085511734951753e-01
15 123 7.52073357414113075e-01
16 123 7.50065254533553660e-01
17 123 7.49061203093273953e-01
18 123 7.49061203093273953e-01
19 123 7.50065254533553660e-01
20 123 7.52073357414112964e-01
21 123 7.55085511734951753e-01
22 123 7.59101717496070028e-01
23 123 7.64121974697468342e-01
24 123 7.70146283339145921e-01
25 123 7.77174643421103317e-01
26 123 7.85207054943340310e-01
27 123 7.94243517905856677e-01
28 123 8.04284032308652863e-01
29 123 8.15328598151728867e-01
30 123 8.27377215435084246e-01
31 123 8.40429884158719220e-01
32 123 8.54486604322633569e-01
33 123 8.69547375926828070e-01
34 123 8.77579787449065063e-01
35 123 8.69547375926828181e-01
36 123 8.54486604322633791e-01
37 123 8.40429884158719331e-01
38 123 8.27377215435084357e-01
39 123 8.15328598151728867e-01
40 123 8.04284032308652863e-01
41 123 7.94243517905856677e-01
42 123 7.85207054943340421e-01
43 123 7.77174643421103539e-01
44 123 7.70146283339145921e-01
45 123 7.64121974697468342e-01
46 123 7.59101717496070028e-01
47 123 7.55085511734951753e-01
48 123 7.52073357414113075e-01
49 123 7.50065254533553660e-01
50 123 7.49061203093273953e-01
51 123 7.49061203093273953e-01
52 123 7.50065254533553660e-01
53 123 7.52073357414112964e-01
54 123 7.55085511734951753e-01
55 123 7.59101717496070028e-01
56 123 7.64121974697468342e-01
57 123 7.70146283339145921e-01
58 123 7.77174643421103317e-01
59 123 7.85207054943340310e-01
60 123 7.94243517905856677e-01
61 123 8.04284032308652863e-01
62 123 8.15328598151728867e-01
63 123 8.27377215435084246e-01
64 123 8.40429884158719220e-01
65 123 8.54486604322633569e-01
66 123 8.69547375926828070e-01
67 123 8.77579787449065063e-01
68 123 8.69547375926828181e-01
69 123 8.54486604322633791e-01
70 123 8.40429884158719331e-01
71 123 8.27377215435084357e-01
72 123 8.15328598151728867e-01
73 123 8.04284032308652863e-01
74 123 7.94243517905856677e-01
75 123 7.85207054943340421e-01
76 123 7.77174643421103539e-01
77 123 7.70146283339145921e-01
78 123 7.64121974697468342e-01
79 123 7.59101717496070028e-01
80 123 7.55085511734951753e-01
81 123 7.52073357414113075e-01
82 123 7.50065254533553660e-01
83 123 7.49061203093273953e-01
84 123 7.49061203093273953e-01
85 123 7.50065254533553660e-01
86 123 7.52073357414112964e-01
87 123 7.55085511734951753e-01
88 123 7.59101717496070028e-01
89 123 7.64121974697468342e-01
90 123 7.70146283339145921e-01
91 123 7.77174643421103317e-01
92 123 7.85207054943340310e-01
93 123 7.94243517905856677e-01
94 123 8.04284032308652863e-01
95 123 8.15328598151728867e-01
96 123 8.27377215435084246e-01
97 123 8.40429884158719220e-01
98 123 8.54486604322633569e-01
99 123 8.69547375926828070e-01
100 123 8.77579787449065063e-01
101 123 8.69547375926828181e-01
102 123 8.54486604322633791e-01
103 123 8.40429884158719331e-01
104 123 8.27377215435084357e-01
105 123 8.15328598151728867e-01
106 123 8.04284032308652863e-01
107 123 7.94243517905856677e-01
108 123 7.85207054943340421e-01
109 123 7.77174643421103539e-01
110 123 7.70146283339145921e-01
111 123 7.64121974697468342e-01
112 123 7.59101717496070028e-01
113 123 7.55085511734951753e-01
114 123 7.52073357414113075e-01
115 123 7.50065254533553660e-01
116 123 7.49061203093273953e-01
117 123 7.49061203093273953e-01
118 123 7.50065254533553660e-01
119 123 7.52073357414112964e-01
120 123 7.55085511734951753e-01
121 123 7.59101717496070028e-01
122 123 7.64121974697468342e-01
123 123 7.70146283339145921e-01
124 123 7.77174643421103317e-01
125 123 7.85207054943340310e-01
126 123 7.94243517905856677e-01
127 123 8.04284032308652863e-01
128 123 8.15328598151728867e-01
129 123 8.27377215435084246e-01
130 123 8.40429884158719220e-01
131 123 8.54486604322633569e-01
132 123 8.69547375926828070e-01
133 123 8.77579787449065063e-01
1 124 8.85588586400995359e-01
2 124 8.77482871038012924e-01
3 124 8.62284654732420441e-01
4 124 8.48099652847201124e-01
5 124 8.34927865382354528e-01
6 124 8.22769292337880542e-01
7 124 8.11623933713779278e-01
8 124 8.01491789510050956e-01
9 124 7.92372859726695911e-01
10 124 7.84267144363713253e-01
11 124 7.77174643421103206e-01
12 124 7.71095356898866435e-01
13 124 7.66029284797002163e-01
14 124 7.61976427115511057e-01
15 124 7.58936783854392671e-01
16 124 7.56910355013646896e-01
17 124 7.55897140593273953e-01
18 124 7.55897140593273953e-01
19 124 7.56910355013646896e-01
20 124 7.58936783854392560e-01
21 124 7.61976427115511057e-01
22 124 7.66029284797002163e-01
23 124 7.71095356898866435e-01
24 124 7.77174643421103206e-01
25 124 7.84267144363713142e-01
26 124 7.92372859726695800e-01
27 124 8.01491789510050956e-01
28 124 8.11623933713779278e-01
29 124 8.22769292337880431e-01
30 124 8.34927865382354306e-01
31 124 8.48099652847201013e-01
32 124 8.62284654732420219e-01
33 124 8.77482871038012702e-01
34 124 8.85588586400995359e-01
35 124 8.77482871038012924e-01
36 124 8.62284654732420441e-01
37 124 8.48099652847201124e-01
38 124 8.34927865382354528e-01
39 124 8.22769292337880542e-01
40 124 8.11623933713779278e-01
41 124 8.01491789510050956e-01
42 124 7.92372859726695911e-01
43 124 7.84267144363713253e-01
44 124 7.77174643421103206e-01
45 124 7.71095356898866435e-01
46 124 7.66029284797002163e-01
47 124 7.61976427115511057e-01
48 124 7.58936783854392671e-01
49 124 7.56910355013646896e-01
50 124 7.55897140593273953e-01
51 124 7.55897140593273953e-01
52 124 7.56910355013646896e-01
53 124 7.58936783854392560e-01
54 124 7.61976427115511057e-01
55 124 7.66029284797002163e-01
56 124 7.71095356898866435e-01
57 124 7.77174643421103206e-01
58 124 7.84267144363713142e-01
59 124 7.92372859726695800e-01
60 124 8.01491789510050956e-01
61 124 8.11623933713779278e-01
62 124 8.22769292337880431e-01
63 124 8.34927865382354306e-01
64 124 8.48099652847201013e-01
65 124 8.62284654732420219e-01
66 124 8.77482871038012702e-01
67 124 8.85588586400995359e-01
68 124 8.77482871038012924e-01
69 124 8.62284654732420441e-01
70 124 8.48099652847201124e-01
71 124 8.34927865382354528e-01
72 124 8.22769292337880542e-01
73 124 8.11623933713779278e-01
74 124 8.01491789510050956e-01
75 124 7.92372859726695911e-01
76 124 7.84267144363713253e-01
77 124 7.77174643421103206e-01
78 124 7.71095356898866435e-01
79 124 7.66029284797002163e-01
80 124 7.61976427115511057e-01
81 124 7.58936783854392671e-01
82 124 7.56910355013646896e-01
83 124 7.55897140593273953e-01
84 124 7.55897140593273953e-01
85 124 7.56910355013646896e-01
86 124 7.58936783854392560e-01
87 124 7.61976427115511057e-01
88 124 7.66029284797002163e-01
89 124 7.71095356898866435e-01
90 124 7.77174643421103206e-01
91 124 7.84267144363713142e-01
92 124 7.92372859726695800e-01
93 124 8.01491789510050956e-01
94 124 8.11623933713779278e-01
95 124 8.22769292337880431e-01
96 124 8.34927865382354306e-01
97 124 8.48099652847201013e-01
98 124 8.62284654732420219e-01
99 124 8.77482871038012702e-01
100 124 8.85588586400995359e-01
101 124 8.77482871038012924e-01
102 124 8.62284654732420441e-01
103 124 8.48099652847201124e-01
104 124 8.34927865382354528e-01
105 124 8.22769292337880542e-01
106 124 8.11623933713779278e-01
107 124 8.01491789510050956e-01
108 124 7.92372859726695911e-01
109 124 7.84267144363713253e-01
110 124 7.77174643421103206e-01
111 124 7.71095356898866435e-01
112 124 7.66029284797002163e-01
113 124 7.61976427115511057e-01
114 124 7.58936783854392671e-01
115 124 7.56910355013646896e-01
116 124 7.55897140593273953e-01
117 124 7.55897140593273953e-01
118 124 7.56910355013646896e-01
119 124 7.58936783854392560e-01
120 124 7.61976427115511057e-01
121 124 7.66029284797002163e-01
122 124 7.71095356898866435e-01
123 124 7.77174643421103206e-01
124 124 7.84267144363713142e-01
125 124 7.92372859726695800e-01
126 124 8.01491789510050956e-01
127 124 8.11623933713779278e-01
128 124 8.22769292337880431e-01
129 124 8.34927865382354306e-01
130 124 8.48099652847201013e-01
131 124 8.62284654732420219e-01
132 124 8.77482871038012702e-01
133 124 8.85588586400995359e-01
1 125 8.94741499488915792e-01
2 125 8.86552008307938233e-01
3 125 8.71196712343605073e-01
4 125 8.56865102776894427e-01
5 125 8.43557179607805963e-01
6 125 8.31272942836339457e-01
7 125 8.20012392462495021e-01
8 125 8.09775528486272989e-01
9 125 8.00562350907673470e-01
10 125 7.92372859726695800e-01
11 125 7.85207054943340199e-01
12 125 7.79064936557607113e-01
13 125 7.73946504569495985e-01
14 125 7.69851758979007261e-01
15 125 7.66780699786140829e-01
16 125 7.64733326990896245e-01
17 125 7.63709640593273842e-01
18 125 7.63709640593273842e-01
19 125 7.64733326990896245e-01
20 125 7.66780699786140718e-01
21 125 7.69851758979007261e-01
22 125 7.73946504569495985e-01
23 125 7.79064936557607113e-01
24 125 7.85207054943340199e-01
25 125 7.92372859726695689e-01
26 125 8.00562350907673359e-01
27 125 8.09775528486272989e-01
28 125 8.20012392462495021e-01
29 125 8.31272942836339346e-01
30 125 8.43557179607805740e-01
31 125 8.56865102776894316e-01
32 125 8.71196712343604851e-01
33 125 8.86552008307938011e-01
34 125 8.94741499488915792e-01
35 125 8.86552008307938233e-01
36 125 8.71196712343605073e-01
37 125 8.56865102776894427e-01
38 125 8.43557179607805963e-01
39 125 8.31272942836339457e-01
40 125 8.20012392462495021e-01
41 125 8.09775528486272989e-01
42 125 8.00562350907673470e-01
43 125 7.92372859726695800e-01
44 125 7.85207054943340199e-01
45 125 7.79064936557607113e-01
46 125 7.73946504569495985e-01
47 125 7.69851758979007261e-01
48 125 7.66780699786140829e-01
49 125 7.64733326990896245e-01
50 125 7.63709640593273842e-01
51 125 7.63709640593273842e-01
52 125 7.64733326990896245e-01
53 125 7.66780699786140718e-01
54 125 7.69851758979007261e-01
55 125 7.73946504569495985e-01
56 125 7.79064936557607113e-01
57 125 7.85207054943340199e-01
58 125 7.92372859726695689e-01
59 125 8.00562350907673359e-01
60 125 8.09775528486272989e-01
61 125 8.20012392462495021e-01
62 125 8.31272942836339346e-01
63 125 8.43557179607805740e-01
64 125 8.56865102776894316e-01
65 125 8.71196712343604851e-01
66 125 8.86552008307938011e-01
67 125 8.94741499488915792e-01
68 125 8.86552008307938233e-01
69 125 8.71196712343605073e-01
70 125 8.56865102776894427e-01
71 125 8.43557179607805963e-01
72 125 8.31272942836339457e-01
73 125 8.20012392462495021e-01
74 125 8.09775528486272989e-01
75 125 8.00562350907673470e-01
76 125 7.92372859726695800e-01
77 125 7.85207054943340199e-01
78 125 7.79064936557607113e-01
79 125 7.73946504569495985e-01
80 125 7.69851758979007261e-01
81 125 7.66780699786140829e-01
82 125 7.64733326990896245e-01
83 125 7.63709640593273842e-01
84 125 7.63709640593273842e-01
85 125 7.64733326990896245e-01
86 125 7.66780699786140718e-01
87 125 7.69851758979007261e-01
88 125 7.73946504569495985e-01
89 125 7.79064936557607113e-01
90 125 7.85207054943340199e-01
91 125 7.92372859726695689e-01
92 125 8.00562350907673359e-01
93 125 8.09775528486272989e-01
94 125 8.20012392462495021e-01
95 125 8.31272942836339346e-01
96 125 8.43557179607805740e-01
97 125 8.56865102776894316e-01
98 125 8.71196712343604851e-01
99 125 8.86552008307938011e-01
100 125 8.94741499488915792e-01
101 125 8.86552008307938233e-01
102 125 8.71196712343605073e-01
103 125 8.56865102776894427e-01
104 125 8.43557179607805963e-01
105 125 8.31272942836339457e-01
106 125 8.20012392462495021e-01
107 125 8.09775528486272989e-01
108 125 8.00562350907673470e-01
109 125 7.92372859726695800e-01
110 125 7.85207054943340199e-01
111 125 7.79064936557607113e-01
112 125 7.73946504569495985e-01
113 125 7.69851758979007261e-01
114 125 7.66780699786140829e-01
115 125 7.64733326990896245e-01
116 125 7.63709640593273842e-01
117 125 7.63709640593273842e-01
118 125 7.64733326990896245e-01
119 125 7.66780699786140718e-01
120 125 7.69851758979007261e-01
121 125 7.73946504569495985e-01
122 125 7.79064936557607113e-01
123 125 7.85207054943340199e-01
124 125 7.92372859726695689e-01
125 125 8.00562350907673359e-01
126 125 8.09775528486272989e-01
127 125 8.20012392462495021e-01
128 125 8.31272942836339346e-01
129 125 8.43557179607805740e-01
130 125 8.56865102776894316e-01
131 125 8.71196712343604851e-01
132 125 8.86552008307938011e-01
133 125 8.94741499488915792e-01
1 126 9.05038526712826141e-01
2 126 8.96754787736604220e-01
3 126 8.81222777156187798e-01
4 126 8.66726233947799352e-01
5 126 8.53265158111438882e-01
6 126 8.40839549647105722e-01
7 126 8.29449408554800316e-01
8 126 8.19094734834522664e-01
9 126 8.09775528486273322e-01
10 126 8.01491789510051178e-01
11 126 7.94243517905856788e-01
12 126 7.88030713673690375e-01
13 126 7.82853376813551494e-01
14 126 7.78711507325440588e-01
15 126 7.75605105209357437e-01
16 126 7.73534170465301818e-01
17 126 7.72498703093273842e-01
18 126 7.72498703093273842e-01
19 126 7.73534170465301818e-01
20 126 7.75605105209357326e-01
21 126 7.78711507325440588e-01
22 126 7.82853376813551494e-01
23 126 7.88030713673690375e-01
24 126 7.94243517905856788e-01
25 126 8.01491789510051067e-01
26 126 8.09775528486273211e-01
27 126 8.19094734834522664e-01
28 126 8.29449408554800316e-01
29 126 8.40839549647105722e-01
30 126 8.53265158111438660e-01
31 126 8.66726233947799241e-01
32 126 8.81222777156187576e-01
33 126 8.96754787736603998e-01
34 126 9.05038526712826141e-01
35 126 8.96754787736604220e-01
36 126 8.81222777156187798e-01
37 126 8.66726233947799352e-01
38 126 8.53265158111438882e-01
39 126 8.40839549647105722e-01
40 126 8.29449408554800316e-01
41 126 8.19094734834522664e-01
42 126 8.09775528486273322e-01
43 126 8.01491789510051178e-01
44 126 7.94243517905856788e-01
45 126 7.88030713673690375e-01
46 126 7.82853376813551494e-01
47 126 7.78711507325440588e-01
48 126 7.75605105209357437e-01
49 126 7.73534170465301818e-01
50 126 7.72498703093273842e-01
51 126 7.72498703093273842e-01
52 126 7.73534170465301818e-01
53 126 7.75605105209357326e-01
54 126 7.78711507325440588e-01
55 126 7.82853376813551494e-01
56 126 7.88030713673690375e-01
57 126 7.94243517905856788e-01
58 126 8.01491789510051067e-01
59 126 8.09775528486273211e-01
60 126 8.19094734834522664e-01
61 126 8.29449408554800316e-01
62 126 8.40839549647105722e-01
63 126 8.53265158111438660e-01
64 126 8.66726233947799241e-01
65 126 8.81222777156187576e-01
66 126 8.96754787736603998e-01
67 126 9.05038526712826141e-01
68 126 8.96754787736604220e-01
69 126 8.81222777156187798e-01
70 126 8.66726233947799352e-01
71 126 8.53265158111438882e-01
72 126 8.40839549647105722e-01
73 126 8.29449408554800316e-01
74 126 8.19094734834522664e-01
75 126 8.09775528486273322e-01
76 126 8.01491789510051178e-01
77 126 7.94243517905856788e-01
78 126 7.88030713673690375e-01
79 126 7.82853376813551494e-01
80 126 7.78711507325440588e-01
81 126 7.75605105209357437e-01
82 126 7.73534170465301818e-01
83 126 7.72498703093273842e-01
84 126 7.72498703093273842e-01
85 126 7.73534170465301818e-01
86 126 7.75605105209357326e-01
87 126 7.78711507325440588e-01
88 126 7.82853376813551494e-01
89 126 7.88030713673690375e-01
90 126 7.94243517905856788e-01
91 126 8.01491789510051067e-01
92 126 8.09775528486273211e-01
93 126 8.19094734834522664e-01
94 126 8.29449408554800316e-01
95 126 8.40839549647105722e-01
96 126 8.53265158111438660e-01
97 126 8.66726233947799241e-01
98 126 8.81222777156187576e-01
99 126 8.96754787736603998e-01
100 126 9.05038526712826141e-01
101 126 8.96754787736604220e-01
102 126 8.81222777156187798e-01
103 126 8.66726233947799352e-01
104 126 8.53265158111438882e-01
105 126 8.40839549647105722e-01
106 126 8.29449408554800316e-01
107 126 8.19094734834522664e-01
108 126 8.09775528486273322e-01
109 126 8.01491789510051178e-01
110 126 7.94243517905856788e-01
111 126 7.88030713673690375e-01
112 126 7.82853376813551494e-01
113 126 7.78711507325440588e-01
114 126 7.75605105209357437e-01
115 126 7.73534170465301818e-01
116 126 7.72498703093273842e-01
117 126 7.72498703093273842e-01
118 126 7.73534170465301818e-01
119 126 7.75605105209357326e-01
120 126 7.78711507325440588e-01
121 126 7.82853376813551494e-01
122 126 7.88030713673690375e-01
123 126 7.94243517905856788e-01
124 126 8.01491789510051067e-01
125 126 8.09775528486273211e-01
126 126 8.19094734834522664e-01
127 126 8.29449408554800316e-01
128 126 8.40839549647105722e-01
129 126 8.53265158111438660e-01
130 126 8.66726233947799241e-01
131 126 8.81222777156187576e-01
132 126 8.96754787736603998e-01
133 126 9.05038526712826141e-01
1 127 9.16479668072726628e-01
2 127 9.08091209324010884e-01
3 127 8.92362849170168726e-01
4 127 8.77683046359916119e-01
5 127 8.64051800893253175e-01
6 127 8.51469112770179448e-01
7 127 8.39934981990694940e-01
8 127 8.29449408554800205e-01
9 127 8.20012392462495243e-01
10 127 8.11623933713779389e-01
11 127 8.04284032308652974e-01
12 127 7.97992688247116222e-01
13 127 7.92749901529168799e-01
14 127 7.88555672154810927e-01
15 127 7.85410000124042607e-01
16 127 7.83312885436863504e-01
17 127 7.82264328093273842e-01
18 127 7.82264328093273842e-01
19 127 7.83312885436863504e-01
20 127 7.85410000124042496e-01
21 127 7.88555672154810927e-01
22 127 7.92749901529168799e-01
23 127 7.97992688247116111e-01
24 127 8.04284032308652974e-01
25 127 8.11623933713779278e-01
26 127 8.20012392462495243e-01
27 127 8.29449408554800205e-01
28 127 8.39934981990695051e-01
29 127 8.51469112770179448e-01
30 127 8.64051800893252953e-01
31 127 8.77683046359915897e-01
32 127 8.92362849170168504e-01
33 127 9.08091209324010662e-01
34 127 9.16479668072726628e-01
35 127 9.08091209324010884e-01
36 127 8.92362849170168726e-01
37 127 8.77683046359916119e-01
38 127 8.64051800893253175e-01
39 127 8.51469112770179448e-01
40 127 8.39934981990694940e-01
41 127 8.29449408554800205e-01
42 127 8.20012392462495243e-01
43 127 8.11623933713779389e-01
44 127 8.04284032308652974e-01
45 127 7.97992688247116222e-01
46 127 7.92749901529168799e-01
47 127 7.88555672154810927e-01
48 127 7.85410000124042607e-01
49 127 7.83312885436863504e-01
50 127 7.82264328093273842e-01
51 127 7.82264328093273842e-01
52 127 7.83312885436863504e-01
53 127 7.85410000124042496e-01
54 127 7.88555672154810927e-01
55 127 7.92749901529168799e-01
56 127 7.97992688247116111e-01
57 127 8.04284032308652974e-01
58 127 8.11623933713779278e-01
59 127 8.20012392462495243e-01
60 127 8.29449408554800205e-01
61 127 8.39934981990695051e-01
62 127 8.51469112770179448e-01
63 127 8.64051800893252953e-01
64 127 8.77683046359915897e-01
65 127 8.92362849170168504e-01
66 127 9.08091209324010662e-01
67 127 9.16479668072726628e-01
68 127 9.08091209324010884e-01
69 127 8.92362849170168726e-01
70 127 8.77683046359916119e-01
71 127 8.64051800893253175e-01
72 127 8.51469112770179448e-01
73 127 8.39934981990694940e-01
74 127 8.29449408554800205e-01
75 127 8.20012392462495243e-01
76 127 8.11623933713779389e-01
77 127 8.04284032308652974e-01
78 127 7.97992688247116222e-01
79 127 7.92749901529168799e-01
80 127 7.88555672154810927e-01
81 127 7.85410000124042607e-01
82 127 7.83312885436863504e-01
83 127 7.82264328093273842e-01
84 127 7.82264328093273842e-01
85 127 7.83312885436863504e-01
86 127 7.85410000124042496e-01
87 127 7.88555672154810927e-01
88 127 7.92749901529168799e-01
89 127 7.97992688247116111e-01
90 127 8.04284032308652974e-01
91 127 8.11623933713779278e-01
92 127 8.20012392462495243e-01
93 127 8.29449408554800205e-01
94 127 8.39934981990695051e-01
95 127 8.51469112770179448e-01
96 127 8.64051800893252953e-01
97 127 8.77683046359915897e-01
98 127 8.92362849170168504e-01
99 127 9.08091209324010662e-01
100 127 9.16479668072726628e-01
101 127 9.08091209324010884e-01
102 127 8.92362849170168726e-01
103 127 8.77683046359916119e-01
104 127 8.64051800893253175e-01
105 127 8.51469112770179448e-01
106 127 8.39934981990694940e-01
107 127 8.29449408554800205e-01
108 127 8.20012392462495243e-01
109 127 8.11623933713779389e-01
110 127 8.04284032308652974e-01
111 127 7.97992688247116222e-01
112 127 7.92749901529168799e-01
113 127 7.88555672154810927e-01
114 127 7.85410000124042607e-01
115 127 7.83312885436863504e-01
116 127 7.82264328093273842e-01
117 127 7.82264328093273842e-01
118 127 7.83312885436863504e-01
119 127 7.85410000124042496e-01
120 127 7.88555672154810927e-01
121 127 7.92749901529168799e-01
122 127 7.97992688247116111e-01
123 127 8.04284032308652974e-01
124 127 8.11623933713779278e-01
125 127 8.20012392462495243e-01
126 127 8.29449408554800205e-01
127 127 8.39934981990695051e-01
128 127 8.51469112770179448e-01
129 127 8.64051800893252953e-01
130 127 8.77683046359915897e-01
131 127 8.92362849170168504e-01
132 127 9.08091209324010662e-01
133 127 9.16479668072726628e-01
1 128 9.29064923568617140e-01
2 128 9.20561273070158226e-01
3 128 9.04616928385547636e-01
4 128 8.89735540013244397e-01
5 128 8.75917107953248841e-01
6 128 8.63161632205560414e-01
7 128 8.51469112770179115e-01
8 128 8.40839549647105500e-01
9 128 8.31272942836339457e-01
10 128 8.22769292337880431e-01
11 128 8.15328598151728756e-01
12 128 8.08950860277884543e-01
13 128 8.03636078716347790e-01
14 128 7.99384253467118167e-01
15 128 7.96195384530196226e-01
16 128 7.94069471905581414e-01
17 128 7.93006515593273842e-01
18 128 7.93006515593273842e-01
19 128 7.94069471905581414e-01
20 128 7.96195384530196115e-01
21 128 7.99384253467118167e-01
22 128 8.03636078716347790e-01
23 128 8.08950860277884543e-01
24 128 8.15328598151728756e-01
25 128 8.22769292337880320e-01
26 128 8.31272942836339457e-01
27 128 8.40839549647105500e-01
28 128 8.51469112770179226e-01
29 128 8.63161632205560414e-01
30 128 8.75917107953248619e-01
31 128 8.89735540013244286e-01
32 128 9.04616928385547525e-01
33 128 9.20561273070158004e-01
34 128 9.29064923568617140e-01
35 128 9.20561273070158226e-01
36 128 9.04616928385547636e-01
37 128 8.89735540013244397e-01
38 128 8.75917107953248841e-01
39 128 8.63161632205560414e-01
40 128 8.51469112770179115e-01
41 128 8.40839549647105500e-01
42 128 8.31272942836339457e-01
43 128 8.22769292337880431e-01
44 128 8.15328598151728756e-01
45 128 8.08950860277884543e-01
46 128 8.03636078716347790e-01
47 128 7.99384253467118167e-01
48 128 7.96195384530196226e-01
49 128 7.94069471905581414e-01
50 128 7.93006515593273842e-01
51 128 7.93006515593273842e-01
52 128 7.94069471905581414e-01
53 128 7.96195384530196115e-01
54 128 7.99384253467118167e-01
55 128 8.03636078716347790e-01
56 128 8.08950860277884543e-01
57 128 8.15328598151728756e-01
58 128 8.22769292337880320e-01
59 128 8.31272942836339457e-01
60 128 8.40839549647105500e-01
61 128 8.51469112770179226e-01
62 128 8.63161632205560414e-01
63 128 8.75917107953248619e-01
64 128 8.89735540013244286e-01
65 128 9.04616928385547525e-01
66 128 9.20561273070158004e-01
67 128 9.29064923568617140e-01
68 128 9.20561273070158226e-01
69 128 9.04616928385547636e-01
70 128 8.89735540013244397e-01
71 128 8.75917107953248841e-01
72 128 8.63161632205560414e-01
73 128 8.51469112770179115e-01
74 128 8.40839549647105500e-01
75 128 8.31272942836339457e-01
76 128 8.22769292337880431e-01
77 128 8.15328598151728756e-01
78 128 8.08950860277884543e-01
79 128 8.03636078716347790e-01
80 128 7.99384253467118167e-01
81 128 7.96195384530196226e-01
82 128 7.94069471905581414e-01
83 128 7.93006515593273842e-01
84 128 7.93006515593273842e-01
85 128 7.94069471905581414e-01
86 128 7.96195384530196115e-01
87 128 7.99384253467118167e-01
88 128 8.03636078716347790e-01
89 128 8.08950860277884543e-01
90 128 8.15328598151728756e-01
91 128 8.22769292337880320e-01
92 128 8.31272942836339457e-01
93 128 8.40839549647105500e-01
94 128 8.51469112770179226e-01
95 128 8.63161632205560414e-01
96 128 8.75917107953248619e-01
97 128 8.89735540013244286e-01
98 128 9.04616928385547525e-01
99 128 9.20561273070158004e-01
100 128 9.29064923568617140e-01
101 128 9.20561273070158226e-01
102 128 9.04616928385547636e-01
103 128 8.89735540013244397e-01
104 128 8.75917107953248841e-01
105 128 8.63161632205560414e-01
106 128 8.51469112770179115e-01
107 128 8.40839549647105500e-01
108 128 8.31272942836339457e-01
109 128 8.22769292337880431e-01
110 128 8.15328598151728756e-01
111 128 8.08950860277884543e-01
112 128 8.03636078716347790e-01
113 128 7.99384253467118167e-01
114 128 7.96195384530196226e-01
115 128 7.94069471905581414e-01
116 128 7.93006515593273842e-01
117 128 7.93006515593273842e-01
118 128 7.94069471905581414e-01
119 128 7.96195384530196115e-01
120 128 7.99384253467118167e-01
121 128 8.03636078716347790e-01
122 128 8.08950860277884543e-01
123 128 8.15328598151728756e-01
124 128 8.22769292337880320e-01
125 128 8.31272942836339457e-01
126 128 8.40839549647105500e-01
127 128 8.51469112770179226e-01
128 128 8.63161632205560414e-01
129 128 8.75917107953248619e-01
130 128 8.89735540013244286e-01
131 128 9.04616928385547525e-01
132 128 9.20561273070158004e-01
133 128 9.29064923568617140e-01
1 129 9.42794293200497679e-01
2 129 9.34164978975046245e-01
3 129 9.17985014802324750e-01
4 129 9.02883714907784518e-01
5 129 8.88861079291426104e-01
6 129 8.75917107953248841e-01
7 129 8.64051800893252842e-01
8 129 8.53265158111438549e-01
9 129 8.43557179607805852e-01
10 129 8.34927865382354306e-01
11 129 8.27377215435084135e-01
12 129 8.20905229765995559e-01
13 129 8.15511908375088468e-01
14 129 8.11197251262362640e-01
15 129 8.07961258427818518e-01
16 129 8.05803929871455549e-01
17 129 8.04725265593273953e-01
18 129 8.04725265593273953e-01
19 129 8.05803929871455549e-01
20 129 8.07961258427818407e-01
21 129 8.11197251262362640e-01
22 129 8.15511908375088468e-01
23 129 8.20905229765995559e-01
24 129 8.27377215435084135e-01
25 129 8.34927865382354306e-01
26 129 8.43557179607805963e-01
27 129 8.53265158111438549e-01
28 129 8.64051800893252953e-01
29 129 8.75917107953248841e-01
30 129 8.88861079291425882e-01
31 129 9.02883714907784407e-01
32 129 9.17985014802324528e-01
33 129 9.34164978975046023e-01
34 129 9.42794293200497679e-01
35 129 9.34164978975046245e-01
36 129 9.17985014802324750e-01
37 129 9.02883714907784518e-01
38 129 8.88861079291426104e-01
39 129 8.75917107953248841e-01
40 129 8.64051800893252842e-01
41 129 8.53265158111438549e-01
42 129 8.43557179607805852e-01
43 129 8.34927865382354306e-01
44 129 8.27377215435084135e-01
45 129 8.20905229765995559e-01
46 129 8.15511908375088468e-01
47 129 8.11197251262362640e-01
48 129 8.07961258427818518e-01
49 129 8.05803929871455549e-01
50 129 8.04725265593273953e-01
51 129 8.04725265593273953e-01
52 129 8.05803929871455549e-01
53 129 8.07961258427818407e-01
54 129 8.11197251262362640e-01
55 129 8.15511908375088468e-01
56 129 8.20905229765995559e-01
57 129 8.27377215435084135e-01
58 129 8.34927865382354306e-01
59 129 8.43557179607805963e-01
60 129 8.53265158111438549e-01
61 129 8.64051800893252953e-01
62 129 8.75917107953248841e-01
63 129 8.88861079291425882e-01
64 129 9.02883714907784407e-01
65 129 9.17985014802324528e-01
66 129 9.34164978975046023e-01
67 129 9.42794293200497679e-01
68 129 9.34164978975046245e-01
69 129 9.17985014802324750e-01
70 129 9.02883714907784518e-01
71 129 8.88861079291426104e-01
72 129 8.75917107953248841e-01
73 129 8.64051800893252842e-01
74 129 8.53265158111438549e-01
75 129 8.43557179607805852e-01
76 129 8.34927865382354306e-01
77 129 8.27377215435084135e-01
78 129 8.20905229765995559e-01
79 129 8.15511908375088468e-01
80 129 8.11197251262362640e-01
81 129 8.07961258427818518e-01
82 129 8.05803929871455549e-01
83 129 8.04725265593273953e-01
84 129 8.04725265593273953e-01
85 129 8.05803929871455549e-01
86 129 8.07961258427818407e-01
87 129 8.11197251262362640e-01
88 129 8.15511908375088468e-01
89 129 8.20905229765995559e-01
90 129 8.27377215435084135e-01
91 129 8.34927865382354306e-01
92 129 8.43557179607805963e-01
93 129 8.53265158111438549e-01
94 129 8.64051800893252953e-01
95 129 8.75917107953248841e-01
96 129 8.88861079291425882e-01
97 129 9.02883714907784407e-01
98 129 9.17985014802324528e-01
99 129 9.34164978975046023e-01
100 129 9.42794293200497679e-01
101 129 9.34164978975046245e-01
102 129 9.17985014802324750e-01
103 129 9.02883714907784518e-01
104 129 8.88861079291426104e-01
105 129 8.75917107953248841e-01
106 129 8.64051800893252842e-01
107 129 8.53265158111438549e-01
108 129 8.43557179607805852e-01
109 129 8.34927865382354306e-01
110 129 8.27377215435084135e-01
111 129 8.20905229765995559e-01
112 129 8.15511908375088468e-01
113 129 8.11197251262362640e-01
114 129 8.07961258427818518e-01
115 129 8.05803929871455549e-01
116 129 8.04725265593273953e-01
117 129 8.04725265593273953e-01
118 129 8.05803929871455549e-01
119 129 8.07961258427818407e-01
120 129 8.11197251262362640e-01
121 129 8.15511908375088468e-01
122 129 8.20905229765995559e-01
123 129 8.27377215435084135e-01
124 129 8.34927865382354306e-01
125 129 8.43557179607805963e-01
126 129 8.53265158111438549e-01
127 129 8.64051800893252953e-01
128 129 8.75917107953248841e-01
129 129 8.88861079291425882e-01
130 129 9.02883714907784407e-01
131 129 9.17985014802324528e-01
132 129 9.34164978975046023e-01
133 129 9.42794293200497679e-01
1 130 9.57667776968368245e-01
2 130 9.48902327038674942e-01
3 130 9.32467108420499846e-01
4 130 9.17127571043536260e-01
5 130 9.02883714907784740e-01
6 130 8.89735540013244619e-01
7 130 8.77683046359916008e-01
8 130 8.66726233947799241e-01
9 130 8.56865102776894427e-01
10 130 8.48099652847201013e-01
11 130 8.40429884158719220e-01
12 130 8.33855796711449160e-01
13 130 8.28377390505390832e-01
14 130 8.23994665540544013e-01
15 130 8.20707621816909150e-01
16 130 8.18516259334485796e-01
17 130 8.17420578093273953e-01
18 130 8.17420578093273953e-01
19 130 8.18516259334485796e-01
20 130 8.20707621816909150e-01
21 130 8.23994665540544013e-01
22 130 8.28377390505390832e-01
23 130 8.33855796711449160e-01
24 130 8.40429884158719220e-01
25 130 8.48099652847201013e-01
26 130 8.56865102776894538e-01
27 130 8.66726233947799352e-01
28 130 8.77683046359916119e-01
29 130 8.89735540013244619e-01
30 130 9.02883714907784629e-01
31 130 9.17127571043536149e-01
32 130 9.32467108420499624e-01
33 130 9.48902327038674720e-01
34 130 9.57667776968368245e-01
35 130 9.48902327038674942e-01
36 130 9.32467108420499846e-01
37 130 9.17127571043536260e-01
38 130 9.02883714907784740e-01
39 130 8.89735540013244619e-01
40 130 8.77683046359916008e-01
41 130 8.66726233947799241e-01
42 130 8.56865102776894427e-01
43 130 8.48099652847201013e-01
44 130 8.40429884158719220e-01
45 130 8.33855796711449160e-01
46 130 8.28377390505390832e-01
47 130 8.23994665540544013e-01
48 130 8.20707621816909150e-01
49 130 8.18516259334485796e-01
50 130 8.17420578093273953e-01
51 130 8.17420578093273953e-01
52 130 8.18516259334485796e-01
53 130 8.20707621816909150e-01
54 130 8.23994665540544013e-01
55 130 8.28377390505390832e-01
56 130 8.33855796711449160e-01
57 130 8.40429884158719220e-01
58 130 8.48099652847201013e-01
59 130 8.56865102776894538e-01
60 130 8.66726233947799352e-01
61 130 8.77683046359916119e-01
62 130 8.89735540013244619e-01
63 130 9.02883714907784629e-01
64 130 9.17127571043536149e-01
65 130 9.32467108420499624e-01
66 130 9.48902327038674720e-01
67 130 9.57667776968368245e-01
68 130 9.48902327038674942e-01
69 130 9.32467108420499846e-01
70 130 9.17127571043536260e-01
71 130 9.02883714907784740e-01
72 130 8.89735540013244619e-01
73 130 8.77683046359916008e-01
74 130 8.66726233947799241e-01
75 130 8.56865102776894427e-01
76 130 8.48099652847201013e-01
77 130 8.40429884158719220e-01
78 130 8.33855796711449160e-01
79 130 8.28377390505390832e-01
80 130 8.23994665540544013e-01
81 130 8.20707621816909150e-01
82 130 8.18516259334485796e-01
83 130 8.17420578093273953e-01
84 130 8.17420578093273953e-01
85 130 8.18516259334485796e-01
86 130 8.20707621816909150e-01
87 130 8.23994665540544013e-01
88 130 8.28377390505390832e-01
89 130 8.33855796711449160e-01
90 130 8.40429884158719220e-01
91 130 8.48099652847201013e-01
92 130 8.56865102776894538e-01
93 130 8.66726233947799352e-01
94 130 8.77683046359916119e-01
95 130 8.89735540013244619e-01
96 130 9.02883714907784629e-01
97 130 9.17127571043536149e-01
98 130 9.32467108420499624e-01
99 130 9.48902327038674720e-01
100 130 9.57667776968368245e-01
101 130 9.48902327038674942e-01
102 130 9.32467108420499846e-01
103 130 9.17127571043536260e-01
104 130 9.02883714907784740e-01
105 130 8.89735540013244619e-01
106 130 8.77683046359916008e-01
107 130 8.66726233947799241e-01
108 130 8.56865102776894427e-01
109 130 8.48099652847201013e-01
110 130 8.40429884158719220e-01
111 130 8.33855796711449160e-01
112 130 8.28377390505390832e-01
113 130 8.23994665540544013e-01
114 130 8.20707621816909150e-01
115 130 8.18516259334485796e-01
116 130 8.17420578093273953e-01
117 130 8.17420578093273953e-01
118 130 8.18516259334485796e-01
119 130 8.20707621816909150e-01
120 130 8.23994665540544013e-01
121 130 8.28377390505390832e-01
122 130 8.33855796711449160e-01
123 130 8.40429884158719220e-01
124 130 8.48099652847201013e-01
125 130 8.56865102776894538e-01
126 130 8.66726233947799352e-01
127 130 8.77683046359916119e-01
128 130 8.89735540013244619e-01
129 130 9.02883714907784629e-01
130 130 9.17127571043536149e-01
131 130 9.32467108420499624e-01
132 130 9.48902327038674720e-01
133 130 9.57667776968368245e-01
1 131 9.73685374872228837e-01
2 131 9.64773317261044316e-01
3 131 9.48063209240073035e-01
4 131 9.32467108420499735e-01
5 131 9.17985014802324750e-01
6 131 9.04616928385547747e-01
7 131 8.92362849170168615e-01
8 131 8.81222777156187687e-01
9 131 8.71196712343605184e-01
10 131 8.62284654732420552e-01
11 131 8.54486604322633791e-01
12 131 8.47802561114245345e-01
13 131 8.42232525107254881e-01
14 131 8.37776496301662510e-01
15 131 8.34434474697468342e-01
16 131 8.32206460294672157e-01
17 131 8.31092453093273953e-01
18 131 8.31092453093273953e-01
19 131 8.32206460294672268e-01
20 131 8.34434474697468342e-01
21 131 8.37776496301662510e-01
22 131 8.42232525107254881e-01
23 131 8.47802561114245345e-01
24 131 8.54486604322633791e-01
25 131 8.62284654732420552e-01
26 131 8.71196712343605295e-01
27 131 8.81222777156187798e-01
28 131 8.92362849170168726e-01
29 131 9.04616928385547747e-01
30 131 9.17985014802324750e-01
31 131 9.32467108420499624e-01
32 131 9.48063209240072813e-01
33 131 9.64773317261044094e-01
34 131 9.73685374872228837e-01
35 131 9.64773317261044316e-01
36 131 9.48063209240073035e-01
37 131 9.32467108420499735e-01
38 131 9.17985014802324750e-01
39 131 9.04616928385547747e-01
40 131 8.92362849170168615e-01
41 131 8.81222777156187687e-01
42 131 8.71196712343605184e-01
43 131 8.62284654732420552e-01
44 131 8.54486604322633791e-01
45 131 8.47802561114245345e-01
46 131 8.42232525107254881e-01
47 131 8.37776496301662510e-01
48 131 8.34434474697468342e-01
49 131 8.32206460294672157e-01
50 131 8.31092453093273953e-01
51 131 8.31092453093273953e-01
52 131 8.32206460294672268e-01
53 131 8.34434474697468342e-01
54 131 8.37776496301662510e-01
55 131 8.42232525107254881e-01
56 131 8.47802561114245345e-01
57 131 8.54486604322633791e-01
58 131 8.62284654732420552e-01
59 131 8.71196712343605295e-01
60 131 8.81222777156187798e-01
61 131 8.92362849170168726e-01
62 131 9.04616928385547747e-01
63 131 9.17985014802324750e-01
64 131 9.32467108420499624e-01
65 131 9.48063209240072813e-01
66 131 9.64773317261044094e-01
67 131 9.73685374872228837e-01
68 131 9.64773317261044316e-01
69 131 9.48063209240073035e-01
70 131 9.32467108420499735e-01
71 131 9.17985014802324750e-01
72 131 9.04616928385547747e-01
73 131 8.92362849170168615e-01
74 131 8.81222777156187687e-01
75 131 8.71196712343605184e-01
76 131 8.62284654732420552e-01
77 131 8.54486604322633791e-01
78 131 8.47802561114245345e-01
79 131 8.42232525107254881e-01
80 131 8.37776496301662510e-01
81 131 8.34434474697468342e-01
82 131 8.32206460294672157e-01
83 131 8.31092453093273953e-01
84 131 8.31092453093273953e-01
85 131 8.32206460294672268e-01
86 131 8.34434474697468342e-01
87 131 8.37776496301662510e-01
88 131 8.42232525107254881e-01
89 131 8.47802561114245345e-01
90 131 8.54486604322633791e-01
91 131 8.62284654732420552e-01
92 131 8.71196712343605295e-01
93 131 8.81222777156187798e-01
94 131 8.92362849170168726e-01
95 131 9.04616928385547747e-01
96 131 9.17985014802324750e-01
97 131 9.32467108420499624e-01
98 131 9.48063209240072813e-01
99 131 9.64773317261044094e-01
100 131 9.73685374872228837e-01
101 131 9.64773317261044316e-01
102 131 9.48063209240073035e-01
103 131 9.32467108420499735e-01
104 131 9.17985014802324750e-01
105 131 9.04616928385547747e-01
106 131 8.92362849170168615e-01
107 131 8.81222777156187687e-01
108 131 8.71196712343605184e-01
109 131 8.62284654732420552e-01
110 131 8.54486604322633791e-01
111 131 8.47802561114245345e-01
112 131 8.42232525107254881e-01
113 131 8.37776496301662510e-01
114 131 8.34434474697468342e-01
115 131 8.32206460294672157e-01
116 131 8.31092453093273953e-01
117 131 8.31092453093273953e-01
118 131 8.32206460294672268e-01
119 131 8.34434474697468342e-01
120 131 8.37776496301662510e-01
121 131 8.42232525107254881e-01
122 131 8.47802561114245345e-01
123 131 8.54486604322633791e-01
124 131 8.62284654732420552e-01
125 131 8.71196712343605295e-01
126 131 8.81222777156187798e-01
127 131 8.92362849170168726e-01
128 131 9.04616928385547747e-01
129 131 9.17985014802324750e-01
130 131 9.32467108420499624e-01
131 131 9.48063209240072813e-01
132 131 9.64773317261044094e-01
133 131 9.73685374872228837e-01
1 132 9.90847086912079567e-01
2 132 9.81777949642154368e-01
3 132 9.64773317261044427e-01
4 132 9.48902327038674942e-01
5 132 9.34164978975046245e-01
6 132 9.20561273070158226e-01
7 132 9.08091209324010773e-01
8 132 8.96754787736603998e-01
9 132 8.86552008307938122e-01
10 132 8.77482871038012813e-01
11 132 8.69547375926828070e-01
12 132 8.62745522974384116e-01
13 132 8.57077312180680617e-01
14 132 8.52542743545718018e-01
15 132 8.49141817069496097e-01
16 132 8.46874532752014741e-01
17 132 8.45740890593274064e-01
18 132 8.45740890593274064e-01
19 132 8.46874532752014852e-01
20 132 8.49141817069496097e-01
21 132 8.52542743545718018e-01
22 132 8.57077312180680728e-01
23 132 8.62745522974384116e-01
24 132 8.69547375926828070e-01
25 132 8.77482871038012813e-01
26 132 8.86552008307938233e-01
27 132 8.96754787736604109e-01
28 132 9.08091209324010884e-01
29 132 9.20561273070158226e-01
30 132 9.34164978975046245e-01
31 132 9.48902327038674831e-01
32 132 9.64773317261044094e-01
33 132 9.81777949642154146e-01
34 132 9.90847086912079567e-01
35 132 9.81777949642154368e-01
36 132 9.64773317261044427e-01
37 132 9.48902327038674942e-01
38 132 9.34164978975046245e-01
39 132 9.20561273070158226e-01
40 132 9.08091209324010773e-01
41 132 8.96754787736603998e-01
42 132 8.86552008307938122e-01
43 132 8.77482871038012813e-01
44 132 8.69547375926828070e-01
45 132 8.62745522974384116e-01
46 132 8.57077312180680617e-01
47 132 8.52542743545718018e-01
48 132 8.49141817069496097e-01
49 132 8.46874532752014741e-01
50 132 8.45740890593274064e-01
51 132 8.45740890593274064e-01
52 132 8.46874532752014852e-01
53 132 8.49141817069496097e-01
54 132 8.52542743545718018e-01
55 132 8.57077312180680728e-01
56 132 8.62745522974384116e-01
57 132 8.69547375926828070e-01
58 132 8.77482871038012813e-01
59 132 8.86552008307938233e-01
60 132 8.96754787736604109e-01
61 132 9.08091209324010884e-01
62 132 9.20561273070158226e-01
63 132 9.34164978975046245e-01
64 132 9.48902327038674831e-01
65 132 9.64773317261044094e-01
66 132 9.81777949642154146e-01
67 132 9.90847086912079567e-01
68 132 9.81777949642154368e-01
69 132 9.64773317261044427e-01
70 132 9.48902327038674942e-01
71 132 9.34164978975046245e-01
72 132 9.20561273070158226e-01
73 132 9.08091209324010773e-01
74 132 8.96754787736603998e-01
75 132 8.86552008307938122e-01
76 132 8.77482871038012813e-01
77 132 8.69547375926828070e-01
78 132 8.62745522974384116e-01
79 132 8.57077312180680617e-01
80 132 8.52542743545718018e-01
81 132 8.49141817069496097e-01
82 132 8.46874532752014741e-01
83 132 8.45740890593274064e-01
84 132 8.45740890593274064e-01
85 132 8.46874532752014852e-01
86 132 8.49141817069496097e-01
87 132 8.52542743545718018e-01
88 132 8.57077312180680728e-01
89 132 8.62745522974384116e-01
90 132 8.69547375926828070e-01
91 132 8.77482871038012813e-01
92 132 8.86552008307938233e-01
93 132 8.96754787736604109e-01
94 132 9.08091209324010884e-01
95 132 9.20561273070158226e-01
96 132 9.34164978975046245e-01
97 132 9.48902327038674831e-01
98 132 9.64773317261044094e-01
99 132 9.81777949642154146e-01
100 132 9.90847086912079567e-01
101 132 9.81777949642154368e-01
102 132 9.64773317261044427e-01
103 132 9.48902327038674942e-01
104 132 9.34164978975046245e-01
105 132 9.20561273070158226e-01
106 132 9.08091209324010773e-01
107 132 8.96754787736603998e-01
108 132 8.86552008307938122e-01
109 132 8.77482871038012813e-01
110 132 8.69547375926828070e-01
111 132 8.62745522974384116e-01
112 132 8.57077312180680617e-01
113 132 8.52542743545718018e-01
114 132 8.49141817069496097e-01
115 132 8.46874532752014741e-01
116 132 8.45740890593274064e-01
117 132 8.45740890593274064e-01
118 132 8.46874532752014852e-01
119 132 8.49141817069496097e-01
120 132 8.52542743545718018e-01
121 132 8.57077312180680728e-01
122 132 8.62745522974384116e-01
123 132 8.69547375926828070e-01
124 132 8.77482871038012813e-01
125 132 8.86552008307938233e-01
126 132 8.96754787736604109e-01
127 132 9.08091209324010884e-01
128 132 9.20561273070158226e-01
129 132 9.34164978975046245e-01
130 132 9.48902327038674831e-01
131 132 9.64773317261044094e-01
132 132 9.81777949642154146e-01
133 132 9.90847086912079567e-01
1 133 1.00000000000000000e+00
2 133 9.90847086912079678e-01
3 133 9.73685374872229059e-01
4 133 9.57667776968368356e-01
5 133 9.42794293200497679e-01
6 133 9.29064923568617140e-01
7 133 9.16479668072726517e-01
8 133 9.05038526712826030e-01
9 133 8.94741499488915681e-01
10 133 8.85588586400995359e-01
11 133 8.77579787449064952e-01
12 133 8.70715102633124793e-01
13 133 8.64994531953174439e-01
14 133 8.60418075409214334e-01
15 133 8.56985733001244254e-01
16 133 8.54697504729264090e-01
17 133 8.53553390593274064e-01
18 133 8.53553390593274064e-01
19 133 8.54697504729264201e-01
20 133 8.56985733001244254e-01
21 133 8.60418075409214334e-01
22 133 8.64994531953174550e-01
23 133 8.70715102633124793e-01
24 133 8.77579787449065063e-01
25 133 8.85588586400995359e-01
26 133 8.94741499488915792e-01
27 133 9.05038526712826141e-01
28 133 9.16479668072726628e-01
29 133 9.29064923568617140e-01
30 133 9.42794293200497679e-01
31 133 9.57667776968368245e-01
32 133 9.73685374872228837e-01
33 133 9.90847086912079567e-01
34 133 1.00000000000000000e+00
35 133 9.90847086912079678e-01
36 133 9.73685374872229059e-01
37 133 9.57667776968368356e-01
38 133 9.42794293200497679e-01
39 133 9.29064923568617140e-01
40 133 9.16479668072726517e-01
41 133 9.05038526712826030e-01
42 133 8.94741499488915681e-01
43 133 8.85588586400995359e-01
44 133 8.77579787449064952e-01
45 133 8.70715102633124793e-01
46 133 8.64994531953174439e-01
47 133 8.60418075409214334e-01
48 133 8.56985733001244254e-01
49 133 8.54697504729264090e-01
50 133 8.53553390593274064e-01
51 133 8.53553390593274064e-01
52 133 8.54697504729264201e-01
53 133 8.56985733001244254e-01
54 133 8.60418075409214334e-01
55 133 8.64994531953174550e-01
56 133 8.70715102633124793e-01
57 133 8.77579787449065063e-01
58 133 8.85588586400995359e-01
59 133 8.94741499488915792e-01
60 133 9.05038526712826141e-01
61 133 9.16479668072726628e-01
62 133 9.29064923568617140e-01
63 133 9.42794293200497679e-01
64 133 9.57667776968368245e-01
65 133 9.73685374872228837e-01
66 133 9.90847086912079567e-01
67 133 1.00000000000000000e+00
68 133 9.90847086912079678e-01
69 133 9.73685374872229059e-01
70 133 9.57667776968368356e-01
71 133 9.42794293200497679e-01
72 133 9.29064923568617140e-01
73 133 9.16479668072726517e-01
74 133 9.05038526712826030e-01
75 133 8.94741499488915681e-01
76 133 8.85588586400995359e-01
77 133 8.77579787449064952e-01
78 133 8.70715102633124793e-01
79 133 8.64994531953174439e-01
80 133 8.60418075409214334e-01
81 133 8.56985733001244254e-01
82 133 8.54697504729264090e-01
83 133 8.53553390593274064e-01
84 133 8.53553390593274064e-01
85 133 8.54697504729264201e-01
86 133 8.56985733001244254e-01
87 133 8.60418075409214334e-01
88 133 8.64994531953174550e-01
89 133 8.70715102633124793e-01
90 133 8.77579787449065063e-01
91 133 8.85588586400995359e-01
92 133 8.94741499488915792e-01
93 133 9.05038526712826141e-01
94 133 9.16479668072726628e-01
95 133 9.29064923568617140e-01
96 133 9.42794293200497679e-01
97 133 9.57667776968368245e-01
98 133 9.73685374872228837e-01
99 133 9.90847086912079567e-01
100 133 1.00000000000000000e+00
101 133 9.90847086912079678e-01
102 133 9.73685374872229059e-01
103 133 9.57667776968368356e-01
104 133 9.42794293200497679e-01
105 133 9.29064923568617140e-01
106 133 9.16479668072726517e-01
107 133 9.05038526712826030e-01
108 133 8.94741499488915681e-01
109 133 8.85588586400995359e-01
110 133 8.77579787449064952e-01
111 133 8.70715102633124793e-01
112 133 8.64994531953174439e-01
113 133 8.60418075409214334e-01
114 133 8.56985733001244254e-01
115 133 8.54697504729264090e-01
116 133 8.53553390593274064e-01
117 133 8.53553390593274064e-01
118 133 8.54697504729264201e-01
119 133 8.56985733001244254e-01
120 133 8.60418075409214334e-01
121 133 8.64994531953174550e-01
122 133 8.70715102633124793e-01
123 133 8.77579787449065063e-01
124 133 8.85588586400995359e-01
125 133 8.94741499488915792e-01
126 133 9.05038526712826141e-01
127 133 9.16479668072726628e-01
128 133 9.29064923568617140e-01
129 133 9.42794293200497679e-01
130 133 9.57667776968368245e-01
131 133 9.73685374872228837e-01
132 133 9.90847086912079567e-01
133 133 1.00000000000000000e+00
