%%MatrixMarket matrix coordinate  real general
9 9 81
1 1 0.00000000000000000e+00
2 1 0.00000000000000000e+00
3 1 0.00000000000000000e+00
4 1 0.00000000000000000e+00
5 1 0.00000000000000000e+00
6 1 0.00000000000000000e+00
7 1 0.00000000000000000e+00
8 1 0.00000000000000000e+00
9 1 0.00000000000000000e+00
1 2 1.00000000000000000e+00
2 2 1.00000000000000000e+00
3 2 1.00000000000000000e+00
4 2 1.00000000000000000e+00
5 2 1.00000000000000000e+00
6 2 1.00000000000000000e+00
7 2 1.00000000000000000e+00
8 2 1.00000000000000000e+00
9 2 1.00000000000000000e+00
1 3 1.00000000000000000e+00
2 3 1.00000000000000000e+00
3 3 1.00000000000000000e+00
4 3 1.00000000000000000e+00
5 3 1.00000000000000000e+00
6 3 1.00000000000000000e+00
7 3 1.00000000000000000e+00
8 3 1.00000000000000000e+00
9 3 1.00000000000000000e+00
1 4 1.00000000000000000e+00
2 4 1.00000000000000000e+00
3 4 1.00000000000000000e+00
4 4 1.00000000000000000e+00
5 4 1.00000000000000000e+00
6 4 1.00000000000000000e+00
7 4 1.00000000000000000e+00
8 4 1.00000000000000000e+00
9 4 1.00000000000000000e+00
1 5 0.00000000000000000e+00
2 5 0.00000000000000000e+00
3 5 0.00000000000000000e+00
4 5 0.00000000000000000e+00
5 5 0.00000000000000000e+00
6 5 0.00000000000000000e+00
7 5 0.00000000000000000e+00
8 5 0.00000000000000000e+00
9 5 0.00000000000000000e+00
1 6 -1.00000000000000000e+00
2 6 -1.00000000000000000e+00
3 6 -1.00000000000000000e+00
4 6 -1.00000000000000000e+00
5 6 -1.00000000000000000e+00
6 6 -1.00000000000000000e+00
7 6 -1.00000000000000000e+00
8 6 -1.00000000000000000e+00
9 6 -1.00000000000000000e+00
1 7 -1.00000000000000000e+00
2 7 -1.00000000000000000e+00
3 7 -1.00000000000000000e+00
4 7 -1.00000000000000000e+00
5 7 -1.00000000000000000e+00
6 7 -1.00000000000000000e+00
7 7 -1.00000000000000000e+00
8 7 -1.00000000000000000e+00
9 7 -1.00000000000000000e+00
1 8 -1.00000000000000000e+00
2 8 -1.00000000000000000e+00
3 8 -1.00000000000000000e+00
4 8 -1.00000000000000000e+00
5 8 -1.00000000000000000e+00
6 8 -1.00000000000000000e+00
7 8 -1.00000000000000000e+00
8 8 -1.00000000000000000e+00
9 8 -1.00000000000000000e+00
1 9 0.00000000000000000e+00
2 9 0.00000000000000000e+00
3 9 0.00000000000000000e+00
4 9 0.00000000000000000e+00
5 9 0.00000000000000000e+00
6 9 0.00000000000000000e+00
7 9 0.00000000000000000e+00
8 9 0.00000000000000000e+00
9 9 0.00000000000000000e+00
