%%MatrixMarket matrix coordinate  real general
9 9 81
1 1 3.00000000000000000e+00
2 1 3.00000000000000000e+00
3 1 1.83697019872102969e-16
4 1 -2.99999999999999911e+00
5 1 -3.00000000000000000e+00
6 1 -3.00000000000000089e+00
7 1 -5.51091059616308956e-16
8 1 2.99999999999999689e+00
9 1 3.00000000000000000e+00
1 2 3.00000000000000000e+00
2 2 3.00000000000000000e+00
3 2 1.83697019872102969e-16
4 2 -2.99999999999999911e+00
5 2 -3.00000000000000000e+00
6 2 -3.00000000000000089e+00
7 2 -5.51091059616308956e-16
8 2 2.99999999999999689e+00
9 2 3.00000000000000000e+00
1 3 2.00000000000000000e+00
2 3 2.00000000000000000e+00
3 3 1.22464679914735321e-16
4 3 -1.99999999999999933e+00
5 3 -2.00000000000000000e+00
6 3 -2.00000000000000044e+00
7 3 -3.67394039744205938e-16
8 3 1.99999999999999911e+00
9 3 2.00000000000000000e+00
1 4 1.00000000000000000e+00
2 4 1.00000000000000000e+00
3 4 6.12323399573676604e-17
4 4 -9.99999999999999778e-01
5 4 -1.00000000000000000e+00
6 4 -1.00000000000000022e+00
7 4 -1.83697019872102969e-16
8 4 9.99999999999999778e-01
9 4 1.00000000000000000e+00
1 5 1.00000000000000000e+00
2 5 1.00000000000000000e+00
3 5 6.12323399573676604e-17
4 5 -9.99999999999999778e-01
5 5 -1.00000000000000000e+00
6 5 -1.00000000000000022e+00
7 5 -1.83697019872102969e-16
8 5 9.99999999999999778e-01
9 5 1.00000000000000000e+00
1 6 1.00000000000000000e+00
2 6 1.00000000000000000e+00
3 6 6.12323399573676604e-17
4 6 -9.99999999999999778e-01
5 6 -1.00000000000000000e+00
6 6 -1.00000000000000022e+00
7 6 -1.83697019872102969e-16
8 6 9.99999999999999778e-01
9 6 1.00000000000000000e+00
1 7 2.00000000000000000e+00
2 7 2.00000000000000000e+00
3 7 1.22464679914735321e-16
4 7 -1.99999999999999933e+00
5 7 -2.00000000000000000e+00
6 7 -2.00000000000000044e+00
7 7 -3.67394039744205938e-16
8 7 1.99999999999999911e+00
9 7 2.00000000000000000e+00
1 8 3.00000000000000000e+00
2 8 3.00000000000000000e+00
3 8 1.83697019872102969e-16
4 8 -2.99999999999999911e+00
5 8 -3.00000000000000000e+00
6 8 -3.00000000000000089e+00
7 8 -5.51091059616308956e-16
8 8 2.99999999999999689e+00
9 8 3.00000000000000000e+00
1 9 3.00000000000000000e+00
2 9 3.00000000000000000e+00
3 9 1.83697019872102969e-16
4 9 -2.99999999999999911e+00
5 9 -3.00000000000000000e+00
6 9 -3.00000000000000089e+00
7 9 -5.51091059616308956e-16
8 9 2.99999999999999689e+00
9 9 3.00000000000000000e+00
