%%MatrixMarket matrix coordinate  real general
9 9 81
1 1 0.00000000000000000e+00
2 1 -3.00000000000000000e+00
3 1 -3.00000000000000000e+00
4 1 -3.00000000000000000e+00
5 1 -3.67394039744205888e-16
6 1 2.99999999999999956e+00
7 1 3.00000000000000000e+00
8 1 3.00000000000000000e+00
9 1 7.34788079488411776e-16
1 2 0.00000000000000000e+00
2 2 -3.00000000000000000e+00
3 2 -3.00000000000000000e+00
4 2 -3.00000000000000000e+00
5 2 -3.67394039744205888e-16
6 2 2.99999999999999956e+00
7 2 3.00000000000000000e+00
8 2 3.00000000000000000e+00
9 2 7.34788079488411776e-16
1 3 0.00000000000000000e+00
2 3 -2.00000000000000000e+00
3 3 -2.00000000000000000e+00
4 3 -2.00000000000000000e+00
5 3 -2.44929359829470641e-16
6 3 2.00000000000000000e+00
7 3 2.00000000000000000e+00
8 3 2.00000000000000000e+00
9 3 4.89858719658941283e-16
1 4 0.00000000000000000e+00
2 4 -9.99999999999999889e-01
3 4 -1.00000000000000000e+00
4 4 -1.00000000000000000e+00
5 4 -1.22464679914735321e-16
6 4 9.99999999999999889e-01
7 4 1.00000000000000000e+00
8 4 1.00000000000000022e+00
9 4 2.44929359829470641e-16
1 5 0.00000000000000000e+00
2 5 -9.99999999999999889e-01
3 5 -1.00000000000000000e+00
4 5 -1.00000000000000000e+00
5 5 -1.22464679914735321e-16
6 5 9.99999999999999889e-01
7 5 1.00000000000000000e+00
8 5 1.00000000000000022e+00
9 5 2.44929359829470641e-16
1 6 0.00000000000000000e+00
2 6 -9.99999999999999889e-01
3 6 -1.00000000000000000e+00
4 6 -1.00000000000000000e+00
5 6 -1.22464679914735321e-16
6 6 9.99999999999999889e-01
7 6 1.00000000000000000e+00
8 6 1.00000000000000022e+00
9 6 2.44929359829470641e-16
1 7 0.00000000000000000e+00
2 7 -2.00000000000000000e+00
3 7 -2.00000000000000000e+00
4 7 -2.00000000000000000e+00
5 7 -2.44929359829470641e-16
6 7 2.00000000000000000e+00
7 7 2.00000000000000000e+00
8 7 2.00000000000000000e+00
9 7 4.89858719658941283e-16
1 8 0.00000000000000000e+00
2 8 -3.00000000000000000e+00
3 8 -3.00000000000000000e+00
4 8 -3.00000000000000000e+00
5 8 -3.67394039744205888e-16
6 8 2.99999999999999956e+00
7 8 3.00000000000000000e+00
8 8 3.00000000000000000e+00
9 8 7.34788079488411776e-16
1 9 0.00000000000000000e+00
2 9 -3.00000000000000000e+00
3 9 -3.00000000000000000e+00
4 9 -3.00000000000000000e+00
5 9 -3.67394039744205888e-16
6 9 2.99999999999999956e+00
7 9 3.00000000000000000e+00
8 9 3.00000000000000000e+00
9 9 7.34788079488411776e-16
