%%MatrixMarket matrix coordinate  real general
9 9 81
1 1 1.00000000000000000e+00
2 1 7.07106781186547573e-01
3 1 1.00000000000000000e+00
4 1 7.07106781186547573e-01
5 1 1.00000000000000000e+00
6 1 7.07106781186547573e-01
7 1 1.00000000000000000e+00
8 1 7.07106781186547573e-01
9 1 1.00000000000000000e+00
1 2 7.07106781186547573e-01
2 2 5.00000000000000111e-01
3 2 7.07106781186547573e-01
4 2 5.00000000000000111e-01
5 2 7.07106781186547573e-01
6 2 5.00000000000000111e-01
7 2 7.07106781186547573e-01
8 2 5.00000000000000111e-01
9 2 7.07106781186547573e-01
1 3 1.00000000000000000e+00
2 3 7.07106781186547573e-01
3 3 1.00000000000000000e+00
4 3 7.07106781186547573e-01
5 3 1.00000000000000000e+00
6 3 7.07106781186547573e-01
7 3 1.00000000000000000e+00
8 3 7.07106781186547573e-01
9 3 1.00000000000000000e+00
1 4 7.07106781186547573e-01
2 4 5.00000000000000111e-01
3 4 7.07106781186547573e-01
4 4 5.00000000000000111e-01
5 4 7.07106781186547573e-01
6 4 5.00000000000000111e-01
7 4 7.07106781186547573e-01
8 4 5.00000000000000111e-01
9 4 7.07106781186547573e-01
1 5 1.00000000000000000e+00
2 5 7.07106781186547573e-01
3 5 1.00000000000000000e+00
4 5 7.07106781186547573e-01
5 5 1.00000000000000000e+00
6 5 7.07106781186547573e-01
7 5 1.00000000000000000e+00
8 5 7.07106781186547573e-01
9 5 1.00000000000000000e+00
1 6 7.07106781186547573e-01
2 6 5.00000000000000111e-01
3 6 7.07106781186547573e-01
4 6 5.00000000000000111e-01
5 6 7.07106781186547573e-01
6 6 5.00000000000000111e-01
7 6 7.07106781186547573e-01
8 6 5.00000000000000111e-01
9 6 7.07106781186547573e-01
1 7 1.00000000000000000e+00
2 7 7.07106781186547573e-01
3 7 1.00000000000000000e+00
4 7 7.07106781186547573e-01
5 7 1.00000000000000000e+00
6 7 7.07106781186547573e-01
7 7 1.00000000000000000e+00
8 7 7.07106781186547573e-01
9 7 1.00000000000000000e+00
1 8 7.07106781186547573e-01
2 8 5.00000000000000111e-01
3 8 7.07106781186547573e-01
4 8 5.00000000000000111e-01
5 8 7.07106781186547573e-01
6 8 5.00000000000000111e-01
7 8 7.07106781186547573e-01
8 8 5.00000000000000111e-01
9 8 7.07106781186547573e-01
1 9 1.00000000000000000e+00
2 9 7.07106781186547573e-01
3 9 1.00000000000000000e+00
4 9 7.07106781186547573e-01
5 9 1.00000000000000000e+00
6 9 7.07106781186547573e-01
7 9 1.00000000000000000e+00
8 9 7.07106781186547573e-01
9 9 1.00000000000000000e+00
