%%MatrixMarket matrix coordinate  real general
4 4 16
1 1 0.00000000000000000e+00
2 1 2.50000000000000000e-01
3 1 7.50000000000000000e-01
4 1 1.00000000000000000e+00
1 2 0.00000000000000000e+00
2 2 2.50000000000000000e-01
3 2 7.50000000000000000e-01
4 2 1.00000000000000000e+00
1 3 0.00000000000000000e+00
2 3 2.50000000000000000e-01
3 3 7.50000000000000000e-01
4 3 1.00000000000000000e+00
1 4 0.00000000000000000e+00
2 4 2.50000000000000000e-01
3 4 7.50000000000000000e-01
4 4 1.00000000000000000e+00
