%%MatrixMarket matrix coordinate  real general
69 69 4761
1 1 3.00000000000000000e+00
2 1 3.00000000000000000e+00
3 1 2.97532008800785119e+00
4 1 2.92375571264750400e+00
5 1 2.84363149978642404e+00
6 1 2.73397074562636044e+00
7 1 2.59463912333651114e+00
8 1 2.42644169569213508e+00
9 1 2.23115530061468803e+00
10 1 2.01148538650459896e+00
11 1 1.77094649076885990e+00
12 1 1.51367678556720375e+00
13 1 1.24420692113397258e+00
14 1 9.67209497223504355e-01
15 1 6.87256616974271650e-01
16 1 4.08609240824338416e-01
17 1 1.35054811373695682e-01
18 1 1.83697019872102969e-16
19 1 -1.35054811373695322e-01
20 1 -4.08609240824338027e-01
21 1 -6.87256616974271317e-01
22 1 -9.67209497223503911e-01
23 1 -1.24420692113397213e+00
24 1 -1.51367678556720309e+00
25 1 -1.77094649076885879e+00
26 1 -2.01148538650459763e+00
27 1 -2.23115530061468714e+00
28 1 -2.42644169569213419e+00
29 1 -2.59463912333650981e+00
30 1 -2.73397074562635911e+00
31 1 -2.84363149978642316e+00
32 1 -2.92375571264750356e+00
33 1 -2.97532008800785075e+00
34 1 -3.00000000000000000e+00
35 1 -3.00000000000000000e+00
36 1 -3.00000000000000000e+00
37 1 -2.97532008800785119e+00
38 1 -2.92375571264750400e+00
39 1 -2.84363149978642404e+00
40 1 -2.73397074562636044e+00
41 1 -2.59463912333651114e+00
42 1 -2.42644169569213508e+00
43 1 -2.23115530061468803e+00
44 1 -2.01148538650459896e+00
45 1 -1.77094649076885990e+00
46 1 -1.51367678556720420e+00
47 1 -1.24420692113397324e+00
48 1 -9.67209497223504910e-01
49 1 -6.87256616974272316e-01
50 1 -4.08609240824338860e-01
51 1 -1.35054811373696071e-01
52 1 -5.51091059616308956e-16
53 1 1.35054811373694877e-01
54 1 4.08609240824337472e-01
55 1 6.87256616974270651e-01
56 1 9.67209497223503356e-01
57 1 1.24420692113397147e+00
58 1 1.51367678556720220e+00
59 1 1.77094649076885813e+00
60 1 2.01148538650459674e+00
61 1 2.23115530061468581e+00
62 1 2.42644169569213286e+00
63 1 2.59463912333650892e+00
64 1 2.73397074562635822e+00
65 1 2.84363149978642227e+00
66 1 2.92375571264750267e+00
67 1 2.97532008800785031e+00
68 1 2.99999999999999956e+00
69 1 3.00000000000000000e+00
1 2 3.00000000000000000e+00
2 2 3.00000000000000044e+00
3 2 2.97532008800785164e+00
4 2 2.92375571264750356e+00
5 2 2.84363149978642404e+00
6 2 2.73397074562636000e+00
7 2 2.59463912333651070e+00
8 2 2.42644169569213553e+00
9 2 2.23115530061468803e+00
10 2 2.01148538650459896e+00
11 2 1.77094649076885990e+00
12 2 1.51367678556720375e+00
13 2 1.24420692113397258e+00
14 2 9.67209497223504244e-01
15 2 6.87256616974271650e-01
16 2 4.08609240824338416e-01
17 2 1.35054811373695710e-01
18 2 1.83697019872102969e-16
19 2 -1.35054811373695322e-01
20 2 -4.08609240824338082e-01
21 2 -6.87256616974271317e-01
22 2 -9.67209497223504022e-01
23 2 -1.24420692113397213e+00
24 2 -1.51367678556720309e+00
25 2 -1.77094649076885902e+00
26 2 -2.01148538650459763e+00
27 2 -2.23115530061468759e+00
28 2 -2.42644169569213419e+00
29 2 -2.59463912333651026e+00
30 2 -2.73397074562635956e+00
31 2 -2.84363149978642271e+00
32 2 -2.92375571264750356e+00
33 2 -2.97532008800785031e+00
34 2 -3.00000000000000044e+00
35 2 -3.00000000000000000e+00
36 2 -3.00000000000000044e+00
37 2 -2.97532008800785164e+00
38 2 -2.92375571264750356e+00
39 2 -2.84363149978642404e+00
40 2 -2.73397074562636000e+00
41 2 -2.59463912333651070e+00
42 2 -2.42644169569213553e+00
43 2 -2.23115530061468803e+00
44 2 -2.01148538650459896e+00
45 2 -1.77094649076885990e+00
46 2 -1.51367678556720420e+00
47 2 -1.24420692113397346e+00
48 2 -9.67209497223505021e-01
49 2 -6.87256616974272316e-01
50 2 -4.08609240824338804e-01
51 2 -1.35054811373696071e-01
52 2 -5.51091059616308956e-16
53 2 1.35054811373694933e-01
54 2 4.08609240824337527e-01
55 2 6.87256616974270651e-01
56 2 9.67209497223503356e-01
57 2 1.24420692113397102e+00
58 2 1.51367678556720220e+00
59 2 1.77094649076885813e+00
60 2 2.01148538650459718e+00
61 2 2.23115530061468625e+00
62 2 2.42644169569213330e+00
63 2 2.59463912333650848e+00
64 2 2.73397074562635867e+00
65 2 2.84363149978642227e+00
66 2 2.92375571264750223e+00
67 2 2.97532008800785031e+00
68 2 2.99999999999999956e+00
69 2 3.00000000000000000e+00
1 3 2.99177336266928418e+00
2 3 2.99177336266928373e+00
3 3 2.96716112823890654e+00
4 3 2.91573815335031661e+00
5 3 2.83583365810277677e+00
6 3 2.72647361702734115e+00
7 3 2.58752407164591869e+00
8 3 2.41978787708060583e+00
9 3 2.22503699878580052e+00
10 3 2.00596946624766259e+00
11 3 1.76609017926497280e+00
12 3 1.50952596225027502e+00
13 3 1.24079504143246067e+00
14 3 9.64557203304676869e-01
15 3 6.85372013327277485e-01
16 3 4.07488747479591407e-01
17 3 1.34684462389382476e-01
18 3 1.83193283618362559e-16
19 3 -1.34684462389382059e-01
20 3 -4.07488747479591018e-01
21 3 -6.85372013327277152e-01
22 3 -9.64557203304676425e-01
23 3 -1.24079504143246000e+00
24 3 -1.50952596225027458e+00
25 3 -1.76609017926497192e+00
26 3 -2.00596946624766126e+00
27 3 -2.22503699878579964e+00
28 3 -2.41978787708060539e+00
29 3 -2.58752407164591736e+00
30 3 -2.72647361702734070e+00
31 3 -2.83583365810277588e+00
32 3 -2.91573815335031572e+00
33 3 -2.96716112823890521e+00
34 3 -2.99177336266928373e+00
35 3 -2.99177336266928418e+00
36 3 -2.99177336266928373e+00
37 3 -2.96716112823890654e+00
38 3 -2.91573815335031661e+00
39 3 -2.83583365810277677e+00
40 3 -2.72647361702734115e+00
41 3 -2.58752407164591869e+00
42 3 -2.41978787708060583e+00
43 3 -2.22503699878580052e+00
44 3 -2.00596946624766259e+00
45 3 -1.76609017926497280e+00
46 3 -1.50952596225027569e+00
47 3 -1.24079504143246111e+00
48 3 -9.64557203304677535e-01
49 3 -6.85372013327278262e-01
50 3 -4.07488747479591795e-01
51 3 -1.34684462389382809e-01
52 3 -5.49579850855087727e-16
53 3 1.34684462389381643e-01
54 3 4.07488747479590463e-01
55 3 6.85372013327276597e-01
56 3 9.64557203304675981e-01
57 3 1.24079504143245933e+00
58 3 1.50952596225027369e+00
59 3 1.76609017926497103e+00
60 3 2.00596946624766037e+00
61 3 2.22503699878579875e+00
62 3 2.41978787708060361e+00
63 3 2.58752407164591602e+00
64 3 2.72647361702733937e+00
65 3 2.83583365810277410e+00
66 3 2.91573815335031572e+00
67 3 2.96716112823890477e+00
68 3 2.99177336266928329e+00
69 3 2.99177336266928418e+00
1 4 2.97458523754916859e+00
2 4 2.97458523754916770e+00
3 4 2.95011440359054911e+00
4 4 2.89898686034710362e+00
5 4 2.81954142676483244e+00
6 4 2.71080967327715383e+00
7 4 2.57265841101476678e+00
8 4 2.40588588259319858e+00
9 4 2.21225387329600931e+00
10 4 1.99444491208082053e+00
11 4 1.75594376264351770e+00
12 4 1.50085354025636031e+00
13 4 1.23366651335387223e+00
14 4 9.59015697352796237e-01
15 4 6.81434462419883591e-01
16 4 4.05147671894083294e-01
17 4 1.33910682724060898e-01
18 4 1.82140814497777856e-16
19 4 -1.33910682724060454e-01
20 4 -4.05147671894082961e-01
21 4 -6.81434462419883369e-01
22 4 -9.59015697352796015e-01
23 4 -1.23366651335387201e+00
24 4 -1.50085354025635986e+00
25 4 -1.75594376264351726e+00
26 4 -1.99444491208081942e+00
27 4 -2.21225387329600842e+00
28 4 -2.40588588259319813e+00
29 4 -2.57265841101476589e+00
30 4 -2.71080967327715250e+00
31 4 -2.81954142676483155e+00
32 4 -2.89898686034710273e+00
33 4 -2.95011440359054689e+00
34 4 -2.97458523754916770e+00
35 4 -2.97458523754916859e+00
36 4 -2.97458523754916770e+00
37 4 -2.95011440359054911e+00
38 4 -2.89898686034710362e+00
39 4 -2.81954142676483244e+00
40 4 -2.71080967327715383e+00
41 4 -2.57265841101476678e+00
42 4 -2.40588588259319858e+00
43 4 -2.21225387329600931e+00
44 4 -1.99444491208082053e+00
45 4 -1.75594376264351770e+00
46 4 -1.50085354025636097e+00
47 4 -1.23366651335387267e+00
48 4 -9.59015697352796792e-01
49 4 -6.81434462419884368e-01
50 4 -4.05147671894083683e-01
51 4 -1.33910682724061231e-01
52 4 -5.46422443493333619e-16
53 4 1.33910682724060093e-01
54 4 4.05147671894082462e-01
55 4 6.81434462419882703e-01
56 4 9.59015697352795460e-01
57 4 1.23366651335387090e+00
58 4 1.50085354025635920e+00
59 4 1.75594376264351615e+00
60 4 1.99444491208081831e+00
61 4 2.21225387329600709e+00
62 4 2.40588588259319636e+00
63 4 2.57265841101476456e+00
64 4 2.71080967327715161e+00
65 4 2.81954142676483022e+00
66 4 2.89898686034710273e+00
67 4 2.95011440359054689e+00
68 4 2.97458523754916726e+00
69 4 2.97458523754916859e+00
1 5 2.94787716659547527e+00
2 5 2.94787716659547439e+00
3 5 2.92362605025039546e+00
4 5 2.87295756867221774e+00
5 5 2.79422545614401407e+00
6 5 2.68646997839065005e+00
7 5 2.54955914241299997e+00
8 5 2.38428402360201641e+00
9 5 2.19239058860350067e+00
10 5 1.97653728060579348e+00
11 5 1.74017757446663479e+00
12 5 1.48737774459306449e+00
13 5 1.22258972444363145e+00
14 5 9.50404930726485797e-01
15 5 6.75316029590035449e-01
16 5 4.01509950361992829e-01
17 5 1.32708331562458787e-01
18 5 1.80505416817535783e-16
19 5 -1.32708331562458343e-01
20 5 -4.01509950361992607e-01
21 5 -6.75316029590035227e-01
22 5 -9.50404930726485575e-01
23 5 -1.22258972444363101e+00
24 5 -1.48737774459306427e+00
25 5 -1.74017757446663390e+00
26 5 -1.97653728060579215e+00
27 5 -2.19239058860349978e+00
28 5 -2.38428402360201641e+00
29 5 -2.54955914241299908e+00
30 5 -2.68646997839064916e+00
31 5 -2.79422545614401407e+00
32 5 -2.87295756867221730e+00
33 5 -2.92362605025039279e+00
34 5 -2.94787716659547439e+00
35 5 -2.94787716659547527e+00
36 5 -2.94787716659547439e+00
37 5 -2.92362605025039546e+00
38 5 -2.87295756867221774e+00
39 5 -2.79422545614401407e+00
40 5 -2.68646997839065005e+00
41 5 -2.54955914241299997e+00
42 5 -2.38428402360201641e+00
43 5 -2.19239058860350067e+00
44 5 -1.97653728060579348e+00
45 5 -1.74017757446663479e+00
46 5 -1.48737774459306493e+00
47 5 -1.22258972444363190e+00
48 5 -9.50404930726486241e-01
49 5 -6.75316029590036226e-01
50 5 -4.01509950361993218e-01
51 5 -1.32708331562459120e-01
52 5 -5.41516250452607521e-16
53 5 1.32708331562457982e-01
54 5 4.01509950361992052e-01
55 5 6.75316029590034672e-01
56 5 9.50404930726485020e-01
57 5 1.22258972444363012e+00
58 5 1.48737774459306338e+00
59 5 1.74017757446663301e+00
60 5 1.97653728060579126e+00
61 5 2.19239058860349845e+00
62 5 2.38428402360201463e+00
63 5 2.54955914241299730e+00
64 5 2.68646997839064827e+00
65 5 2.79422545614401274e+00
66 5 2.87295756867221730e+00
67 5 2.92362605025039279e+00
68 5 2.94787716659547439e+00
69 5 2.94787716659547527e+00
1 6 2.91132358187545393e+00
2 6 2.91132358187545348e+00
3 6 2.88737317861500298e+00
4 6 2.83733298462458183e+00
5 6 2.75957714783069274e+00
6 6 2.65315783463321209e+00
7 6 2.51794468874207888e+00
8 6 2.35471897623812465e+00
9 6 2.16520501383531938e+00
10 6 1.95202828010956675e+00
11 6 1.71859942693832002e+00
12 6 1.46893430705307781e+00
13 6 1.20742965007666214e+00
14 6 9.38619939293563132e-01
15 6 6.66942131932380722e-01
16 6 3.96531239528040869e-01
17 6 1.31062752399327159e-01
18 6 1.78267155291299023e-16
19 6 -1.31062752399326743e-01
20 6 -3.96531239528040536e-01
21 6 -6.66942131932380500e-01
22 6 -9.38619939293562577e-01
23 6 -1.20742965007666170e+00
24 6 -1.46893430705307759e+00
25 6 -1.71859942693831913e+00
26 6 -1.95202828010956519e+00
27 6 -2.16520501383531894e+00
28 6 -2.35471897623812465e+00
29 6 -2.51794468874207800e+00
30 6 -2.65315783463321164e+00
31 6 -2.75957714783069274e+00
32 6 -2.83733298462458183e+00
33 6 -2.88737317861500076e+00
34 6 -2.91132358187545304e+00
35 6 -2.91132358187545393e+00
36 6 -2.91132358187545348e+00
37 6 -2.88737317861500298e+00
38 6 -2.83733298462458183e+00
39 6 -2.75957714783069274e+00
40 6 -2.65315783463321209e+00
41 6 -2.51794468874207888e+00
42 6 -2.35471897623812465e+00
43 6 -2.16520501383531938e+00
44 6 -1.95202828010956675e+00
45 6 -1.71859942693832002e+00
46 6 -1.46893430705307826e+00
47 6 -1.20742965007666236e+00
48 6 -9.38619939293563466e-01
49 6 -6.66942131932381499e-01
50 6 -3.96531239528041257e-01
51 6 -1.31062752399327492e-01
52 6 -5.34801465873897118e-16
53 6 1.31062752399326382e-01
54 6 3.96531239528040036e-01
55 6 6.66942131932379945e-01
56 6 9.38619939293562022e-01
57 6 1.20742965007666081e+00
58 6 1.46893430705307648e+00
59 6 1.71859942693831824e+00
60 6 1.95202828010956431e+00
61 6 2.16520501383531716e+00
62 6 2.35471897623812287e+00
63 6 2.51794468874207622e+00
64 6 2.65315783463321075e+00
65 6 2.75957714783069230e+00
66 6 2.83733298462458139e+00
67 6 2.88737317861500076e+00
68 6 2.91132358187545304e+00
69 6 2.91132358187545393e+00
1 7 2.86487970777883749e+00
2 7 2.86487970777883705e+00
3 7 2.84131138142681294e+00
4 7 2.79206947055542765e+00
5 7 2.71555406004627464e+00
6 7 2.61083243693531086e+00
7 7 2.47777632448527951e+00
8 7 2.31715452536562250e+00
9 7 2.13066384854473689e+00
10 7 1.92088788876356542e+00
11 7 1.69118288832194885e+00
12 7 1.44550063570245979e+00
13 7 1.18816772021156702e+00
14 7 9.23646287255529774e-01
15 7 6.56302512002107430e-01
16 7 3.90205440816187688e-01
17 7 1.28971929514133110e-01
18 7 1.75423288203677805e-16
19 7 -1.28971929514132694e-01
20 7 -3.90205440816187299e-01
21 7 -6.56302512002107319e-01
22 7 -9.23646287255529108e-01
23 7 -1.18816772021156658e+00
24 7 -1.44550063570245957e+00
25 7 -1.69118288832194819e+00
26 7 -1.92088788876356409e+00
27 7 -2.13066384854473645e+00
28 7 -2.31715452536562250e+00
29 7 -2.47777632448527907e+00
30 7 -2.61083243693531042e+00
31 7 -2.71555406004627509e+00
32 7 -2.79206947055542765e+00
33 7 -2.84131138142681028e+00
34 7 -2.86487970777883660e+00
35 7 -2.86487970777883749e+00
36 7 -2.86487970777883705e+00
37 7 -2.84131138142681294e+00
38 7 -2.79206947055542765e+00
39 7 -2.71555406004627464e+00
40 7 -2.61083243693531086e+00
41 7 -2.47777632448527951e+00
42 7 -2.31715452536562250e+00
43 7 -2.13066384854473689e+00
44 7 -1.92088788876356542e+00
45 7 -1.69118288832194885e+00
46 7 -1.44550063570246023e+00
47 7 -1.18816772021156725e+00
48 7 -9.23646287255530107e-01
49 7 -6.56302512002108207e-01
50 7 -3.90205440816188021e-01
51 7 -1.28971929514133443e-01
52 7 -5.26269864611033489e-16
53 7 1.28971929514132333e-01
54 7 3.90205440816186799e-01
55 7 6.56302512002106764e-01
56 7 9.23646287255528664e-01
57 7 1.18816772021156569e+00
58 7 1.44550063570245824e+00
59 7 1.69118288832194708e+00
60 7 1.92088788876356298e+00
61 7 2.13066384854473467e+00
62 7 2.31715452536562072e+00
63 7 2.47777632448527774e+00
64 7 2.61083243693530953e+00
65 7 2.71555406004627509e+00
66 7 2.79206947055542720e+00
67 7 2.84131138142681028e+00
68 7 2.86487970777883660e+00
69 7 2.86487970777883749e+00
1 8 2.80881389856404562e+00
2 8 2.80881389856404518e+00
3 8 2.78570680529108428e+00
4 8 2.73742856056344319e+00
5 8 2.66241055966487483e+00
6 8 2.55973834286094082e+00
7 8 2.42928614379520669e+00
8 8 2.27180771963845851e+00
9 8 2.08896667274045855e+00
10 8 1.88329603679086244e+00
11 8 1.65808637229493128e+00
12 8 1.41721213107830279e+00
13 8 1.16491523092355997e+00
14 8 9.05570492874840371e-01
15 8 6.43458645879146585e-01
16 8 3.82569104903034973e-01
17 8 1.26447943751460651e-01
18 8 1.71990247513852733e-16
19 8 -1.26447943751460234e-01
20 8 -3.82569104903034529e-01
21 8 -6.43458645879146474e-01
22 8 -9.05570492874839816e-01
23 8 -1.16491523092355953e+00
24 8 -1.41721213107830302e+00
25 8 -1.65808637229493083e+00
26 8 -1.88329603679086155e+00
27 8 -2.08896667274045811e+00
28 8 -2.27180771963845807e+00
29 8 -2.42928614379520580e+00
30 8 -2.55973834286094082e+00
31 8 -2.66241055966487528e+00
32 8 -2.73742856056344319e+00
33 8 -2.78570680529108206e+00
34 8 -2.80881389856404429e+00
35 8 -2.80881389856404562e+00
36 8 -2.80881389856404518e+00
37 8 -2.78570680529108428e+00
38 8 -2.73742856056344319e+00
39 8 -2.66241055966487483e+00
40 8 -2.55973834286094082e+00
41 8 -2.42928614379520669e+00
42 8 -2.27180771963845851e+00
43 8 -2.08896667274045855e+00
44 8 -1.88329603679086244e+00
45 8 -1.65808637229493128e+00
46 8 -1.41721213107830346e+00
47 8 -1.16491523092356020e+00
48 8 -9.05570492874840705e-01
49 8 -6.43458645879147140e-01
50 8 -3.82569104903035251e-01
51 8 -1.26447943751460984e-01
52 8 -5.15970742541558322e-16
53 8 1.26447943751459901e-01
54 8 3.82569104903034085e-01
55 8 6.43458645879145918e-01
56 8 9.05570492874839261e-01
57 8 1.16491523092355864e+00
58 8 1.41721213107830124e+00
59 8 1.65808637229492950e+00
60 8 1.88329603679086044e+00
61 8 2.08896667274045678e+00
62 8 2.27180771963845674e+00
63 8 2.42928614379520447e+00
64 8 2.55973834286093993e+00
65 8 2.66241055966487528e+00
66 8 2.73742856056344319e+00
67 8 2.78570680529108206e+00
68 8 2.80881389856404429e+00
69 8 2.80881389856404562e+00
1 9 2.74371843353822964e+00
2 9 2.74371843353822920e+00
3 9 2.72114685704791004e+00
4 9 2.67398748131788500e+00
5 9 2.60070805471799016e+00
6 9 2.50041531050976618e+00
7 9 2.37298639702595215e+00
8 9 2.21915760279208918e+00
9 9 2.04055397546101647e+00
10 9 1.83964984458181258e+00
11 9 1.61965951051078605e+00
12 9 1.38436763299320975e+00
13 9 1.13791782155037535e+00
14 9 8.84583508875123936e-01
15 9 6.28546216187810258e-01
16 9 3.73702902054599662e-01
17 9 1.23517458501345795e-01
18 9 1.68004299869709054e-16
19 9 -1.23517458501345379e-01
20 9 -3.73702902054599273e-01
21 9 -6.28546216187810258e-01
22 9 -8.84583508875123492e-01
23 9 -1.13791782155037491e+00
24 9 -1.38436763299320997e+00
25 9 -1.61965951051078538e+00
26 9 -1.83964984458181169e+00
27 9 -2.04055397546101602e+00
28 9 -2.21915760279208829e+00
29 9 -2.37298639702595127e+00
30 9 -2.50041531050976618e+00
31 9 -2.60070805471799016e+00
32 9 -2.67398748131788500e+00
33 9 -2.72114685704790826e+00
34 9 -2.74371843353822831e+00
35 9 -2.74371843353822964e+00
36 9 -2.74371843353822920e+00
37 9 -2.72114685704791004e+00
38 9 -2.67398748131788500e+00
39 9 -2.60070805471799016e+00
40 9 -2.50041531050976618e+00
41 9 -2.37298639702595215e+00
42 9 -2.21915760279208918e+00
43 9 -2.04055397546101647e+00
44 9 -1.83964984458181258e+00
45 9 -1.61965951051078605e+00
46 9 -1.38436763299321064e+00
47 9 -1.13791782155037535e+00
48 9 -8.84583508875124158e-01
49 9 -6.28546216187810813e-01
50 9 -3.73702902054599884e-01
51 9 -1.23517458501346114e-01
52 9 -5.04012899609127261e-16
53 9 1.23517458501345059e-01
54 9 3.73702902054598829e-01
55 9 6.28546216187809592e-01
56 9 8.84583508875122826e-01
57 9 1.13791782155037402e+00
58 9 1.38436763299320842e+00
59 9 1.61965951051078449e+00
60 9 1.83964984458181058e+00
61 9 2.04055397546101469e+00
62 9 2.21915760279208696e+00
63 9 2.37298639702594993e+00
64 9 2.50041531050976573e+00
65 9 2.60070805471799016e+00
66 9 2.67398748131788500e+00
67 9 2.72114685704790826e+00
68 9 2.74371843353822831e+00
69 9 2.74371843353822964e+00
1 10 2.67049512883486662e+00
2 10 2.67049512883486617e+00
3 10 2.64852593391649771e+00
4 10 2.60262512950942337e+00
5 10 2.53130135612700924e+00
6 10 2.43368518619073937e+00
7 10 2.30965704665150673e+00
8 10 2.15993357624921911e+00
9 10 1.98609645398853862e+00
10 10 1.79055397546101625e+00
11 10 1.57643465900847946e+00
12 10 1.34742216082921140e+00
13 10 1.10754950738363322e+00
14 10 8.60976083632729483e-01
15 10 6.11771815963107035e-01
16 10 3.63729662406102883e-01
17 10 1.20221071966388662e-01
18 10 1.63520665583310842e-16
19 10 -1.20221071966388288e-01
20 10 -3.63729662406102494e-01
21 10 -6.11771815963107146e-01
22 10 -8.60976083632729150e-01
23 10 -1.10754950738363300e+00
24 10 -1.34742216082921162e+00
25 10 -1.57643465900847879e+00
26 10 -1.79055397546101536e+00
27 10 -1.98609645398853840e+00
28 10 -2.15993357624921822e+00
29 10 -2.30965704665150584e+00
30 10 -2.43368518619073937e+00
31 10 -2.53130135612700924e+00
32 10 -2.60262512950942293e+00
33 10 -2.64852593391649638e+00
34 10 -2.67049512883486573e+00
35 10 -2.67049512883486662e+00
36 10 -2.67049512883486617e+00
37 10 -2.64852593391649771e+00
38 10 -2.60262512950942337e+00
39 10 -2.53130135612700924e+00
40 10 -2.43368518619073937e+00
41 10 -2.30965704665150673e+00
42 10 -2.15993357624921911e+00
43 10 -1.98609645398853862e+00
44 10 -1.79055397546101625e+00
45 10 -1.57643465900847968e+00
46 10 -1.34742216082921207e+00
47 10 -1.10754950738363322e+00
48 10 -8.60976083632729927e-01
49 10 -6.11771815963107479e-01
50 10 -3.63729662406103049e-01
51 10 -1.20221071966389009e-01
52 10 -4.90561996749932575e-16
53 10 1.20221071966387968e-01
54 10 3.63729662406102106e-01
55 10 6.11771815963106480e-01
56 10 8.60976083632728595e-01
57 10 1.10754950738363211e+00
58 10 1.34742216082921029e+00
59 10 1.57643465900847812e+00
60 10 1.79055397546101447e+00
61 10 1.98609645398853685e+00
62 10 2.15993357624921689e+00
63 10 2.30965704665150406e+00
64 10 2.43368518619073892e+00
65 10 2.53130135612700924e+00
66 10 2.60262512950942293e+00
67 10 2.64852593391649638e+00
68 10 2.67049512883486573e+00
69 10 2.67049512883486662e+00
1 11 2.59031549692295338e+00
2 11 2.59031549692295338e+00
3 11 2.56900591075763396e+00
4 11 2.52448324389594658e+00
5 11 2.45530091381167725e+00
6 11 2.36061559684331979e+00
7 11 2.24031131003371664e+00
8 11 2.09508317557711488e+00
9 11 1.92646538374133880e+00
10 11 1.73679392283230594e+00
11 11 1.52910337975329913e+00
12 11 1.30696681166241624e+00
13 11 1.07429615639737430e+00
14 11 8.35125916476367025e-01
15 11 5.93403821770432605e-01
16 11 3.52808949564402285e-01
17 11 1.16611523611763399e-01
18 11 1.58611079104423994e-16
19 11 -1.16611523611763065e-01
20 11 -3.52808949564401952e-01
21 11 -5.93403821770432605e-01
22 11 -8.35125916476366803e-01
23 11 -1.07429615639737430e+00
24 11 -1.30696681166241624e+00
25 11 -1.52910337975329846e+00
26 11 -1.73679392283230505e+00
27 11 -1.92646538374133858e+00
28 11 -2.09508317557711399e+00
29 11 -2.24031131003371575e+00
30 11 -2.36061559684331979e+00
31 11 -2.45530091381167681e+00
32 11 -2.52448324389594614e+00
33 11 -2.56900591075763307e+00
34 11 -2.59031549692295293e+00
35 11 -2.59031549692295338e+00
36 11 -2.59031549692295338e+00
37 11 -2.56900591075763396e+00
38 11 -2.52448324389594658e+00
39 11 -2.45530091381167725e+00
40 11 -2.36061559684331979e+00
41 11 -2.24031131003371664e+00
42 11 -2.09508317557711488e+00
43 11 -1.92646538374133880e+00
44 11 -1.73679392283230594e+00
45 11 -1.52910337975329935e+00
46 11 -1.30696681166241668e+00
47 11 -1.07429615639737452e+00
48 11 -8.35125916476367358e-01
49 11 -5.93403821770432938e-01
50 11 -3.52808949564402508e-01
51 11 -1.16611523611763745e-01
52 11 -4.75833237313271981e-16
53 11 1.16611523611762746e-01
54 11 3.52808949564401619e-01
55 11 5.93403821770431938e-01
56 11 8.35125916476366248e-01
57 11 1.07429615639737341e+00
58 11 1.30696681166241513e+00
59 11 1.52910337975329780e+00
60 11 1.73679392283230416e+00
61 11 1.92646538374133702e+00
62 11 2.09508317557711266e+00
63 11 2.24031131003371442e+00
64 11 2.36061559684331934e+00
65 11 2.45530091381167681e+00
66 11 2.52448324389594614e+00
67 11 2.56900591075763263e+00
68 11 2.59031549692295293e+00
69 11 2.59031549692295338e+00
1 12 2.50455892852240147e+00
2 12 2.50455892852240103e+00
3 12 2.48395483054403998e+00
4 12 2.44090615830989321e+00
5 12 2.37401422073921120e+00
6 12 2.28246361375918161e+00
7 12 2.16614219421533116e+00
8 12 2.02572207116159042e+00
9 12 1.86268664302486631e+00
10 12 1.67929456145414191e+00
11 12 1.47847994846352004e+00
12 12 1.26369756939647582e+00
13 12 1.03872985108515214e+00
14 12 8.07477727340930040e-01
15 12 5.73758232076337249e-01
16 12 3.41128640794452320e-01
17 12 1.12750911221966080e-01
18 12 1.53360003754544150e-16
19 12 -1.12750911221965747e-01
20 12 -3.41128640794451987e-01
21 12 -5.73758232076337249e-01
22 12 -8.07477727340929818e-01
23 12 -1.03872985108515214e+00
24 12 -1.26369756939647560e+00
25 12 -1.47847994846351938e+00
26 12 -1.67929456145414080e+00
27 12 -1.86268664302486608e+00
28 12 -2.02572207116158953e+00
29 12 -2.16614219421533072e+00
30 12 -2.28246361375918116e+00
31 12 -2.37401422073921076e+00
32 12 -2.44090615830989277e+00
33 12 -2.48395483054403954e+00
34 12 -2.50455892852240103e+00
35 12 -2.50455892852240147e+00
36 12 -2.50455892852240103e+00
37 12 -2.48395483054403998e+00
38 12 -2.44090615830989321e+00
39 12 -2.37401422073921120e+00
40 12 -2.28246361375918161e+00
41 12 -2.16614219421533116e+00
42 12 -2.02572207116159042e+00
43 12 -1.86268664302486631e+00
44 12 -1.67929456145414191e+00
45 12 -1.47847994846352027e+00
46 12 -1.26369756939647604e+00
47 12 -1.03872985108515259e+00
48 12 -8.07477727340930262e-01
49 12 -5.73758232076337582e-01
50 12 -3.41128640794452542e-01
51 12 -1.12750911221966413e-01
52 12 -4.60080011263632376e-16
53 12 1.12750911221965441e-01
54 12 3.41128640794451654e-01
55 12 5.73758232076336694e-01
56 12 8.07477727340929263e-01
57 12 1.03872985108515170e+00
58 12 1.26369756939647471e+00
59 12 1.47847994846351916e+00
60 12 1.67929456145414013e+00
61 12 1.86268664302486475e+00
62 12 2.02572207116158820e+00
63 12 2.16614219421532939e+00
64 12 2.28246361375918072e+00
65 12 2.37401422073921031e+00
66 12 2.44090615830989277e+00
67 12 2.48395483054403909e+00
68 12 2.50455892852240103e+00
69 12 2.50455892852240147e+00
1 13 2.41473564037799093e+00
2 13 2.41473564037799093e+00
3 13 2.39487048601504604e+00
4 13 2.35336570769622577e+00
5 13 2.28887277687859880e+00
6 13 2.20060553307158679e+00
7 13 2.08845585501325903e+00
8 13 1.95307174729566824e+00
9 13 1.79588340787085232e+00
10 13 1.61906848429738415e+00
11 13 1.42545586948729897e+00
12 13 1.21837642737397345e+00
13 13 1.00147693215572331e+00
14 13 7.78518414885891019e-01
15 13 5.53181015697793099e-01
16 13 3.28894432268774572e-01
17 13 1.08707222142863255e-01
18 13 1.47859913638797031e-16
19 13 -1.08707222142862936e-01
20 13 -3.28894432268774239e-01
21 13 -5.53181015697792988e-01
22 13 -7.78518414885890797e-01
23 13 -1.00147693215572331e+00
24 13 -1.21837642737397300e+00
25 13 -1.42545586948729830e+00
26 13 -1.61906848429738326e+00
27 13 -1.79588340787085210e+00
28 13 -1.95307174729566757e+00
29 13 -2.08845585501325903e+00
30 13 -2.20060553307158635e+00
31 13 -2.28887277687859836e+00
32 13 -2.35336570769622533e+00
33 13 -2.39487048601504560e+00
34 13 -2.41473564037799093e+00
35 13 -2.41473564037799093e+00
36 13 -2.41473564037799093e+00
37 13 -2.39487048601504604e+00
38 13 -2.35336570769622577e+00
39 13 -2.28887277687859880e+00
40 13 -2.20060553307158679e+00
41 13 -2.08845585501325903e+00
42 13 -1.95307174729566824e+00
43 13 -1.79588340787085232e+00
44 13 -1.61906848429738415e+00
45 13 -1.42545586948729919e+00
46 13 -1.21837642737397367e+00
47 13 -1.00147693215572375e+00
48 13 -7.78518414885891241e-01
49 13 -5.53181015697793432e-01
50 13 -3.28894432268774684e-01
51 13 -1.08707222142863588e-01
52 13 -4.43579740916390969e-16
53 13 1.08707222142862658e-01
54 13 3.28894432268773906e-01
55 13 5.53181015697792544e-01
56 13 7.78518414885890242e-01
57 13 1.00147693215572287e+00
58 13 1.21837642737397234e+00
59 13 1.42545586948729808e+00
60 13 1.61906848429738259e+00
61 13 1.79588340787085121e+00
62 13 1.95307174729566668e+00
63 13 2.08845585501325814e+00
64 13 2.20060553307158591e+00
65 13 2.28887277687859791e+00
66 13 2.35336570769622533e+00
67 13 2.39487048601504515e+00
68 13 2.41473564037799093e+00
69 13 2.41473564037799093e+00
1 14 2.32240316574116834e+00
2 14 2.32240316574116878e+00
3 14 2.30329759716090843e+00
4 14 2.26337984096879508e+00
5 14 2.20135293243509889e+00
6 14 2.11646077156213286e+00
7 14 2.00859937133086675e+00
8 14 1.87839195852059371e+00
9 14 1.72721404446924587e+00
10 14 1.55716000982012548e+00
11 14 1.37095057883993698e+00
12 14 1.17178925290339619e+00
13 14 9.63183364159536093e-01
14 14 7.48750132762263210e-01
15 14 5.32028980979204591e-01
16 14 3.16318464813846345e-01
17 14 1.04550573827615734e-01
18 14 1.42206180162730068e-16
19 14 -1.04550573827615415e-01
20 14 -3.16318464813846012e-01
21 14 -5.32028980979204369e-01
22 14 -7.48750132762262988e-01
23 14 -9.63183364159535982e-01
24 14 -1.17178925290339597e+00
25 14 -1.37095057883993632e+00
26 14 -1.55716000982012481e+00
27 14 -1.72721404446924587e+00
28 14 -1.87839195852059326e+00
29 14 -2.00859937133086675e+00
30 14 -2.11646077156213286e+00
31 14 -2.20135293243509844e+00
32 14 -2.26337984096879508e+00
33 14 -2.30329759716090754e+00
34 14 -2.32240316574116878e+00
35 14 -2.32240316574116834e+00
36 14 -2.32240316574116878e+00
37 14 -2.30329759716090843e+00
38 14 -2.26337984096879508e+00
39 14 -2.20135293243509889e+00
40 14 -2.11646077156213286e+00
41 14 -2.00859937133086675e+00
42 14 -1.87839195852059371e+00
43 14 -1.72721404446924587e+00
44 14 -1.55716000982012548e+00
45 14 -1.37095057883993721e+00
46 14 -1.17178925290339664e+00
47 14 -9.63183364159536537e-01
48 14 -7.48750132762263543e-01
49 14 -5.32028980979204924e-01
50 14 -3.16318464813846512e-01
51 14 -1.04550573827616025e-01
52 14 -4.26618540488190057e-16
53 14 1.04550573827615137e-01
54 14 3.16318464813845734e-01
55 14 5.32028980979204036e-01
56 14 7.48750132762262544e-01
57 14 9.63183364159535649e-01
58 14 1.17178925290339553e+00
59 14 1.37095057883993632e+00
60 14 1.55716000982012415e+00
61 14 1.72721404446924498e+00
62 14 1.87839195852059238e+00
63 14 2.00859937133086630e+00
64 14 2.11646077156213241e+00
65 14 2.20135293243509844e+00
66 14 2.26337984096879508e+00
67 14 2.30329759716090754e+00
68 14 2.32240316574116878e+00
69 14 2.32240316574116834e+00
1 15 2.22908553899142436e+00
2 15 2.22908553899142436e+00
3 15 2.21074766068299766e+00
4 15 2.17243385953537116e+00
5 15 2.11289928479813716e+00
6 15 2.03141821770043940e+00
7 15 1.92789084957693335e+00
8 15 1.80291536502438876e+00
9 15 1.65781200528142092e+00
10 15 1.49459099564999165e+00
11 15 1.31586373763349118e+00
12 15 1.12470501113829191e+00
13 15 9.24481218470926680e-01
14 15 7.18664234478692876e-01
15 15 5.10651262157838848e-01
16 15 3.03608316606598982e-01
17 15 1.00349575668106525e-01
18 15 1.36492123517574990e-16
19 15 -1.00349575668106192e-01
20 15 -3.03608316606598705e-01
21 15 -5.10651262157838626e-01
22 15 -7.18664234478692765e-01
23 15 -9.24481218470926458e-01
24 15 -1.12470501113829147e+00
25 15 -1.31586373763349052e+00
26 15 -1.49459099564999098e+00
27 15 -1.65781200528142092e+00
28 15 -1.80291536502438854e+00
29 15 -1.92789084957693335e+00
30 15 -2.03141821770043940e+00
31 15 -2.11289928479813716e+00
32 15 -2.17243385953537116e+00
33 15 -2.21074766068299677e+00
34 15 -2.22908553899142436e+00
35 15 -2.22908553899142436e+00
36 15 -2.22908553899142436e+00
37 15 -2.21074766068299766e+00
38 15 -2.17243385953537116e+00
39 15 -2.11289928479813716e+00
40 15 -2.03141821770043940e+00
41 15 -1.92789084957693335e+00
42 15 -1.80291536502438876e+00
43 15 -1.65781200528142092e+00
44 15 -1.49459099564999165e+00
45 15 -1.31586373763349140e+00
46 15 -1.12470501113829213e+00
47 15 -9.24481218470927013e-01
48 15 -7.18664234478693209e-01
49 15 -5.10651262157839292e-01
50 15 -3.03608316606599205e-01
51 15 -1.00349575668106789e-01
52 15 -4.09476370552724872e-16
53 15 1.00349575668105956e-01
54 15 3.03608316606598427e-01
55 15 5.10651262157838404e-01
56 15 7.18664234478692432e-01
57 15 9.24481218470926347e-01
58 15 1.12470501113829124e+00
59 15 1.31586373763349052e+00
60 15 1.49459099564999054e+00
61 15 1.65781200528142003e+00
62 15 1.80291536502438765e+00
63 15 1.92789084957693313e+00
64 15 2.03141821770043896e+00
65 15 2.11289928479813671e+00
66 15 2.17243385953537116e+00
67 15 2.21074766068299677e+00
68 15 2.22908553899142436e+00
69 15 2.22908553899142436e+00
1 16 2.13620308027477979e+00
2 16 2.13620308027477979e+00
3 16 2.11862931226860018e+00
4 16 2.08191198644285969e+00
5 16 2.02485812300338308e+00
6 16 1.94677224272938831e+00
7 16 1.84755869582430199e+00
8 16 1.72779074148156564e+00
9 16 1.58873360858149892e+00
10 16 1.43231375952627626e+00
11 16 1.26103378286074963e+00
12 16 1.07784033728969564e+00
13 16 8.85959552475196865e-01
14 16 6.88718635746623398e-01
15 16 4.89373234039887695e-01
16 16 2.90957439625896985e-01
17 16 9.61681680208060219e-02
18 16 1.30804713229361259e-16
19 16 -9.61681680208056888e-02
20 16 -2.90957439625896652e-01
21 16 -4.89373234039887473e-01
22 16 -6.88718635746623287e-01
23 16 -8.85959552475196643e-01
24 16 -1.07784033728969497e+00
25 16 -1.26103378286074896e+00
26 16 -1.43231375952627515e+00
27 16 -1.58873360858149892e+00
28 16 -1.72779074148156542e+00
29 16 -1.84755869582430199e+00
30 16 -1.94677224272938787e+00
31 16 -2.02485812300338308e+00
32 16 -2.08191198644285969e+00
33 16 -2.11862931226859930e+00
34 16 -2.13620308027477979e+00
35 16 -2.13620308027477979e+00
36 16 -2.13620308027477979e+00
37 16 -2.11862931226860018e+00
38 16 -2.08191198644285969e+00
39 16 -2.02485812300338308e+00
40 16 -1.94677224272938831e+00
41 16 -1.84755869582430199e+00
42 16 -1.72779074148156564e+00
43 16 -1.58873360858149892e+00
44 16 -1.43231375952627626e+00
45 16 -1.26103378286074985e+00
46 16 -1.07784033728969586e+00
47 16 -8.85959552475197309e-01
48 16 -6.88718635746623731e-01
49 16 -4.89373234039888139e-01
50 16 -2.90957439625897152e-01
51 16 -9.61681680208062717e-02
52 16 -3.92414139688083702e-16
53 16 9.61681680208054945e-02
54 16 2.90957439625896430e-01
55 16 4.89373234039887306e-01
56 16 6.88718635746622954e-01
57 16 8.85959552475196643e-01
58 16 1.07784033728969497e+00
59 16 1.26103378286074896e+00
60 16 1.43231375952627515e+00
61 16 1.58873360858149804e+00
62 16 1.72779074148156475e+00
63 16 1.84755869582430177e+00
64 16 1.94677224272938787e+00
65 16 2.02485812300338264e+00
66 16 2.08191198644285969e+00
67 16 2.11862931226859930e+00
68 16 2.13620308027477979e+00
69 16 2.13620308027477979e+00
1 17 2.04501827045789852e+00
2 17 2.04501827045789852e+00
3 17 2.02819464681215278e+00
4 17 1.99304461690659918e+00
5 17 1.93842612383761059e+00
6 17 1.86367337523443632e+00
7 17 1.76869480415600933e+00
8 17 1.65403919996375315e+00
9 17 1.52091778466200700e+00
10 17 1.37117478872032383e+00
11 17 1.20720597654187256e+00
12 17 1.03183222735097124e+00
13 17 8.48141961983047477e-01
14 17 6.59320364394154645e-01
15 17 4.68484112735157054e-01
16 17 2.78537787654567826e-01
17 17 9.20631855908176228e-02
18 17 1.25221253955706094e-16
19 17 -9.20631855908173174e-02
20 17 -2.78537787654567492e-01
21 17 -4.68484112735156777e-01
22 17 -6.59320364394154312e-01
23 17 -8.48141961983047143e-01
24 17 -1.03183222735097058e+00
25 17 -1.20720597654187212e+00
26 17 -1.37117478872032317e+00
27 17 -1.52091778466200678e+00
28 17 -1.65403919996375293e+00
29 17 -1.76869480415600910e+00
30 17 -1.86367337523443610e+00
31 17 -1.93842612383761059e+00
32 17 -1.99304461690659918e+00
33 17 -2.02819464681215234e+00
34 17 -2.04501827045789852e+00
35 17 -2.04501827045789852e+00
36 17 -2.04501827045789852e+00
37 17 -2.02819464681215278e+00
38 17 -1.99304461690659918e+00
39 17 -1.93842612383761059e+00
40 17 -1.86367337523443632e+00
41 17 -1.76869480415600933e+00
42 17 -1.65403919996375315e+00
43 17 -1.52091778466200700e+00
44 17 -1.37117478872032383e+00
45 17 -1.20720597654187278e+00
46 17 -1.03183222735097146e+00
47 17 -8.48141961983047810e-01
48 17 -6.59320364394154979e-01
49 17 -4.68484112735157443e-01
50 17 -2.78537787654568048e-01
51 17 -9.20631855908178726e-02
52 17 -3.75663761867118183e-16
53 17 9.20631855908171370e-02
54 17 2.78537787654567326e-01
55 17 4.68484112735156666e-01
56 17 6.59320364394154201e-01
57 17 8.48141961983047143e-01
58 17 1.03183222735097058e+00
59 17 1.20720597654187189e+00
60 17 1.37117478872032317e+00
61 17 1.52091778466200633e+00
62 17 1.65403919996375248e+00
63 17 1.76869480415600910e+00
64 17 1.86367337523443610e+00
65 17 1.93842612383761059e+00
66 17 1.99304461690659918e+00
67 17 2.02819464681215234e+00
68 17 2.04501827045789852e+00
69 17 2.04501827045789852e+00
1 18 2.00000000000000000e+00
2 18 2.00000000000000000e+00
3 18 1.98354672533856724e+00
4 18 1.94917047509833563e+00
5 18 1.89575433319094899e+00
6 18 1.82264716375090630e+00
7 18 1.72975941555767321e+00
8 18 1.61762779712808946e+00
9 18 1.48743686707645817e+00
10 18 1.34099025766973212e+00
11 18 1.18063099384590608e+00
12 18 1.00911785704480206e+00
13 18 8.29471280755981422e-01
14 18 6.44806331482336015e-01
15 18 4.58171077982847730e-01
16 18 2.72406160549558907e-01
17 18 9.00365409157971169e-02
18 18 1.22464679914735321e-16
19 18 -9.00365409157968394e-02
20 18 -2.72406160549558574e-01
21 18 -4.58171077982847397e-01
22 18 -6.44806331482335682e-01
23 18 -8.29471280755981089e-01
24 18 -1.00911785704480161e+00
25 18 -1.18063099384590564e+00
26 18 -1.34099025766973168e+00
27 18 -1.48743686707645795e+00
28 18 -1.61762779712808924e+00
29 18 -1.72975941555767299e+00
30 18 -1.82264716375090607e+00
31 18 -1.89575433319094899e+00
32 18 -1.94917047509833563e+00
33 18 -1.98354672533856724e+00
34 18 -2.00000000000000000e+00
35 18 -2.00000000000000000e+00
36 18 -2.00000000000000000e+00
37 18 -1.98354672533856724e+00
38 18 -1.94917047509833563e+00
39 18 -1.89575433319094899e+00
40 18 -1.82264716375090630e+00
41 18 -1.72975941555767321e+00
42 18 -1.61762779712808946e+00
43 18 -1.48743686707645817e+00
44 18 -1.34099025766973212e+00
45 18 -1.18063099384590631e+00
46 18 -1.00911785704480250e+00
47 18 -8.29471280755981755e-01
48 18 -6.44806331482336348e-01
49 18 -4.58171077982848063e-01
50 18 -2.72406160549559184e-01
51 18 -9.00365409157973667e-02
52 18 -3.67394039744205938e-16
53 18 9.00365409157966590e-02
54 18 2.72406160549558463e-01
55 18 4.58171077982847286e-01
56 18 6.44806331482335682e-01
57 18 8.29471280755981089e-01
58 18 1.00911785704480161e+00
59 18 1.18063099384590564e+00
60 18 1.34099025766973168e+00
61 18 1.48743686707645795e+00
62 18 1.61762779712808924e+00
63 18 1.72975941555767299e+00
64 18 1.82264716375090607e+00
65 18 1.89575433319094899e+00
66 18 1.94917047509833563e+00
67 18 1.98354672533856724e+00
68 18 2.00000000000000000e+00
69 18 2.00000000000000000e+00
1 19 1.95498172954210170e+00
2 19 1.95498172954210170e+00
3 19 1.93889880386498215e+00
4 19 1.90529633329007186e+00
5 19 1.85308254254428717e+00
6 19 1.78162095226737627e+00
7 19 1.69082402695933731e+00
8 19 1.58121639429242600e+00
9 19 1.45395594949090978e+00
10 19 1.31080572661914085e+00
11 19 1.15405601114993961e+00
12 19 9.86403486738633206e-01
13 19 8.10800599528915256e-01
14 19 6.30292298570517384e-01
15 19 4.47858043230538405e-01
16 19 2.66274533444549988e-01
17 19 8.80098962407766111e-02
18 19 1.19708105873764548e-16
19 19 -8.80098962407763613e-02
20 19 -2.66274533444549710e-01
21 19 -4.47858043230538017e-01
22 19 -6.30292298570517051e-01
23 19 -8.10800599528914812e-01
24 19 -9.86403486738632651e-01
25 19 -1.15405601114993961e+00
26 19 -1.31080572661914041e+00
27 19 -1.45395594949090956e+00
28 19 -1.58121639429242555e+00
29 19 -1.69082402695933731e+00
30 19 -1.78162095226737627e+00
31 19 -1.85308254254428717e+00
32 19 -1.90529633329007186e+00
33 19 -1.93889880386498192e+00
34 19 -1.95498172954210170e+00
35 19 -1.95498172954210170e+00
36 19 -1.95498172954210170e+00
37 19 -1.93889880386498215e+00
38 19 -1.90529633329007186e+00
39 19 -1.85308254254428717e+00
40 19 -1.78162095226737627e+00
41 19 -1.69082402695933731e+00
42 19 -1.58121639429242600e+00
43 19 -1.45395594949090978e+00
44 19 -1.31080572661914085e+00
45 19 -1.15405601114993983e+00
46 19 -9.86403486738633539e-01
47 19 -8.10800599528915811e-01
48 19 -6.30292298570517606e-01
49 19 -4.47858043230538627e-01
50 19 -2.66274533444550265e-01
51 19 -8.80098962407768748e-02
52 19 -3.59124317621293643e-16
53 19 8.80098962407761809e-02
54 19 2.66274533444549599e-01
55 19 4.47858043230537961e-01
56 19 6.30292298570517051e-01
57 19 8.10800599528914812e-01
58 19 9.86403486738632651e-01
59 19 1.15405601114993961e+00
60 19 1.31080572661914041e+00
61 19 1.45395594949090956e+00
62 19 1.58121639429242555e+00
63 19 1.69082402695933731e+00
64 19 1.78162095226737627e+00
65 19 1.85308254254428717e+00
66 19 1.90529633329007186e+00
67 19 1.93889880386498192e+00
68 19 1.95498172954210170e+00
69 19 1.95498172954210170e+00
1 20 1.86379691972522044e+00
2 20 1.86379691972522066e+00
3 20 1.84846413840853518e+00
4 20 1.81642896375381113e+00
5 20 1.76665054337851490e+00
6 20 1.69852208477242428e+00
7 20 1.61196013529104487e+00
8 20 1.50746485277461351e+00
9 20 1.38614012557141786e+00
10 20 1.24966675581318842e+00
11 20 1.10022820483106276e+00
12 20 9.40395376799908811e-01
13 20 7.72983009036765867e-01
14 20 6.00894027218048632e-01
15 20 4.26968921925807765e-01
16 20 2.53854881473220939e-01
17 20 8.39049138107882120e-02
18 20 1.14124646600109358e-16
19 20 -8.39049138107879899e-02
20 20 -2.53854881473220662e-01
21 20 -4.26968921925807376e-01
22 20 -6.00894027218048410e-01
23 20 -7.72983009036765534e-01
24 20 -9.40395376799908478e-01
25 20 -1.10022820483106232e+00
26 20 -1.24966675581318776e+00
27 20 -1.38614012557141719e+00
28 20 -1.50746485277461284e+00
29 20 -1.61196013529104443e+00
30 20 -1.69852208477242450e+00
31 20 -1.76665054337851513e+00
32 20 -1.81642896375381113e+00
33 20 -1.84846413840853496e+00
34 20 -1.86379691972522066e+00
35 20 -1.86379691972522044e+00
36 20 -1.86379691972522066e+00
37 20 -1.84846413840853518e+00
38 20 -1.81642896375381113e+00
39 20 -1.76665054337851490e+00
40 20 -1.69852208477242428e+00
41 20 -1.61196013529104487e+00
42 20 -1.50746485277461351e+00
43 20 -1.38614012557141786e+00
44 20 -1.24966675581318842e+00
45 20 -1.10022820483106276e+00
46 20 -9.40395376799909144e-01
47 20 -7.72983009036766311e-01
48 20 -6.00894027218048854e-01
49 20 -4.26968921925807932e-01
50 20 -2.53854881473221217e-01
51 20 -8.39049138107884757e-02
52 20 -3.42373939800328025e-16
53 20 8.39049138107877818e-02
54 20 2.53854881473220495e-01
55 20 4.26968921925807321e-01
56 20 6.00894027218048410e-01
57 20 7.72983009036765534e-01
58 20 9.40395376799908478e-01
59 20 1.10022820483106232e+00
60 20 1.24966675581318776e+00
61 20 1.38614012557141719e+00
62 20 1.50746485277461284e+00
63 20 1.61196013529104443e+00
64 20 1.69852208477242450e+00
65 20 1.76665054337851513e+00
66 20 1.81642896375381113e+00
67 20 1.84846413840853496e+00
68 20 1.86379691972522066e+00
69 20 1.86379691972522044e+00
1 21 1.77091446100857630e+00
2 21 1.77091446100857608e+00
3 21 1.75634578999413771e+00
4 21 1.72590709066129944e+00
5 21 1.67860938158376083e+00
6 21 1.61387610980137297e+00
7 21 1.53162798153841351e+00
8 21 1.43234022923179016e+00
9 21 1.31706172887149586e+00
10 21 1.18738951968947282e+00
11 21 1.04539825005832099e+00
12 21 8.93530702951312539e-01
13 21 7.34461343041036163e-01
14 21 5.70948428485979154e-01
15 21 4.05690893807856612e-01
16 21 2.41204004492518914e-01
17 21 7.97235061634877229e-02
18 21 1.08437236311895627e-16
19 21 -7.97235061634875009e-02
20 21 -2.41204004492518692e-01
21 21 -4.05690893807856223e-01
22 21 -5.70948428485978932e-01
23 21 -7.34461343041035830e-01
24 21 -8.93530702951312428e-01
25 21 -1.04539825005832077e+00
26 21 -1.18738951968947237e+00
27 21 -1.31706172887149520e+00
28 21 -1.43234022923179016e+00
29 21 -1.53162798153841329e+00
30 21 -1.61387610980137297e+00
31 21 -1.67860938158376061e+00
32 21 -1.72590709066129944e+00
33 21 -1.75634578999413771e+00
34 21 -1.77091446100857608e+00
35 21 -1.77091446100857630e+00
36 21 -1.77091446100857608e+00
37 21 -1.75634578999413771e+00
38 21 -1.72590709066129944e+00
39 21 -1.67860938158376083e+00
40 21 -1.61387610980137297e+00
41 21 -1.53162798153841351e+00
42 21 -1.43234022923179016e+00
43 21 -1.31706172887149586e+00
44 21 -1.18738951968947304e+00
45 21 -1.04539825005832099e+00
46 21 -8.93530702951313094e-01
47 21 -7.34461343041036496e-01
48 21 -5.70948428485979376e-01
49 21 -4.05690893807856834e-01
50 21 -2.41204004492519164e-01
51 21 -7.97235061634879727e-02
52 21 -3.25311708935686855e-16
53 21 7.97235061634873066e-02
54 21 2.41204004492518526e-01
55 21 4.05690893807856112e-01
56 21 5.70948428485978932e-01
57 21 7.34461343041035830e-01
58 21 8.93530702951312428e-01
59 21 1.04539825005832077e+00
60 21 1.18738951968947237e+00
61 21 1.31706172887149520e+00
62 21 1.43234022923179016e+00
63 21 1.53162798153841329e+00
64 21 1.61387610980137297e+00
65 21 1.67860938158376061e+00
66 21 1.72590709066129944e+00
67 21 1.75634578999413771e+00
68 21 1.77091446100857608e+00
69 21 1.77091446100857630e+00
1 22 1.67759683425883166e+00
2 22 1.67759683425883166e+00
3 22 1.66379585351622672e+00
4 22 1.63496110922787485e+00
5 22 1.59015573394679954e+00
6 22 1.52883355593967951e+00
7 22 1.45091945978448011e+00
8 22 1.35686363573558499e+00
9 22 1.24765968968367091e+00
10 22 1.12482050551933921e+00
11 22 9.90311408851875075e-01
12 22 8.46446461186208032e-01
13 22 6.95759197352426750e-01
14 22 5.40862530202408931e-01
15 22 3.84313174986490924e-01
16 22 2.28493856285271552e-01
17 22 7.55225080039785140e-02
18 22 1.02723179666740549e-16
19 22 -7.55225080039782920e-02
20 22 -2.28493856285271357e-01
21 22 -3.84313174986490591e-01
22 22 -5.40862530202408709e-01
23 22 -6.95759197352426417e-01
24 22 -8.46446461186208143e-01
25 22 -9.90311408851874853e-01
26 22 -1.12482050551933876e+00
27 22 -1.24765968968367047e+00
28 22 -1.35686363573558499e+00
29 22 -1.45091945978447989e+00
30 22 -1.52883355593967929e+00
31 22 -1.59015573394679888e+00
32 22 -1.63496110922787485e+00
33 22 -1.66379585351622650e+00
34 22 -1.67759683425883166e+00
35 22 -1.67759683425883166e+00
36 22 -1.67759683425883166e+00
37 22 -1.66379585351622672e+00
38 22 -1.63496110922787485e+00
39 22 -1.59015573394679954e+00
40 22 -1.52883355593967951e+00
41 22 -1.45091945978448011e+00
42 22 -1.35686363573558522e+00
43 22 -1.24765968968367091e+00
44 22 -1.12482050551933943e+00
45 22 -9.90311408851875075e-01
46 22 -8.46446461186208809e-01
47 22 -6.95759197352427194e-01
48 22 -5.40862530202409264e-01
49 22 -3.84313174986491091e-01
50 22 -2.28493856285271774e-01
51 22 -7.55225080039787361e-02
52 22 -3.08169539000221670e-16
53 22 7.55225080039781255e-02
54 22 2.28493856285271274e-01
55 22 3.84313174986490369e-01
56 22 5.40862530202408709e-01
57 22 6.95759197352426417e-01
58 22 8.46446461186208143e-01
59 22 9.90311408851874853e-01
60 22 1.12482050551933876e+00
61 22 1.24765968968367047e+00
62 22 1.35686363573558499e+00
63 22 1.45091945978447989e+00
64 22 1.52883355593967929e+00
65 22 1.59015573394679888e+00
66 22 1.63496110922787485e+00
67 22 1.66379585351622650e+00
68 22 1.67759683425883166e+00
69 22 1.67759683425883166e+00
1 23 1.58526435962200885e+00
2 23 1.58526435962200907e+00
3 23 1.57222296466208866e+00
4 23 1.54497524250044438e+00
5 23 1.50263588950329963e+00
6 23 1.44468879443022580e+00
7 23 1.37106297610208827e+00
8 23 1.28218384696051046e+00
9 23 1.17899032628206490e+00
10 23 1.06291203104208076e+00
11 23 9.35806118204513093e-01
12 23 7.99859286715631113e-01
13 23 6.57465629356239312e-01
14 23 5.11094248078781233e-01
15 23 3.63161140267902360e-01
16 23 2.15917888830343380e-01
17 23 7.13658596887309787e-02
18 23 9.70694461906735985e-17
19 23 -7.13658596887307844e-02
20 23 -2.15917888830343185e-01
21 23 -3.63161140267902083e-01
22 23 -5.11094248078781010e-01
23 23 -6.57465629356239201e-01
24 23 -7.99859286715631224e-01
25 23 -9.35806118204512760e-01
26 23 -1.06291203104208032e+00
27 23 -1.17899032628206424e+00
28 23 -1.28218384696051046e+00
29 23 -1.37106297610208805e+00
30 23 -1.44468879443022558e+00
31 23 -1.50263588950329918e+00
32 23 -1.54497524250044438e+00
33 23 -1.57222296466208844e+00
34 23 -1.58526435962200907e+00
35 23 -1.58526435962200885e+00
36 23 -1.58526435962200907e+00
37 23 -1.57222296466208866e+00
38 23 -1.54497524250044438e+00
39 23 -1.50263588950329963e+00
40 23 -1.44468879443022602e+00
41 23 -1.37106297610208827e+00
42 23 -1.28218384696051091e+00
43 23 -1.17899032628206490e+00
44 23 -1.06291203104208098e+00
45 23 -9.35806118204513204e-01
46 23 -7.99859286715631668e-01
47 23 -6.57465629356239867e-01
48 23 -5.11094248078781677e-01
49 23 -3.63161140267902582e-01
50 23 -2.15917888830343574e-01
51 23 -7.13658596887311869e-02
52 23 -2.91208338572020808e-16
53 23 7.13658596887306040e-02
54 23 2.15917888830343102e-01
55 23 3.63161140267901916e-01
56 23 5.11094248078781010e-01
57 23 6.57465629356239201e-01
58 23 7.99859286715631113e-01
59 23 9.35806118204512760e-01
60 23 1.06291203104208032e+00
61 23 1.17899032628206424e+00
62 23 1.28218384696051046e+00
63 23 1.37106297610208805e+00
64 23 1.44468879443022558e+00
65 23 1.50263588950329918e+00
66 23 1.54497524250044438e+00
67 23 1.57222296466208844e+00
68 23 1.58526435962200907e+00
69 23 1.58526435962200885e+00
1 24 1.49544107147759853e+00
2 24 1.49544107147759897e+00
3 24 1.48313862013309516e+00
4 24 1.45743479188677694e+00
5 24 1.41749444564268701e+00
6 24 1.36283071374263076e+00
7 24 1.29337663690001636e+00
8 24 1.20953352309458850e+00
9 24 1.11218709112805092e+00
10 24 1.00268595388532300e+00
11 24 8.82782039228292015e-01
12 24 7.54538144693128632e-01
13 24 6.20212710426810476e-01
14 24 4.82134935623742211e-01
15 24 3.42583923889358155e-01
16 24 2.03683680304665604e-01
17 24 6.73221706096281680e-02
18 24 9.15693560749264669e-17
19 24 -6.73221706096279876e-02
20 24 -2.03683680304665465e-01
21 24 -3.42583923889357878e-01
22 24 -4.82134935623742045e-01
23 24 -6.20212710426810365e-01
24 24 -7.54538144693128743e-01
25 24 -8.82782039228291571e-01
26 24 -1.00268595388532256e+00
27 24 -1.11218709112805048e+00
28 24 -1.20953352309458850e+00
29 24 -1.29337663690001614e+00
30 24 -1.36283071374263076e+00
31 24 -1.41749444564268678e+00
32 24 -1.45743479188677694e+00
33 24 -1.48313862013309472e+00
34 24 -1.49544107147759897e+00
35 24 -1.49544107147759853e+00
36 24 -1.49544107147759897e+00
37 24 -1.48313862013309516e+00
38 24 -1.45743479188677694e+00
39 24 -1.41749444564268701e+00
40 24 -1.36283071374263098e+00
41 24 -1.29337663690001636e+00
42 24 -1.20953352309458895e+00
43 24 -1.11218709112805092e+00
44 24 -1.00268595388532322e+00
45 24 -8.82782039228292126e-01
46 24 -7.54538144693129076e-01
47 24 -6.20212710426811031e-01
48 24 -4.82134935623742600e-01
49 24 -3.42583923889358433e-01
50 24 -2.03683680304665771e-01
51 24 -6.73221706096283623e-02
52 24 -2.74708068224779450e-16
53 24 6.73221706096278211e-02
54 24 2.03683680304665354e-01
55 24 3.42583923889357767e-01
56 24 4.82134935623742045e-01
57 24 6.20212710426810365e-01
58 24 7.54538144693128632e-01
59 24 8.82782039228291571e-01
60 24 1.00268595388532256e+00
61 24 1.11218709112805048e+00
62 24 1.20953352309458850e+00
63 24 1.29337663690001614e+00
64 24 1.36283071374263076e+00
65 24 1.41749444564268678e+00
66 24 1.45743479188677694e+00
67 24 1.48313862013309472e+00
68 24 1.49544107147759897e+00
69 24 1.49544107147759853e+00
1 25 1.40968450307704662e+00
2 25 1.40968450307704685e+00
3 25 1.39808753991950141e+00
4 25 1.37385770630072379e+00
5 25 1.33620775257022073e+00
6 25 1.28467873065849236e+00
7 25 1.21920752108163133e+00
8 25 1.14017241867906405e+00
9 25 1.04840835041157865e+00
10 25 9.45186592507158974e-01
11 25 8.32158607938512929e-01
12 25 7.11268902427188099e-01
13 25 5.84646405114588652e-01
14 25 4.54486746488305282e-01
15 25 3.22938334195262855e-01
16 25 1.92003371534715611e-01
17 25 6.34615582198308353e-02
18 25 8.63182807250466230e-17
19 25 -6.34615582198306688e-02
20 25 -1.92003371534715500e-01
21 25 -3.22938334195262633e-01
22 25 -4.54486746488305116e-01
23 25 -5.84646405114588430e-01
24 25 -7.11268902427188321e-01
25 25 -8.32158607938512596e-01
26 25 -9.45186592507158529e-01
27 25 -1.04840835041157820e+00
28 25 -1.14017241867906405e+00
29 25 -1.21920752108163089e+00
30 25 -1.28467873065849258e+00
31 25 -1.33620775257022051e+00
32 25 -1.37385770630072379e+00
33 25 -1.39808753991950119e+00
34 25 -1.40968450307704685e+00
35 25 -1.40968450307704662e+00
36 25 -1.40968450307704685e+00
37 25 -1.39808753991950141e+00
38 25 -1.37385770630072379e+00
39 25 -1.33620775257022095e+00
40 25 -1.28467873065849258e+00
41 25 -1.21920752108163133e+00
42 25 -1.14017241867906449e+00
43 25 -1.04840835041157865e+00
44 25 -9.45186592507159307e-01
45 25 -8.32158607938513040e-01
46 25 -7.11268902427188543e-01
47 25 -5.84646405114589207e-01
48 25 -4.54486746488305671e-01
49 25 -3.22938334195263133e-01
50 25 -1.92003371534715778e-01
51 25 -6.34615582198310296e-02
52 25 -2.58954842175139943e-16
53 25 6.34615582198305161e-02
54 25 1.92003371534715389e-01
55 25 3.22938334195262466e-01
56 25 4.54486746488305116e-01
57 25 5.84646405114588430e-01
58 25 7.11268902427188210e-01
59 25 8.32158607938512596e-01
60 25 9.45186592507158529e-01
61 25 1.04840835041157820e+00
62 25 1.14017241867906405e+00
63 25 1.21920752108163089e+00
64 25 1.28467873065849258e+00
65 25 1.33620775257022051e+00
66 25 1.37385770630072379e+00
67 25 1.39808753991950119e+00
68 25 1.40968450307704685e+00
69 25 1.40968450307704662e+00
1 26 1.32950487116513361e+00
2 26 1.32950487116513405e+00
3 26 1.31856751676063810e+00
4 26 1.29571582068724744e+00
5 26 1.26020731025488852e+00
6 26 1.21160914131107256e+00
7 26 1.14986178446384146e+00
8 26 1.07532201800695959e+00
9 26 9.88777280164378936e-01
10 26 8.91426539878448776e-01
11 26 7.84827328683332492e-01
12 26 6.70813553260392825e-01
13 26 5.51393054128329840e-01
14 26 4.28636579331943046e-01
15 26 3.04570340002588369e-01
16 26 1.81082658693015042e-01
17 26 5.98520098652055715e-02
18 26 8.14086942461597748e-17
19 26 -5.98520098652054258e-02
20 26 -1.81082658693014986e-01
21 26 -3.04570340002588147e-01
22 26 -4.28636579331942824e-01
23 26 -5.51393054128329729e-01
24 26 -6.70813553260393047e-01
25 26 -7.84827328683332270e-01
26 26 -8.91426539878448443e-01
27 26 -9.88777280164378602e-01
28 26 -1.07532201800695959e+00
29 26 -1.14986178446384102e+00
30 26 -1.21160914131107278e+00
31 26 -1.26020731025488830e+00
32 26 -1.29571582068724744e+00
33 26 -1.31856751676063766e+00
34 26 -1.32950487116513405e+00
35 26 -1.32950487116513361e+00
36 26 -1.32950487116513405e+00
37 26 -1.31856751676063810e+00
38 26 -1.29571582068724744e+00
39 26 -1.26020731025488875e+00
40 26 -1.21160914131107278e+00
41 26 -1.14986178446384146e+00
42 26 -1.07532201800696003e+00
43 26 -9.88777280164378936e-01
44 26 -8.91426539878448998e-01
45 26 -7.84827328683332714e-01
46 26 -6.70813553260393269e-01
47 26 -5.51393054128330284e-01
48 26 -4.28636579331943324e-01
49 26 -3.04570340002588535e-01
50 26 -1.81082658693015208e-01
51 26 -5.98520098652057589e-02
52 26 -2.44226082738479300e-16
53 26 5.98520098652052801e-02
54 26 1.81082658693014847e-01
55 26 3.04570340002587980e-01
56 26 4.28636579331942824e-01
57 26 5.51393054128329729e-01
58 26 6.70813553260392936e-01
59 26 7.84827328683332270e-01
60 26 8.91426539878448443e-01
61 26 9.88777280164378602e-01
62 26 1.07532201800695959e+00
63 26 1.14986178446384102e+00
64 26 1.21160914131107278e+00
65 26 1.26020731025488830e+00
66 26 1.29571582068724744e+00
67 26 1.31856751676063766e+00
68 26 1.32950487116513405e+00
69 26 1.32950487116513361e+00
1 27 1.25628156646177058e+00
2 27 1.25628156646177103e+00
3 27 1.24594659362922622e+00
4 27 1.22435346887878560e+00
5 27 1.19080061166390760e+00
6 27 1.14487901699204619e+00
7 27 1.08653243408939582e+00
8 27 1.01609799146408974e+00
9 27 9.34319758691901092e-01
10 27 8.42330670757652555e-01
11 27 7.41602477181026010e-01
12 27 6.33868081096394587e-01
13 27 5.21024739961587824e-01
14 27 4.05029154089548593e-01
15 27 2.87795939777885090e-01
16 27 1.71109419044518235e-01
17 27 5.65556233302484668e-02
18 27 7.69250599597615381e-17
19 27 -5.65556233302483280e-02
20 27 -1.71109419044518180e-01
21 27 -2.87795939777884979e-01
22 27 -4.05029154089548427e-01
23 27 -5.21024739961587824e-01
24 27 -6.33868081096394920e-01
25 27 -7.41602477181025677e-01
26 27 -8.42330670757652222e-01
27 27 -9.34319758691900870e-01
28 27 -1.01609799146408952e+00
29 27 -1.08653243408939537e+00
30 27 -1.14487901699204619e+00
31 27 -1.19080061166390738e+00
32 27 -1.22435346887878538e+00
33 27 -1.24594659362922555e+00
34 27 -1.25628156646177103e+00
35 27 -1.25628156646177058e+00
36 27 -1.25628156646177103e+00
37 27 -1.24594659362922622e+00
38 27 -1.22435346887878560e+00
39 27 -1.19080061166390783e+00
40 27 -1.14487901699204642e+00
41 27 -1.08653243408939604e+00
42 27 -1.01609799146408997e+00
43 27 -9.34319758691901092e-01
44 27 -8.42330670757652888e-01
45 27 -7.41602477181026121e-01
46 27 -6.33868081096395031e-01
47 27 -5.21024739961588157e-01
48 27 -4.05029154089548871e-01
49 27 -2.87795939777885312e-01
50 27 -1.71109419044518402e-01
51 27 -5.65556233302486264e-02
52 27 -2.30775179879284565e-16
53 27 5.65556233302481892e-02
54 27 1.71109419044518041e-01
55 27 2.87795939777884868e-01
56 27 4.05029154089548427e-01
57 27 5.21024739961587824e-01
58 27 6.33868081096394698e-01
59 27 7.41602477181025677e-01
60 27 8.42330670757652222e-01
61 27 9.34319758691900870e-01
62 27 1.01609799146408952e+00
63 27 1.08653243408939537e+00
64 27 1.14487901699204619e+00
65 27 1.19080061166390738e+00
66 27 1.22435346887878538e+00
67 27 1.24594659362922555e+00
68 27 1.25628156646177103e+00
69 27 1.25628156646177058e+00
1 28 1.19118610143595505e+00
2 28 1.19118610143595527e+00
3 28 1.18138664538605220e+00
4 28 1.16091238963322740e+00
5 28 1.12909810671702271e+00
6 28 1.08555598464087155e+00
7 28 1.03023268732014084e+00
8 28 9.63447874617720523e-01
9 28 8.85907061412458896e-01
10 28 7.98684478548602694e-01
11 28 7.03175615396881004e-01
12 28 6.01023583011301654e-01
13 28 4.94027330588403146e-01
14 28 3.84042170089832102e-01
15 28 2.72883510086548708e-01
16 28 1.62243216196082951e-01
17 28 5.36251380801336247e-02
18 28 7.29391123156178594e-17
19 28 -5.36251380801334998e-02
20 28 -1.62243216196082923e-01
21 28 -2.72883510086548653e-01
22 28 -3.84042170089831991e-01
23 28 -4.94027330588403091e-01
24 28 -6.01023583011301987e-01
25 28 -7.03175615396880782e-01
26 28 -7.98684478548602472e-01
27 28 -8.85907061412458896e-01
28 28 -9.63447874617720190e-01
29 28 -1.03023268732014062e+00
30 28 -1.08555598464087155e+00
31 28 -1.12909810671702249e+00
32 28 -1.16091238963322740e+00
33 28 -1.18138664538605154e+00
34 28 -1.19118610143595527e+00
35 28 -1.19118610143595505e+00
36 28 -1.19118610143595527e+00
37 28 -1.18138664538605220e+00
38 28 -1.16091238963322740e+00
39 28 -1.12909810671702293e+00
40 28 -1.08555598464087177e+00
41 28 -1.03023268732014106e+00
42 28 -9.63447874617720745e-01
43 28 -8.85907061412458896e-01
44 28 -7.98684478548603027e-01
45 28 -7.03175615396881115e-01
46 28 -6.01023583011302098e-01
47 28 -4.94027330588403424e-01
48 28 -3.84042170089832435e-01
49 28 -2.72883510086548930e-01
50 28 -1.62243216196083145e-01
51 28 -5.36251380801337704e-02
52 28 -2.18817336946853529e-16
53 28 5.36251380801333610e-02
54 28 1.62243216196082785e-01
55 28 2.72883510086548542e-01
56 28 3.84042170089831991e-01
57 28 4.94027330588403091e-01
58 28 6.01023583011301765e-01
59 28 7.03175615396880782e-01
60 28 7.98684478548602472e-01
61 28 8.85907061412458896e-01
62 28 9.63447874617720190e-01
63 28 1.03023268732014062e+00
64 28 1.08555598464087155e+00
65 28 1.12909810671702249e+00
66 28 1.16091238963322740e+00
67 28 1.18138664538605154e+00
68 28 1.19118610143595527e+00
69 28 1.19118610143595505e+00
1 29 1.13512029222116317e+00
2 29 1.13512029222116340e+00
3 29 1.12578206925032331e+00
4 29 1.10627147964124317e+00
5 29 1.07595460633562334e+00
6 29 1.03446189056650151e+00
7 29 9.81742506630067457e-01
8 29 9.18101068890556871e-01
9 29 8.44209885608180666e-01
10 29 7.61092626575899822e-01
11 29 6.70079099369863651e-01
12 29 5.72735078387144880e-01
13 29 4.70774841300396152e-01
14 29 3.65966375709142866e-01
15 29 2.60039643963587752e-01
16 29 1.54606880282930209e-01
17 29 5.11011523174611723e-02
18 29 6.95060716257927995e-17
19 29 -5.11011523174610682e-02
20 29 -1.54606880282930154e-01
21 29 -2.60039643963587697e-01
22 29 -3.65966375709142755e-01
23 29 -4.70774841300396096e-01
24 29 -5.72735078387145102e-01
25 29 -6.70079099369863540e-01
26 29 -7.61092626575899600e-01
27 29 -8.44209885608180555e-01
28 29 -9.18101068890556538e-01
29 29 -9.81742506630067457e-01
30 29 -1.03446189056650151e+00
31 29 -1.07595460633562312e+00
32 29 -1.10627147964124317e+00
33 29 -1.12578206925032309e+00
34 29 -1.13512029222116340e+00
35 29 -1.13512029222116317e+00
36 29 -1.13512029222116340e+00
37 29 -1.12578206925032331e+00
38 29 -1.10627147964124317e+00
39 29 -1.07595460633562356e+00
40 29 -1.03446189056650173e+00
41 29 -9.81742506630067679e-01
42 29 -9.18101068890556982e-01
43 29 -8.44209885608180666e-01
44 29 -7.61092626575900044e-01
45 29 -6.70079099369863762e-01
46 29 -5.72735078387145324e-01
47 29 -4.70774841300396429e-01
48 29 -3.65966375709143088e-01
49 29 -2.60039643963587974e-01
50 29 -1.54606880282930376e-01
51 29 -5.11011523174613180e-02
52 29 -2.08518214877378361e-16
53 29 5.11011523174609295e-02
54 29 1.54606880282930043e-01
55 29 2.60039643963587641e-01
56 29 3.65966375709142755e-01
57 29 4.70774841300396096e-01
58 29 5.72735078387144991e-01
59 29 6.70079099369863540e-01
60 29 7.61092626575899600e-01
61 29 8.44209885608180555e-01
62 29 9.18101068890556538e-01
63 29 9.81742506630067457e-01
64 29 1.03446189056650151e+00
65 29 1.07595460633562312e+00
66 29 1.10627147964124317e+00
67 29 1.12578206925032309e+00
68 29 1.13512029222116340e+00
69 29 1.13512029222116317e+00
1 30 1.08867641812454652e+00
2 30 1.08867641812454696e+00
3 30 1.07972027206213306e+00
4 30 1.06100796557208854e+00
5 30 1.03193151855120546e+00
6 30 9.92136492868600395e-01
7 30 9.41574142373268752e-01
8 30 8.80536618018054940e-01
9 30 8.09668720317598289e-01
10 30 7.29952235229898605e-01
11 30 6.42662560753492484e-01
12 30 5.49301407036526856e-01
13 30 4.51512911435301090e-01
14 30 3.50992723671109452e-01
15 30 2.49400024033314516e-01
16 30 1.48281081571077000e-01
17 30 4.90103294322671024e-02
18 30 6.66622045381715937e-17
19 30 -4.90103294322669983e-02
20 30 -1.48281081571076917e-01
21 30 -2.49400024033314460e-01
22 30 -3.50992723671109397e-01
23 30 -4.51512911435301145e-01
24 30 -5.49301407036526967e-01
25 30 -6.42662560753492373e-01
26 30 -7.29952235229898494e-01
27 30 -8.09668720317598067e-01
28 30 -8.80536618018054607e-01
29 30 -9.41574142373268752e-01
30 30 -9.92136492868600395e-01
31 30 -1.03193151855120524e+00
32 30 -1.06100796557208854e+00
33 30 -1.07972027206213284e+00
34 30 -1.08867641812454696e+00
35 30 -1.08867641812454652e+00
36 30 -1.08867641812454696e+00
37 30 -1.07972027206213306e+00
38 30 -1.06100796557208854e+00
39 30 -1.03193151855120591e+00
40 30 -9.92136492868600728e-01
41 30 -9.41574142373268974e-01
42 30 -8.80536618018055051e-01
43 30 -8.09668720317598289e-01
44 30 -7.29952235229898827e-01
45 30 -6.42662560753492595e-01
46 30 -5.49301407036527189e-01
47 30 -4.51512911435301423e-01
48 30 -3.50992723671109674e-01
49 30 -2.49400024033314710e-01
50 30 -1.48281081571077167e-01
51 30 -4.90103294322672411e-02
52 30 -1.99986613614514757e-16
53 30 4.90103294322668664e-02
54 30 1.48281081571076834e-01
55 30 2.49400024033314460e-01
56 30 3.50992723671109397e-01
57 30 4.51512911435301090e-01
58 30 5.49301407036526856e-01
59 30 6.42662560753492373e-01
60 30 7.29952235229898494e-01
61 30 8.09668720317598067e-01
62 30 8.80536618018054607e-01
63 30 9.41574142373268752e-01
64 30 9.92136492868600395e-01
65 30 1.03193151855120524e+00
66 30 1.06100796557208854e+00
67 30 1.07972027206213284e+00
68 30 1.08867641812454696e+00
69 30 1.08867641812454652e+00
1 31 1.05212283340452517e+00
2 31 1.05212283340452561e+00
3 31 1.04346740042674102e+00
4 31 1.02538338152445285e+00
5 31 9.97283210237884132e-01
6 31 9.58824349111162655e-01
7 31 9.09959688702347891e-01
8 31 8.50971570654163401e-01
9 31 7.82483145549417003e-01
10 31 7.05443234733671654e-01
11 31 6.21084413225177823e-01
12 31 5.30857969496540183e-01
13 31 4.36352837068331945e-01
14 31 3.39207732238186566e-01
15 31 2.41026126375659788e-01
16 31 1.43302370737124984e-01
17 31 4.73647502691354749e-02
18 31 6.44239430119348094e-17
19 31 -4.73647502691353708e-02
20 31 -1.43302370737124929e-01
21 31 -2.41026126375659705e-01
22 31 -3.39207732238186621e-01
23 31 -4.36352837068332000e-01
24 31 -5.30857969496540183e-01
25 31 -6.21084413225177712e-01
26 31 -7.05443234733671654e-01
27 31 -7.82483145549416781e-01
28 31 -8.50971570654163179e-01
29 31 -9.09959688702347780e-01
30 31 -9.58824349111162655e-01
31 31 -9.97283210237883910e-01
32 31 -1.02538338152445307e+00
33 31 -1.04346740042674080e+00
34 31 -1.05212283340452561e+00
35 31 -1.05212283340452517e+00
36 31 -1.05212283340452561e+00
37 31 -1.04346740042674102e+00
38 31 -1.02538338152445285e+00
39 31 -9.97283210237884354e-01
40 31 -9.58824349111162988e-01
41 31 -9.09959688702347891e-01
42 31 -8.50971570654163401e-01
43 31 -7.82483145549417114e-01
44 31 -7.05443234733671765e-01
45 31 -6.21084413225177934e-01
46 31 -5.30857969496540405e-01
47 31 -4.36352837068332222e-01
48 31 -3.39207732238186788e-01
49 31 -2.41026126375659955e-01
50 31 -1.43302370737125151e-01
51 31 -4.73647502691356137e-02
52 31 -1.93271829035804404e-16
53 31 4.73647502691352529e-02
54 31 1.43302370737124846e-01
55 31 2.41026126375659705e-01
56 31 3.39207732238186621e-01
57 31 4.36352837068331945e-01
58 31 5.30857969496540072e-01
59 31 6.21084413225177712e-01
60 31 7.05443234733671654e-01
61 31 7.82483145549416781e-01
62 31 8.50971570654163179e-01
63 31 9.09959688702347780e-01
64 31 9.58824349111162655e-01
65 31 9.97283210237883910e-01
66 31 1.02538338152445307e+00
67 31 1.04346740042674080e+00
68 31 1.05212283340452561e+00
69 31 1.05212283340452517e+00
1 32 1.02541476245083207e+00
2 32 1.02541476245083230e+00
3 32 1.01697904708658671e+00
4 32 9.99354089849567639e-01
5 32 9.71967239617066325e-01
6 32 9.34484654224659206e-01
7 32 8.86860420100581082e-01
8 32 8.29369711662981568e-01
9 32 7.62619860856908249e-01
10 32 6.87535603258644268e-01
11 32 6.05318225048294800e-01
12 32 5.17382173833244363e-01
13 32 4.25276048158091113e-01
14 32 3.30596965611876126e-01
15 32 2.34907693545811758e-01
16 32 1.39664649205034602e-01
17 32 4.61623991075333640e-02
18 32 6.27885453316927603e-17
19 32 -4.61623991075332599e-02
20 32 -1.39664649205034519e-01
21 32 -2.34907693545811702e-01
22 32 -3.30596965611876126e-01
23 32 -4.25276048158091169e-01
24 32 -5.17382173833244363e-01
25 32 -6.05318225048294800e-01
26 32 -6.87535603258644268e-01
27 32 -7.62619860856908138e-01
28 32 -8.29369711662981457e-01
29 32 -8.86860420100580971e-01
30 32 -9.34484654224659206e-01
31 32 -9.71967239617066214e-01
32 32 -9.99354089849567750e-01
33 32 -1.01697904708658649e+00
34 32 -1.02541476245083230e+00
35 32 -1.02541476245083207e+00
36 32 -1.02541476245083230e+00
37 32 -1.01697904708658671e+00
38 32 -9.99354089849567639e-01
39 32 -9.71967239617066547e-01
40 32 -9.34484654224659317e-01
41 32 -8.86860420100581082e-01
42 32 -8.29369711662981568e-01
43 32 -7.62619860856908249e-01
44 32 -6.87535603258644379e-01
45 32 -6.05318225048295022e-01
46 32 -5.17382173833244585e-01
47 32 -4.25276048158091391e-01
48 32 -3.30596965611876292e-01
49 32 -2.34907693545811924e-01
50 32 -1.39664649205034769e-01
51 32 -4.61623991075334958e-02
52 32 -1.88365635995078256e-16
53 32 4.61623991075331488e-02
54 32 1.39664649205034463e-01
55 32 2.34907693545811674e-01
56 32 3.30596965611876126e-01
57 32 4.25276048158091169e-01
58 32 5.17382173833244252e-01
59 32 6.05318225048294800e-01
60 32 6.87535603258644268e-01
61 32 7.62619860856908138e-01
62 32 8.29369711662981457e-01
63 32 8.86860420100580971e-01
64 32 9.34484654224659206e-01
65 32 9.71967239617066214e-01
66 32 9.99354089849567750e-01
67 32 1.01697904708658649e+00
68 32 1.02541476245083230e+00
69 32 1.02541476245083207e+00
1 33 1.00822663733071649e+00
2 33 1.00822663733071649e+00
3 33 9.99932322438228938e-01
4 33 9.82602796846354876e-01
5 33 9.55675008279122662e-01
6 33 9.18820710474471891e-01
7 33 8.71994759469429059e-01
8 33 8.15467717175574092e-01
9 33 7.49836735367116591e-01
10 33 6.76011049091802541e-01
11 33 5.95171808426839810e-01
12 33 5.08709751839329649e-01
13 33 4.18147520079502899e-01
14 33 3.25055459659995438e-01
15 33 2.30970142638418002e-01
16 33 1.37323573619526546e-01
17 33 4.53886194422117931e-02
18 33 6.17360762111080700e-17
19 33 -4.53886194422116890e-02
20 33 -1.37323573619526434e-01
21 33 -2.30970142638417947e-01
22 33 -3.25055459659995494e-01
23 33 -4.18147520079502955e-01
24 33 -5.08709751839329649e-01
25 33 -5.95171808426839699e-01
26 33 -6.76011049091802430e-01
27 33 -7.49836735367116591e-01
28 33 -8.15467717175574092e-01
29 33 -8.71994759469429170e-01
30 33 -9.18820710474471780e-01
31 33 -9.55675008279122551e-01
32 33 -9.82602796846354876e-01
33 33 -9.99932322438228938e-01
34 33 -1.00822663733071649e+00
35 33 -1.00822663733071649e+00
36 33 -1.00822663733071649e+00
37 33 -9.99932322438228938e-01
38 33 -9.82602796846354876e-01
39 33 -9.55675008279122662e-01
40 33 -9.18820710474471891e-01
41 33 -8.71994759469429059e-01
42 33 -8.15467717175574092e-01
43 33 -7.49836735367116591e-01
44 33 -6.76011049091802541e-01
45 33 -5.95171808426839921e-01
46 33 -5.08709751839329982e-01
47 33 -4.18147520079503121e-01
48 33 -3.25055459659995660e-01
49 33 -2.30970142638418169e-01
50 33 -1.37323573619526684e-01
51 33 -4.53886194422119180e-02
52 33 -1.85208228633324148e-16
53 33 4.53886194422115849e-02
54 33 1.37323573619526379e-01
55 33 2.30970142638417919e-01
56 33 3.25055459659995494e-01
57 33 4.18147520079502955e-01
58 33 5.08709751839329649e-01
59 33 5.95171808426839699e-01
60 33 6.76011049091802430e-01
61 33 7.49836735367116591e-01
62 33 8.15467717175574092e-01
63 33 8.71994759469429170e-01
64 33 9.18820710474471780e-01
65 33 9.55675008279122551e-01
66 33 9.82602796846354876e-01
67 33 9.99932322438228938e-01
68 33 1.00822663733071649e+00
69 33 1.00822663733071649e+00
1 34 1.00000000000000000e+00
2 34 1.00000000000000000e+00
3 34 9.91773362669283620e-01
4 34 9.74585237549167704e-01
5 34 9.47877166595474496e-01
6 34 9.11323581875453148e-01
7 34 8.64879707778836604e-01
8 34 8.08813898564044731e-01
9 34 7.43718433538229085e-01
10 34 6.70495128834866061e-01
11 34 5.90315496922953042e-01
12 34 5.04558928522401029e-01
13 34 4.14735640377990711e-01
14 34 3.22403165741168007e-01
15 34 2.29085538991423837e-01
16 34 1.36203080274779481e-01
17 34 4.50182704578985585e-02
18 34 6.12323399573676727e-17
19 34 -4.50182704578984474e-02
20 34 -1.36203080274779370e-01
21 34 -2.29085538991423809e-01
22 34 -3.22403165741168007e-01
23 34 -4.14735640377990766e-01
24 34 -5.04558928522400918e-01
25 34 -5.90315496922953042e-01
26 34 -6.70495128834865950e-01
27 34 -7.43718433538229085e-01
28 34 -8.08813898564044842e-01
29 34 -8.64879707778836715e-01
30 34 -9.11323581875453037e-01
31 34 -9.47877166595474496e-01
32 34 -9.74585237549167704e-01
33 34 -9.91773362669283620e-01
34 34 -1.00000000000000000e+00
35 34 -1.00000000000000000e+00
36 34 -1.00000000000000000e+00
37 34 -9.91773362669283620e-01
38 34 -9.74585237549167704e-01
39 34 -9.47877166595474496e-01
40 34 -9.11323581875453259e-01
41 34 -8.64879707778836604e-01
42 34 -8.08813898564044842e-01
43 34 -7.43718433538229085e-01
44 34 -6.70495128834866061e-01
45 34 -5.90315496922953153e-01
46 34 -5.04558928522401251e-01
47 34 -4.14735640377990933e-01
48 34 -3.22403165741168174e-01
49 34 -2.29085538991424031e-01
50 34 -1.36203080274779592e-01
51 34 -4.50182704578986764e-02
52 34 -1.83697019872102944e-16
53 34 4.50182704578983503e-02
54 34 1.36203080274779315e-01
55 34 2.29085538991423782e-01
56 34 3.22403165741168007e-01
57 34 4.14735640377990766e-01
58 34 5.04558928522400918e-01
59 34 5.90315496922953042e-01
60 34 6.70495128834865950e-01
61 34 7.43718433538229085e-01
62 34 8.08813898564044842e-01
63 34 8.64879707778836715e-01
64 34 9.11323581875453037e-01
65 34 9.47877166595474496e-01
66 34 9.74585237549167704e-01
67 34 9.91773362669283620e-01
68 34 1.00000000000000000e+00
69 34 1.00000000000000000e+00
1 35 1.00000000000000000e+00
2 35 1.00000000000000000e+00
3 35 9.91773362669283620e-01
4 35 9.74585237549167815e-01
5 35 9.47877166595474496e-01
6 35 9.11323581875453148e-01
7 35 8.64879707778836604e-01
8 35 8.08813898564044731e-01
9 35 7.43718433538229085e-01
10 35 6.70495128834866061e-01
11 35 5.90315496922953042e-01
12 35 5.04558928522401029e-01
13 35 4.14735640377990711e-01
14 35 3.22403165741168007e-01
15 35 2.29085538991423865e-01
16 35 1.36203080274779453e-01
17 35 4.50182704578985585e-02
18 35 6.12323399573676604e-17
19 35 -4.50182704578984474e-02
20 35 -1.36203080274779370e-01
21 35 -2.29085538991423809e-01
22 35 -3.22403165741168007e-01
23 35 -4.14735640377990711e-01
24 35 -5.04558928522400918e-01
25 35 -5.90315496922952931e-01
26 35 -6.70495128834865950e-01
27 35 -7.43718433538229085e-01
28 35 -8.08813898564044842e-01
29 35 -8.64879707778836715e-01
30 35 -9.11323581875453037e-01
31 35 -9.47877166595474496e-01
32 35 -9.74585237549167815e-01
33 35 -9.91773362669283620e-01
34 35 -1.00000000000000000e+00
35 35 -1.00000000000000000e+00
36 35 -1.00000000000000000e+00
37 35 -9.91773362669283620e-01
38 35 -9.74585237549167815e-01
39 35 -9.47877166595474496e-01
40 35 -9.11323581875453148e-01
41 35 -8.64879707778836604e-01
42 35 -8.08813898564044731e-01
43 35 -7.43718433538229085e-01
44 35 -6.70495128834866061e-01
45 35 -5.90315496922953153e-01
46 35 -5.04558928522401251e-01
47 35 -4.14735640377990877e-01
48 35 -3.22403165741168174e-01
49 35 -2.29085538991424031e-01
50 35 -1.36203080274779592e-01
51 35 -4.50182704578986834e-02
52 35 -1.83697019872102969e-16
53 35 4.50182704578983503e-02
54 35 1.36203080274779315e-01
55 35 2.29085538991423782e-01
56 35 3.22403165741168007e-01
57 35 4.14735640377990711e-01
58 35 5.04558928522400918e-01
59 35 5.90315496922952931e-01
60 35 6.70495128834865950e-01
61 35 7.43718433538229085e-01
62 35 8.08813898564044842e-01
63 35 8.64879707778836715e-01
64 35 9.11323581875453037e-01
65 35 9.47877166595474496e-01
66 35 9.74585237549167815e-01
67 35 9.91773362669283620e-01
68 35 1.00000000000000000e+00
69 35 1.00000000000000000e+00
1 36 1.00000000000000000e+00
2 36 1.00000000000000000e+00
3 36 9.91773362669283620e-01
4 36 9.74585237549167926e-01
5 36 9.47877166595474496e-01
6 36 9.11323581875453037e-01
7 36 8.64879707778836715e-01
8 36 8.08813898564044842e-01
9 36 7.43718433538229085e-01
10 36 6.70495128834866061e-01
11 36 5.90315496922953042e-01
12 36 5.04558928522401029e-01
13 36 4.14735640377990766e-01
14 36 3.22403165741168007e-01
15 36 2.29085538991423837e-01
16 36 1.36203080274779426e-01
17 36 4.50182704578985585e-02
18 36 6.12323399573676604e-17
19 36 -4.50182704578984544e-02
20 36 -1.36203080274779370e-01
21 36 -2.29085538991423809e-01
22 36 -3.22403165741168007e-01
23 36 -4.14735640377990655e-01
24 36 -5.04558928522401029e-01
25 36 -5.90315496922953042e-01
26 36 -6.70495128834865950e-01
27 36 -7.43718433538229085e-01
28 36 -8.08813898564044731e-01
29 36 -8.64879707778836604e-01
30 36 -9.11323581875453148e-01
31 36 -9.47877166595474385e-01
32 36 -9.74585237549167926e-01
33 36 -9.91773362669283509e-01
34 36 -1.00000000000000000e+00
35 36 -1.00000000000000000e+00
36 36 -1.00000000000000000e+00
37 36 -9.91773362669283620e-01
38 36 -9.74585237549167926e-01
39 36 -9.47877166595474496e-01
40 36 -9.11323581875453037e-01
41 36 -8.64879707778836715e-01
42 36 -8.08813898564044842e-01
43 36 -7.43718433538229085e-01
44 36 -6.70495128834866061e-01
45 36 -5.90315496922953153e-01
46 36 -5.04558928522401362e-01
47 36 -4.14735640377990933e-01
48 36 -3.22403165741168174e-01
49 36 -2.29085538991424031e-01
50 36 -1.36203080274779564e-01
51 36 -4.50182704578986903e-02
52 36 -1.83697019872102969e-16
53 36 4.50182704578983572e-02
54 36 1.36203080274779342e-01
55 36 2.29085538991423754e-01
56 36 3.22403165741168007e-01
57 36 4.14735640377990655e-01
58 36 5.04558928522401029e-01
59 36 5.90315496922953042e-01
60 36 6.70495128834865950e-01
61 36 7.43718433538229085e-01
62 36 8.08813898564044731e-01
63 36 8.64879707778836604e-01
64 36 9.11323581875453148e-01
65 36 9.47877166595474385e-01
66 36 9.74585237549167926e-01
67 36 9.91773362669283509e-01
68 36 1.00000000000000000e+00
69 36 1.00000000000000000e+00
1 37 1.00822663733071627e+00
2 37 1.00822663733071627e+00
3 37 9.99932322438228827e-01
4 37 9.82602796846354987e-01
5 37 9.55675008279122551e-01
6 37 9.18820710474471780e-01
7 37 8.71994759469429281e-01
8 37 8.15467717175573981e-01
9 37 7.49836735367116591e-01
10 37 6.76011049091802541e-01
11 37 5.95171808426839921e-01
12 37 5.08709751839329649e-01
13 37 4.18147520079502899e-01
14 37 3.25055459659995494e-01
15 37 2.30970142638418002e-01
16 37 1.37323573619526490e-01
17 37 4.53886194422117931e-02
18 37 6.17360762111080454e-17
19 37 -4.53886194422116751e-02
20 37 -1.37323573619526407e-01
21 37 -2.30970142638417947e-01
22 37 -3.25055459659995438e-01
23 37 -4.18147520079502788e-01
24 37 -5.08709751839329760e-01
25 37 -5.95171808426839699e-01
26 37 -6.76011049091802319e-01
27 37 -7.49836735367116480e-01
28 37 -8.15467717175573981e-01
29 37 -8.71994759469428948e-01
30 37 -9.18820710474471891e-01
31 37 -9.55675008279122440e-01
32 37 -9.82602796846354876e-01
33 37 -9.99932322438228827e-01
34 37 -1.00822663733071627e+00
35 37 -1.00822663733071627e+00
36 37 -1.00822663733071627e+00
37 37 -9.99932322438228827e-01
38 37 -9.82602796846354987e-01
39 37 -9.55675008279122551e-01
40 37 -9.18820710474471780e-01
41 37 -8.71994759469429281e-01
42 37 -8.15467717175573981e-01
43 37 -7.49836735367116591e-01
44 37 -6.76011049091802541e-01
45 37 -5.95171808426839921e-01
46 37 -5.08709751839329871e-01
47 37 -4.18147520079503010e-01
48 37 -3.25055459659995605e-01
49 37 -2.30970142638418169e-01
50 37 -1.37323573619526684e-01
51 37 -4.53886194422119180e-02
52 37 -1.85208228633324148e-16
53 37 4.53886194422115849e-02
54 37 1.37323573619526407e-01
55 37 2.30970142638417891e-01
56 37 3.25055459659995438e-01
57 37 4.18147520079502788e-01
58 37 5.08709751839329760e-01
59 37 5.95171808426839699e-01
60 37 6.76011049091802319e-01
61 37 7.49836735367116480e-01
62 37 8.15467717175573981e-01
63 37 8.71994759469428948e-01
64 37 9.18820710474471891e-01
65 37 9.55675008279122440e-01
66 37 9.82602796846354876e-01
67 37 9.99932322438228827e-01
68 37 1.00822663733071627e+00
69 37 1.00822663733071627e+00
1 38 1.02541476245083207e+00
2 38 1.02541476245083207e+00
3 38 1.01697904708658671e+00
4 38 9.99354089849567750e-01
5 38 9.71967239617066547e-01
6 38 9.34484654224659428e-01
7 38 8.86860420100581082e-01
8 38 8.29369711662981457e-01
9 38 7.62619860856908249e-01
10 38 6.87535603258644379e-01
11 38 6.05318225048294911e-01
12 38 5.17382173833244363e-01
13 38 4.25276048158091113e-01
14 38 3.30596965611876070e-01
15 38 2.34907693545811758e-01
16 38 1.39664649205034574e-01
17 38 4.61623991075333640e-02
18 38 6.27885453316927603e-17
19 38 -4.61623991075332460e-02
20 38 -1.39664649205034491e-01
21 38 -2.34907693545811647e-01
22 38 -3.30596965611876070e-01
23 38 -4.25276048158091113e-01
24 38 -5.17382173833244363e-01
25 38 -6.05318225048294578e-01
26 38 -6.87535603258644046e-01
27 38 -7.62619860856908027e-01
28 38 -8.29369711662981457e-01
29 38 -8.86860420100580860e-01
30 38 -9.34484654224658984e-01
31 38 -9.71967239617066325e-01
32 38 -9.99354089849567750e-01
33 38 -1.01697904708658649e+00
34 38 -1.02541476245083207e+00
35 38 -1.02541476245083207e+00
36 38 -1.02541476245083207e+00
37 38 -1.01697904708658671e+00
38 38 -9.99354089849567750e-01
39 38 -9.71967239617066547e-01
40 38 -9.34484654224659428e-01
41 38 -8.86860420100581082e-01
42 38 -8.29369711662981457e-01
43 38 -7.62619860856908249e-01
44 38 -6.87535603258644490e-01
45 38 -6.05318225048294911e-01
46 38 -5.17382173833244474e-01
47 38 -4.25276048158091224e-01
48 38 -3.30596965611876237e-01
49 38 -2.34907693545811952e-01
50 38 -1.39664649205034769e-01
51 38 -4.61623991075334889e-02
52 38 -1.88365635995078256e-16
53 38 4.61623991075331488e-02
54 38 1.39664649205034463e-01
55 38 2.34907693545811647e-01
56 38 3.30596965611876070e-01
57 38 4.25276048158091113e-01
58 38 5.17382173833244363e-01
59 38 6.05318225048294578e-01
60 38 6.87535603258644046e-01
61 38 7.62619860856908027e-01
62 38 8.29369711662981457e-01
63 38 8.86860420100580860e-01
64 38 9.34484654224658984e-01
65 38 9.71967239617066325e-01
66 38 9.99354089849567750e-01
67 38 1.01697904708658649e+00
68 38 1.02541476245083207e+00
69 38 1.02541476245083207e+00
1 39 1.05212283340452561e+00
2 39 1.05212283340452539e+00
3 39 1.04346740042674102e+00
4 39 1.02538338152445285e+00
5 39 9.97283210237884354e-01
6 39 9.58824349111163099e-01
7 39 9.09959688702347780e-01
8 39 8.50971570654163179e-01
9 39 7.82483145549417114e-01
10 39 7.05443234733671765e-01
11 39 6.21084413225177823e-01
12 39 5.30857969496540183e-01
13 39 4.36352837068332000e-01
14 39 3.39207732238186566e-01
15 39 2.41026126375659733e-01
16 39 1.43302370737124957e-01
17 39 4.73647502691354749e-02
18 39 6.44239430119347971e-17
19 39 -4.73647502691353570e-02
20 39 -1.43302370737124901e-01
21 39 -2.41026126375659622e-01
22 39 -3.39207732238186566e-01
23 39 -4.36352837068332000e-01
24 39 -5.30857969496540183e-01
25 39 -6.21084413225177601e-01
26 39 -7.05443234733671432e-01
27 39 -7.82483145549416781e-01
28 39 -8.50971570654163179e-01
29 39 -9.09959688702347558e-01
30 39 -9.58824349111162544e-01
31 39 -9.97283210237884243e-01
32 39 -1.02538338152445285e+00
33 39 -1.04346740042674058e+00
34 39 -1.05212283340452539e+00
35 39 -1.05212283340452561e+00
36 39 -1.05212283340452539e+00
37 39 -1.04346740042674102e+00
38 39 -1.02538338152445285e+00
39 39 -9.97283210237884354e-01
40 39 -9.58824349111163099e-01
41 39 -9.09959688702347780e-01
42 39 -8.50971570654163179e-01
43 39 -7.82483145549417114e-01
44 39 -7.05443234733671876e-01
45 39 -6.21084413225177823e-01
46 39 -5.30857969496540294e-01
47 39 -4.36352837068332056e-01
48 39 -3.39207732238186732e-01
49 39 -2.41026126375659955e-01
50 39 -1.43302370737125151e-01
51 39 -4.73647502691355998e-02
52 39 -1.93271829035804404e-16
53 39 4.73647502691352529e-02
54 39 1.43302370737124873e-01
55 39 2.41026126375659594e-01
56 39 3.39207732238186566e-01
57 39 4.36352837068332000e-01
58 39 5.30857969496540183e-01
59 39 6.21084413225177601e-01
60 39 7.05443234733671432e-01
61 39 7.82483145549416781e-01
62 39 8.50971570654163179e-01
63 39 9.09959688702347558e-01
64 39 9.58824349111162544e-01
65 39 9.97283210237884243e-01
66 39 1.02538338152445285e+00
67 39 1.04346740042674058e+00
68 39 1.05212283340452539e+00
69 39 1.05212283340452561e+00
1 40 1.08867641812454696e+00
2 40 1.08867641812454696e+00
3 40 1.07972027206213306e+00
4 40 1.06100796557208832e+00
5 40 1.03193151855120591e+00
6 40 9.92136492868600728e-01
7 40 9.41574142373268752e-01
8 40 8.80536618018054607e-01
9 40 8.09668720317598289e-01
10 40 7.29952235229898716e-01
11 40 6.42662560753492484e-01
12 40 5.49301407036526856e-01
13 40 4.51512911435301145e-01
14 40 3.50992723671109452e-01
15 40 2.49400024033314516e-01
16 40 1.48281081571077000e-01
17 40 4.90103294322671093e-02
18 40 6.66622045381715814e-17
19 40 -4.90103294322669844e-02
20 40 -1.48281081571076917e-01
21 40 -2.49400024033314377e-01
22 40 -3.50992723671109397e-01
23 40 -4.51512911435301090e-01
24 40 -5.49301407036526967e-01
25 40 -6.42662560753492262e-01
26 40 -7.29952235229898494e-01
27 40 -8.09668720317597956e-01
28 40 -8.80536618018054607e-01
29 40 -9.41574142373268419e-01
30 40 -9.92136492868600062e-01
31 40 -1.03193151855120591e+00
32 40 -1.06100796557208832e+00
33 40 -1.07972027206213284e+00
34 40 -1.08867641812454696e+00
35 40 -1.08867641812454696e+00
36 40 -1.08867641812454696e+00
37 40 -1.07972027206213306e+00
38 40 -1.06100796557208832e+00
39 40 -1.03193151855120591e+00
40 40 -9.92136492868600728e-01
41 40 -9.41574142373268752e-01
42 40 -8.80536618018054607e-01
43 40 -8.09668720317598289e-01
44 40 -7.29952235229898716e-01
45 40 -6.42662560753492595e-01
46 40 -5.49301407036527078e-01
47 40 -4.51512911435301201e-01
48 40 -3.50992723671109674e-01
49 40 -2.49400024033314738e-01
50 40 -1.48281081571077222e-01
51 40 -4.90103294322672411e-02
52 40 -1.99986613614514781e-16
53 40 4.90103294322668803e-02
54 40 1.48281081571076889e-01
55 40 2.49400024033314321e-01
56 40 3.50992723671109397e-01
57 40 4.51512911435301090e-01
58 40 5.49301407036526967e-01
59 40 6.42662560753492262e-01
60 40 7.29952235229898494e-01
61 40 8.09668720317597956e-01
62 40 8.80536618018054607e-01
63 40 9.41574142373268419e-01
64 40 9.92136492868600062e-01
65 40 1.03193151855120591e+00
66 40 1.06100796557208832e+00
67 40 1.07972027206213284e+00
68 40 1.08867641812454696e+00
69 40 1.08867641812454696e+00
1 41 1.13512029222116340e+00
2 41 1.13512029222116340e+00
3 41 1.12578206925032331e+00
4 41 1.10627147964124295e+00
5 41 1.07595460633562356e+00
6 41 1.03446189056650195e+00
7 41 9.81742506630067568e-01
8 41 9.18101068890556649e-01
9 41 8.44209885608180666e-01
10 41 7.61092626575899933e-01
11 41 6.70079099369863762e-01
12 41 5.72735078387144991e-01
13 41 4.70774841300396152e-01
14 41 3.65966375709142810e-01
15 41 2.60039643963587752e-01
16 41 1.54606880282930237e-01
17 41 5.11011523174611862e-02
18 41 6.95060716257927748e-17
19 41 -5.11011523174610544e-02
20 41 -1.54606880282930126e-01
21 41 -2.60039643963587586e-01
22 41 -3.65966375709142755e-01
23 41 -4.70774841300395985e-01
24 41 -5.72735078387144991e-01
25 41 -6.70079099369863429e-01
26 41 -7.61092626575899600e-01
27 41 -8.44209885608180333e-01
28 41 -9.18101068890556649e-01
29 41 -9.81742506630067235e-01
30 41 -1.03446189056650129e+00
31 41 -1.07595460633562356e+00
32 41 -1.10627147964124295e+00
33 41 -1.12578206925032309e+00
34 41 -1.13512029222116340e+00
35 41 -1.13512029222116340e+00
36 41 -1.13512029222116340e+00
37 41 -1.12578206925032331e+00
38 41 -1.10627147964124295e+00
39 41 -1.07595460633562356e+00
40 41 -1.03446189056650195e+00
41 41 -9.81742506630067568e-01
42 41 -9.18101068890556649e-01
43 41 -8.44209885608180666e-01
44 41 -7.61092626575899933e-01
45 41 -6.70079099369863873e-01
46 41 -5.72735078387145213e-01
47 41 -4.70774841300396263e-01
48 41 -3.65966375709143144e-01
49 41 -2.60039643963587974e-01
50 41 -1.54606880282930431e-01
51 41 -5.11011523174613180e-02
52 41 -2.08518214877378361e-16
53 41 5.11011523174609433e-02
54 41 1.54606880282930070e-01
55 41 2.60039643963587530e-01
56 41 3.65966375709142755e-01
57 41 4.70774841300395985e-01
58 41 5.72735078387144991e-01
59 41 6.70079099369863429e-01
60 41 7.61092626575899600e-01
61 41 8.44209885608180333e-01
62 41 9.18101068890556649e-01
63 41 9.81742506630067235e-01
64 41 1.03446189056650129e+00
65 41 1.07595460633562356e+00
66 41 1.10627147964124295e+00
67 41 1.12578206925032309e+00
68 41 1.13512029222116340e+00
69 41 1.13512029222116340e+00
1 42 1.19118610143595527e+00
2 42 1.19118610143595527e+00
3 42 1.18138664538605220e+00
4 42 1.16091238963322740e+00
5 42 1.12909810671702293e+00
6 42 1.08555598464087200e+00
7 42 1.03023268732014084e+00
8 42 9.63447874617720301e-01
9 42 8.85907061412459007e-01
10 42 7.98684478548602916e-01
11 42 7.03175615396881115e-01
12 42 6.01023583011301765e-01
13 42 4.94027330588403146e-01
14 42 3.84042170089832102e-01
15 42 2.72883510086548708e-01
16 42 1.62243216196083062e-01
17 42 5.36251380801336316e-02
18 42 7.29391123156178347e-17
19 42 -5.36251380801334859e-02
20 42 -1.62243216196082896e-01
21 42 -2.72883510086548542e-01
22 42 -3.84042170089832047e-01
23 42 -4.94027330588402924e-01
24 42 -6.01023583011301765e-01
25 42 -7.03175615396880782e-01
26 42 -7.98684478548602583e-01
27 42 -8.85907061412458674e-01
28 42 -9.63447874617720301e-01
29 42 -1.03023268732014039e+00
30 42 -1.08555598464087155e+00
31 42 -1.12909810671702315e+00
32 42 -1.16091238963322740e+00
33 42 -1.18138664538605176e+00
34 42 -1.19118610143595527e+00
35 42 -1.19118610143595527e+00
36 42 -1.19118610143595527e+00
37 42 -1.18138664538605220e+00
38 42 -1.16091238963322740e+00
39 42 -1.12909810671702293e+00
40 42 -1.08555598464087200e+00
41 42 -1.03023268732014084e+00
42 42 -9.63447874617720301e-01
43 42 -8.85907061412459007e-01
44 42 -7.98684478548603027e-01
45 42 -7.03175615396881226e-01
46 42 -6.01023583011301987e-01
47 42 -4.94027330588403313e-01
48 42 -3.84042170089832435e-01
49 42 -2.72883510086548930e-01
50 42 -1.62243216196083229e-01
51 42 -5.36251380801337635e-02
52 42 -2.18817336946853504e-16
53 42 5.36251380801333680e-02
54 42 1.62243216196082840e-01
55 42 2.72883510086548431e-01
56 42 3.84042170089832047e-01
57 42 4.94027330588402924e-01
58 42 6.01023583011301765e-01
59 42 7.03175615396880782e-01
60 42 7.98684478548602583e-01
61 42 8.85907061412458674e-01
62 42 9.63447874617720301e-01
63 42 1.03023268732014039e+00
64 42 1.08555598464087155e+00
65 42 1.12909810671702315e+00
66 42 1.16091238963322740e+00
67 42 1.18138664538605176e+00
68 42 1.19118610143595527e+00
69 42 1.19118610143595527e+00
1 43 1.25628156646177103e+00
2 43 1.25628156646177103e+00
3 43 1.24594659362922622e+00
4 43 1.22435346887878560e+00
5 43 1.19080061166390783e+00
6 43 1.14487901699204664e+00
7 43 1.08653243408939582e+00
8 43 1.01609799146408974e+00
9 43 9.34319758691901203e-01
10 43 8.42330670757652666e-01
11 43 7.41602477181026121e-01
12 43 6.33868081096394698e-01
13 43 5.21024739961587935e-01
14 43 4.05029154089548593e-01
15 43 2.87795939777885090e-01
16 43 1.71109419044518318e-01
17 43 5.65556233302484737e-02
18 43 7.69250599597615134e-17
19 43 -5.65556233302483211e-02
20 43 -1.71109419044518124e-01
21 43 -2.87795939777884868e-01
22 43 -4.05029154089548482e-01
23 43 -5.21024739961587602e-01
24 43 -6.33868081096394809e-01
25 43 -7.41602477181025899e-01
26 43 -8.42330670757652333e-01
27 43 -9.34319758691900870e-01
28 43 -1.01609799146408974e+00
29 43 -1.08653243408939559e+00
30 43 -1.14487901699204642e+00
31 43 -1.19080061166390805e+00
32 43 -1.22435346887878560e+00
33 43 -1.24594659362922555e+00
34 43 -1.25628156646177103e+00
35 43 -1.25628156646177103e+00
36 43 -1.25628156646177103e+00
37 43 -1.24594659362922622e+00
38 43 -1.22435346887878560e+00
39 43 -1.19080061166390783e+00
40 43 -1.14487901699204664e+00
41 43 -1.08653243408939582e+00
42 43 -1.01609799146408974e+00
43 43 -9.34319758691901314e-01
44 43 -8.42330670757652777e-01
45 43 -7.41602477181026343e-01
46 43 -6.33868081096395142e-01
47 43 -5.21024739961588046e-01
48 43 -4.05029154089548926e-01
49 43 -2.87795939777885312e-01
50 43 -1.71109419044518485e-01
51 43 -5.65556233302486194e-02
52 43 -2.30775179879284565e-16
53 43 5.65556233302482031e-02
54 43 1.71109419044518068e-01
55 43 2.87795939777884813e-01
56 43 4.05029154089548482e-01
57 43 5.21024739961587602e-01
58 43 6.33868081096394809e-01
59 43 7.41602477181025899e-01
60 43 8.42330670757652333e-01
61 43 9.34319758691900870e-01
62 43 1.01609799146408974e+00
63 43 1.08653243408939559e+00
64 43 1.14487901699204642e+00
65 43 1.19080061166390805e+00
66 43 1.22435346887878560e+00
67 43 1.24594659362922555e+00
68 43 1.25628156646177103e+00
69 43 1.25628156646177103e+00
1 44 1.32950487116513405e+00
2 44 1.32950487116513427e+00
3 44 1.31856751676063810e+00
4 44 1.29571582068724789e+00
5 44 1.26020731025488875e+00
6 44 1.21160914131107322e+00
7 44 1.14986178446384124e+00
8 44 1.07532201800695981e+00
9 44 9.88777280164378825e-01
10 44 8.91426539878448887e-01
11 44 7.84827328683332825e-01
12 44 6.70813553260392825e-01
13 44 5.51393054128329951e-01
14 44 4.28636579331943046e-01
15 44 3.04570340002588258e-01
16 44 1.81082658693015097e-01
17 44 5.98520098652055993e-02
18 44 8.14086942461597748e-17
19 44 -5.98520098652054258e-02
20 44 -1.81082658693014903e-01
21 44 -3.04570340002588036e-01
22 44 -4.28636579331942935e-01
23 44 -5.51393054128329729e-01
24 44 -6.70813553260392936e-01
25 44 -7.84827328683332492e-01
26 44 -8.91426539878448443e-01
27 44 -9.88777280164378602e-01
28 44 -1.07532201800695981e+00
29 44 -1.14986178446384102e+00
30 44 -1.21160914131107300e+00
31 44 -1.26020731025488919e+00
32 44 -1.29571582068724767e+00
33 44 -1.31856751676063766e+00
34 44 -1.32950487116513427e+00
35 44 -1.32950487116513405e+00
36 44 -1.32950487116513427e+00
37 44 -1.31856751676063810e+00
38 44 -1.29571582068724789e+00
39 44 -1.26020731025488875e+00
40 44 -1.21160914131107322e+00
41 44 -1.14986178446384124e+00
42 44 -1.07532201800695981e+00
43 44 -9.88777280164378936e-01
44 44 -8.91426539878448887e-01
45 44 -7.84827328683332825e-01
46 44 -6.70813553260393269e-01
47 44 -5.51393054128330062e-01
48 44 -4.28636579331943435e-01
49 44 -3.04570340002588480e-01
50 44 -1.81082658693015319e-01
51 44 -5.98520098652057450e-02
52 44 -2.44226082738479349e-16
53 44 5.98520098652053079e-02
54 44 1.81082658693014847e-01
55 44 3.04570340002588036e-01
56 44 4.28636579331942935e-01
57 44 5.51393054128329729e-01
58 44 6.70813553260392936e-01
59 44 7.84827328683332492e-01
60 44 8.91426539878448443e-01
61 44 9.88777280164378602e-01
62 44 1.07532201800695981e+00
63 44 1.14986178446384102e+00
64 44 1.21160914131107300e+00
65 44 1.26020731025488919e+00
66 44 1.29571582068724767e+00
67 44 1.31856751676063766e+00
68 44 1.32950487116513427e+00
69 44 1.32950487116513405e+00
1 45 1.40968450307704685e+00
2 45 1.40968450307704751e+00
3 45 1.39808753991950141e+00
4 45 1.37385770630072424e+00
5 45 1.33620775257022073e+00
6 45 1.28467873065849347e+00
7 45 1.21920752108163133e+00
8 45 1.14017241867906427e+00
9 45 1.04840835041157865e+00
10 45 9.45186592507159196e-01
11 45 8.32158607938513262e-01
12 45 7.11268902427188210e-01
13 45 5.84646405114588763e-01
14 45 4.54486746488305338e-01
15 45 3.22938334195262799e-01
16 45 1.92003371534715667e-01
17 45 6.34615582198308492e-02
18 45 8.63182807250466230e-17
19 45 -6.34615582198306688e-02
20 45 -1.92003371534715417e-01
21 45 -3.22938334195262577e-01
22 45 -4.54486746488305227e-01
23 45 -5.84646405114588541e-01
24 45 -7.11268902427188210e-01
25 45 -8.32158607938512929e-01
26 45 -9.45186592507158529e-01
27 45 -1.04840835041157843e+00
28 45 -1.14017241867906427e+00
29 45 -1.21920752108163111e+00
30 45 -1.28467873065849303e+00
31 45 -1.33620775257022140e+00
32 45 -1.37385770630072424e+00
33 45 -1.39808753991950097e+00
34 45 -1.40968450307704751e+00
35 45 -1.40968450307704685e+00
36 45 -1.40968450307704751e+00
37 45 -1.39808753991950141e+00
38 45 -1.37385770630072424e+00
39 45 -1.33620775257022073e+00
40 45 -1.28467873065849347e+00
41 45 -1.21920752108163133e+00
42 45 -1.14017241867906427e+00
43 45 -1.04840835041157865e+00
44 45 -9.45186592507159196e-01
45 45 -8.32158607938513262e-01
46 45 -7.11268902427188654e-01
47 45 -5.84646405114588985e-01
48 45 -4.54486746488305782e-01
49 45 -3.22938334195263022e-01
50 45 -1.92003371534715889e-01
51 45 -6.34615582198310157e-02
52 45 -2.58954842175139943e-16
53 45 6.34615582198305439e-02
54 45 1.92003371534715361e-01
55 45 3.22938334195262577e-01
56 45 4.54486746488305227e-01
57 45 5.84646405114588541e-01
58 45 7.11268902427188210e-01
59 45 8.32158607938512929e-01
60 45 9.45186592507158529e-01
61 45 1.04840835041157843e+00
62 45 1.14017241867906427e+00
63 45 1.21920752108163111e+00
64 45 1.28467873065849303e+00
65 45 1.33620775257022140e+00
66 45 1.37385770630072424e+00
67 45 1.39808753991950097e+00
68 45 1.40968450307704751e+00
69 45 1.40968450307704685e+00
1 46 1.49544107147759875e+00
2 46 1.49544107147759919e+00
3 46 1.48313862013309516e+00
4 46 1.45743479188677760e+00
5 46 1.41749444564268678e+00
6 46 1.36283071374263165e+00
7 46 1.29337663690001659e+00
8 46 1.20953352309458895e+00
9 46 1.11218709112805114e+00
10 46 1.00268595388532322e+00
11 46 8.82782039228292348e-01
12 46 7.54538144693128743e-01
13 46 6.20212710426810698e-01
14 46 4.82134935623742267e-01
15 46 3.42583923889358155e-01
16 46 2.03683680304665632e-01
17 46 6.73221706096281680e-02
18 46 9.15693560749264792e-17
19 46 -6.73221706096279737e-02
20 46 -2.03683680304665410e-01
21 46 -3.42583923889357933e-01
22 46 -4.82134935623742100e-01
23 46 -6.20212710426810365e-01
24 46 -7.54538144693128521e-01
25 46 -8.82782039228291904e-01
26 46 -1.00268595388532278e+00
27 46 -1.11218709112805092e+00
28 46 -1.20953352309458895e+00
29 46 -1.29337663690001636e+00
30 46 -1.36283071374263121e+00
31 46 -1.41749444564268745e+00
32 46 -1.45743479188677760e+00
33 46 -1.48313862013309472e+00
34 46 -1.49544107147759919e+00
35 46 -1.49544107147759875e+00
36 46 -1.49544107147759919e+00
37 46 -1.48313862013309516e+00
38 46 -1.45743479188677760e+00
39 46 -1.41749444564268678e+00
40 46 -1.36283071374263165e+00
41 46 -1.29337663690001659e+00
42 46 -1.20953352309458895e+00
43 46 -1.11218709112805114e+00
44 46 -1.00268595388532322e+00
45 46 -8.82782039228292348e-01
46 46 -7.54538144693129187e-01
47 46 -6.20212710426810809e-01
48 46 -4.82134935623742711e-01
49 46 -3.42583923889358322e-01
50 46 -2.03683680304665882e-01
51 46 -6.73221706096283484e-02
52 46 -2.74708068224779499e-16
53 46 6.73221706096278488e-02
54 46 2.03683680304665327e-01
55 46 3.42583923889357933e-01
56 46 4.82134935623742100e-01
57 46 6.20212710426810365e-01
58 46 7.54538144693128521e-01
59 46 8.82782039228291904e-01
60 46 1.00268595388532278e+00
61 46 1.11218709112805092e+00
62 46 1.20953352309458895e+00
63 46 1.29337663690001636e+00
64 46 1.36283071374263121e+00
65 46 1.41749444564268745e+00
66 46 1.45743479188677760e+00
67 46 1.48313862013309472e+00
68 46 1.49544107147759919e+00
69 46 1.49544107147759875e+00
1 47 1.58526435962200907e+00
2 47 1.58526435962200951e+00
3 47 1.57222296466208866e+00
4 47 1.54497524250044505e+00
5 47 1.50263588950329940e+00
6 47 1.44468879443022646e+00
7 47 1.37106297610208827e+00
8 47 1.28218384696051091e+00
9 47 1.17899032628206490e+00
10 47 1.06291203104208076e+00
11 47 9.35806118204513537e-01
12 47 7.99859286715631446e-01
13 47 6.57465629356239423e-01
14 47 5.11094248078781233e-01
15 47 3.63161140267902360e-01
16 47 2.15917888830343380e-01
17 47 7.13658596887309787e-02
18 47 9.70694461906735985e-17
19 47 -7.13658596887307706e-02
20 47 -2.15917888830343102e-01
21 47 -3.63161140267902138e-01
22 47 -5.11094248078781010e-01
23 47 -6.57465629356239090e-01
24 47 -7.99859286715631002e-01
25 47 -9.35806118204513093e-01
26 47 -1.06291203104208032e+00
27 47 -1.17899032628206468e+00
28 47 -1.28218384696051091e+00
29 47 -1.37106297610208827e+00
30 47 -1.44468879443022602e+00
31 47 -1.50263588950329963e+00
32 47 -1.54497524250044505e+00
33 47 -1.57222296466208844e+00
34 47 -1.58526435962200951e+00
35 47 -1.58526435962200907e+00
36 47 -1.58526435962200951e+00
37 47 -1.57222296466208866e+00
38 47 -1.54497524250044505e+00
39 47 -1.50263588950329940e+00
40 47 -1.44468879443022646e+00
41 47 -1.37106297610208827e+00
42 47 -1.28218384696051113e+00
43 47 -1.17899032628206490e+00
44 47 -1.06291203104208098e+00
45 47 -9.35806118204513537e-01
46 47 -7.99859286715631890e-01
47 47 -6.57465629356239534e-01
48 47 -5.11094248078781677e-01
49 47 -3.63161140267902527e-01
50 47 -2.15917888830343629e-01
51 47 -7.13658596887311730e-02
52 47 -2.91208338572020857e-16
53 47 7.13658596887306318e-02
54 47 2.15917888830343019e-01
55 47 3.63161140267902138e-01
56 47 5.11094248078781010e-01
57 47 6.57465629356239090e-01
58 47 7.99859286715631002e-01
59 47 9.35806118204513093e-01
60 47 1.06291203104208032e+00
61 47 1.17899032628206468e+00
62 47 1.28218384696051091e+00
63 47 1.37106297610208827e+00
64 47 1.44468879443022602e+00
65 47 1.50263588950329963e+00
66 47 1.54497524250044505e+00
67 47 1.57222296466208844e+00
68 47 1.58526435962200951e+00
69 47 1.58526435962200907e+00
1 48 1.67759683425883188e+00
2 48 1.67759683425883233e+00
3 48 1.66379585351622672e+00
4 48 1.63496110922787552e+00
5 48 1.59015573394679954e+00
6 48 1.52883355593967996e+00
7 48 1.45091945978448011e+00
8 48 1.35686363573558522e+00
9 48 1.24765968968367091e+00
10 48 1.12482050551933921e+00
11 48 9.90311408851875519e-01
12 48 8.46446461186208476e-01
13 48 6.95759197352426639e-01
14 48 5.40862530202408931e-01
15 48 3.84313174986490924e-01
16 48 2.28493856285271579e-01
17 48 7.55225080039785279e-02
18 48 1.02723179666740549e-16
19 48 -7.55225080039783059e-02
20 48 -2.28493856285271330e-01
21 48 -3.84313174986490591e-01
22 48 -5.40862530202408709e-01
23 48 -6.95759197352426417e-01
24 48 -8.46446461186208032e-01
25 48 -9.90311408851874853e-01
26 48 -1.12482050551933876e+00
27 48 -1.24765968968367069e+00
28 48 -1.35686363573558522e+00
29 48 -1.45091945978448034e+00
30 48 -1.52883355593967973e+00
31 48 -1.59015573394679954e+00
32 48 -1.63496110922787552e+00
33 48 -1.66379585351622672e+00
34 48 -1.67759683425883233e+00
35 48 -1.67759683425883188e+00
36 48 -1.67759683425883233e+00
37 48 -1.66379585351622672e+00
38 48 -1.63496110922787552e+00
39 48 -1.59015573394679954e+00
40 48 -1.52883355593967996e+00
41 48 -1.45091945978448011e+00
42 48 -1.35686363573558522e+00
43 48 -1.24765968968367091e+00
44 48 -1.12482050551933943e+00
45 48 -9.90311408851875519e-01
46 48 -8.46446461186208921e-01
47 48 -6.95759197352426861e-01
48 48 -5.40862530202409375e-01
49 48 -3.84313174986491091e-01
50 48 -2.28493856285271885e-01
51 48 -7.55225080039787361e-02
52 48 -3.08169539000221720e-16
53 48 7.55225080039781532e-02
54 48 2.28493856285271218e-01
55 48 3.84313174986490591e-01
56 48 5.40862530202408709e-01
57 48 6.95759197352426417e-01
58 48 8.46446461186208032e-01
59 48 9.90311408851874853e-01
60 48 1.12482050551933876e+00
61 48 1.24765968968367069e+00
62 48 1.35686363573558522e+00
63 48 1.45091945978448034e+00
64 48 1.52883355593967973e+00
65 48 1.59015573394679954e+00
66 48 1.63496110922787552e+00
67 48 1.66379585351622672e+00
68 48 1.67759683425883233e+00
69 48 1.67759683425883188e+00
1 49 1.77091446100857608e+00
2 49 1.77091446100857652e+00
3 49 1.75634578999413771e+00
4 49 1.72590709066129966e+00
5 49 1.67860938158376105e+00
6 49 1.61387610980137342e+00
7 49 1.53162798153841373e+00
8 49 1.43234022923179039e+00
9 49 1.31706172887149564e+00
10 49 1.18738951968947282e+00
11 49 1.04539825005832143e+00
12 49 8.93530702951312761e-01
13 49 7.34461343041036052e-01
14 49 5.70948428485979154e-01
15 49 4.05690893807856556e-01
16 49 2.41204004492518914e-01
17 49 7.97235061634877368e-02
18 49 1.08437236311895639e-16
19 49 -7.97235061634875009e-02
20 49 -2.41204004492518609e-01
21 49 -4.05690893807856279e-01
22 49 -5.70948428485978932e-01
23 49 -7.34461343041035941e-01
24 49 -8.93530702951312206e-01
25 49 -1.04539825005832077e+00
26 49 -1.18738951968947237e+00
27 49 -1.31706172887149542e+00
28 49 -1.43234022923179016e+00
29 49 -1.53162798153841351e+00
30 49 -1.61387610980137319e+00
31 49 -1.67860938158376127e+00
32 49 -1.72590709066129966e+00
33 49 -1.75634578999413771e+00
34 49 -1.77091446100857652e+00
35 49 -1.77091446100857608e+00
36 49 -1.77091446100857652e+00
37 49 -1.75634578999413771e+00
38 49 -1.72590709066129966e+00
39 49 -1.67860938158376105e+00
40 49 -1.61387610980137342e+00
41 49 -1.53162798153841373e+00
42 49 -1.43234022923179039e+00
43 49 -1.31706172887149564e+00
44 49 -1.18738951968947304e+00
45 49 -1.04539825005832143e+00
46 49 -8.93530702951313094e-01
47 49 -7.34461343041036385e-01
48 49 -5.70948428485979598e-01
49 49 -4.05690893807856834e-01
50 49 -2.41204004492519192e-01
51 49 -7.97235061634879588e-02
52 49 -3.25311708935686954e-16
53 49 7.97235061634873343e-02
54 49 2.41204004492518498e-01
55 49 4.05690893807856279e-01
56 49 5.70948428485978932e-01
57 49 7.34461343041035941e-01
58 49 8.93530702951312206e-01
59 49 1.04539825005832077e+00
60 49 1.18738951968947237e+00
61 49 1.31706172887149542e+00
62 49 1.43234022923179016e+00
63 49 1.53162798153841351e+00
64 49 1.61387610980137319e+00
65 49 1.67860938158376127e+00
66 49 1.72590709066129966e+00
67 49 1.75634578999413771e+00
68 49 1.77091446100857652e+00
69 49 1.77091446100857608e+00
1 50 1.86379691972522044e+00
2 50 1.86379691972522088e+00
3 50 1.84846413840853496e+00
4 50 1.81642896375381135e+00
5 50 1.76665054337851513e+00
6 50 1.69852208477242450e+00
7 50 1.61196013529104509e+00
8 50 1.50746485277461351e+00
9 50 1.38614012557141764e+00
10 50 1.24966675581318865e+00
11 50 1.10022820483106298e+00
12 50 9.40395376799909033e-01
13 50 7.72983009036765867e-01
14 50 6.00894027218048632e-01
15 50 4.26968921925807765e-01
16 50 2.53854881473220939e-01
17 50 8.39049138107882259e-02
18 50 1.14124646600109383e-16
19 50 -8.39049138107879899e-02
20 50 -2.53854881473220606e-01
21 50 -4.26968921925807432e-01
22 50 -6.00894027218048410e-01
23 50 -7.72983009036765756e-01
24 50 -9.40395376799908367e-01
25 50 -1.10022820483106232e+00
26 50 -1.24966675581318798e+00
27 50 -1.38614012557141741e+00
28 50 -1.50746485277461328e+00
29 50 -1.61196013529104487e+00
30 50 -1.69852208477242428e+00
31 50 -1.76665054337851535e+00
32 50 -1.81642896375381135e+00
33 50 -1.84846413840853496e+00
34 50 -1.86379691972522088e+00
35 50 -1.86379691972522044e+00
36 50 -1.86379691972522088e+00
37 50 -1.84846413840853496e+00
38 50 -1.81642896375381135e+00
39 50 -1.76665054337851513e+00
40 50 -1.69852208477242450e+00
41 50 -1.61196013529104509e+00
42 50 -1.50746485277461351e+00
43 50 -1.38614012557141764e+00
44 50 -1.24966675581318865e+00
45 50 -1.10022820483106298e+00
46 50 -9.40395376799909255e-01
47 50 -7.72983009036766311e-01
48 50 -6.00894027218049076e-01
49 50 -4.26968921925808043e-01
50 50 -2.53854881473221217e-01
51 50 -8.39049138107884618e-02
52 50 -3.42373939800328173e-16
53 50 8.39049138107878095e-02
54 50 2.53854881473220495e-01
55 50 4.26968921925807432e-01
56 50 6.00894027218048410e-01
57 50 7.72983009036765756e-01
58 50 9.40395376799908367e-01
59 50 1.10022820483106232e+00
60 50 1.24966675581318798e+00
61 50 1.38614012557141741e+00
62 50 1.50746485277461328e+00
63 50 1.61196013529104487e+00
64 50 1.69852208477242428e+00
65 50 1.76665054337851535e+00
66 50 1.81642896375381135e+00
67 50 1.84846413840853496e+00
68 50 1.86379691972522088e+00
69 50 1.86379691972522044e+00
1 51 1.95498172954210148e+00
2 51 1.95498172954210170e+00
3 51 1.93889880386498192e+00
4 51 1.90529633329007186e+00
5 51 1.85308254254428739e+00
6 51 1.78162095226737649e+00
7 51 1.69082402695933753e+00
8 51 1.58121639429242600e+00
9 51 1.45395594949090978e+00
10 51 1.31080572661914085e+00
11 51 1.15405601114993983e+00
12 51 9.86403486738633206e-01
13 51 8.10800599528915256e-01
14 51 6.30292298570517384e-01
15 51 4.47858043230538350e-01
16 51 2.66274533444550043e-01
17 51 8.80098962407766111e-02
18 51 1.19708105873764548e-16
19 51 -8.80098962407763474e-02
20 51 -2.66274533444549710e-01
21 51 -4.47858043230538017e-01
22 51 -6.30292298570517051e-01
23 51 -8.10800599528915034e-01
24 51 -9.86403486738632651e-01
25 51 -1.15405601114993939e+00
26 51 -1.31080572661914041e+00
27 51 -1.45395594949090956e+00
28 51 -1.58121639429242578e+00
29 51 -1.69082402695933731e+00
30 51 -1.78162095226737627e+00
31 51 -1.85308254254428739e+00
32 51 -1.90529633329007186e+00
33 51 -1.93889880386498192e+00
34 51 -1.95498172954210170e+00
35 51 -1.95498172954210148e+00
36 51 -1.95498172954210170e+00
37 51 -1.93889880386498192e+00
38 51 -1.90529633329007186e+00
39 51 -1.85308254254428739e+00
40 51 -1.78162095226737649e+00
41 51 -1.69082402695933753e+00
42 51 -1.58121639429242600e+00
43 51 -1.45395594949090978e+00
44 51 -1.31080572661914085e+00
45 51 -1.15405601114994005e+00
46 51 -9.86403486738633539e-01
47 51 -8.10800599528915700e-01
48 51 -6.30292298570517828e-01
49 51 -4.47858043230538683e-01
50 51 -2.66274533444550321e-01
51 51 -8.80098962407768609e-02
52 51 -3.59124317621293643e-16
53 51 8.80098962407761670e-02
54 51 2.66274533444549599e-01
55 51 4.47858043230537961e-01
56 51 6.30292298570517051e-01
57 51 8.10800599528915034e-01
58 51 9.86403486738632651e-01
59 51 1.15405601114993939e+00
60 51 1.31080572661914041e+00
61 51 1.45395594949090956e+00
62 51 1.58121639429242578e+00
63 51 1.69082402695933731e+00
64 51 1.78162095226737627e+00
65 51 1.85308254254428739e+00
66 51 1.90529633329007186e+00
67 51 1.93889880386498192e+00
68 51 1.95498172954210170e+00
69 51 1.95498172954210148e+00
1 52 2.00000000000000000e+00
2 52 2.00000000000000000e+00
3 52 1.98354672533856724e+00
4 52 1.94917047509833563e+00
5 52 1.89575433319094899e+00
6 52 1.82264716375090630e+00
7 52 1.72975941555767321e+00
8 52 1.61762779712808946e+00
9 52 1.48743686707645817e+00
10 52 1.34099025766973212e+00
11 52 1.18063099384590608e+00
12 52 1.00911785704480206e+00
13 52 8.29471280755981422e-01
14 52 6.44806331482336015e-01
15 52 4.58171077982847730e-01
16 52 2.72406160549558907e-01
17 52 9.00365409157971169e-02
18 52 1.22464679914735321e-16
19 52 -9.00365409157968394e-02
20 52 -2.72406160549558574e-01
21 52 -4.58171077982847397e-01
22 52 -6.44806331482335682e-01
23 52 -8.29471280755981089e-01
24 52 -1.00911785704480161e+00
25 52 -1.18063099384590564e+00
26 52 -1.34099025766973168e+00
27 52 -1.48743686707645795e+00
28 52 -1.61762779712808924e+00
29 52 -1.72975941555767299e+00
30 52 -1.82264716375090607e+00
31 52 -1.89575433319094899e+00
32 52 -1.94917047509833563e+00
33 52 -1.98354672533856724e+00
34 52 -2.00000000000000000e+00
35 52 -2.00000000000000000e+00
36 52 -2.00000000000000000e+00
37 52 -1.98354672533856724e+00
38 52 -1.94917047509833563e+00
39 52 -1.89575433319094899e+00
40 52 -1.82264716375090630e+00
41 52 -1.72975941555767321e+00
42 52 -1.61762779712808946e+00
43 52 -1.48743686707645817e+00
44 52 -1.34099025766973212e+00
45 52 -1.18063099384590631e+00
46 52 -1.00911785704480250e+00
47 52 -8.29471280755981755e-01
48 52 -6.44806331482336348e-01
49 52 -4.58171077982848063e-01
50 52 -2.72406160549559184e-01
51 52 -9.00365409157973667e-02
52 52 -3.67394039744205938e-16
53 52 9.00365409157966590e-02
54 52 2.72406160549558463e-01
55 52 4.58171077982847286e-01
56 52 6.44806331482335682e-01
57 52 8.29471280755981089e-01
58 52 1.00911785704480161e+00
59 52 1.18063099384590564e+00
60 52 1.34099025766973168e+00
61 52 1.48743686707645795e+00
62 52 1.61762779712808924e+00
63 52 1.72975941555767299e+00
64 52 1.82264716375090607e+00
65 52 1.89575433319094899e+00
66 52 1.94917047509833563e+00
67 52 1.98354672533856724e+00
68 52 2.00000000000000000e+00
69 52 2.00000000000000000e+00
1 53 2.04501827045789852e+00
2 53 2.04501827045789852e+00
3 53 2.02819464681215278e+00
4 53 1.99304461690659940e+00
5 53 1.93842612383761059e+00
6 53 1.86367337523443588e+00
7 53 1.76869480415600910e+00
8 53 1.65403919996375315e+00
9 53 1.52091778466200700e+00
10 53 1.37117478872032383e+00
11 53 1.20720597654187256e+00
12 53 1.03183222735097102e+00
13 53 8.48141961983047588e-01
14 53 6.59320364394154534e-01
15 53 4.68484112735157165e-01
16 53 2.78537787654567770e-01
17 53 9.20631855908176228e-02
18 53 1.25221253955706094e-16
19 53 -9.20631855908173452e-02
20 53 -2.78537787654567492e-01
21 53 -4.68484112735156777e-01
22 53 -6.59320364394154201e-01
23 53 -8.48141961983047032e-01
24 53 -1.03183222735097058e+00
25 53 -1.20720597654187212e+00
26 53 -1.37117478872032317e+00
27 53 -1.52091778466200633e+00
28 53 -1.65403919996375293e+00
29 53 -1.76869480415600888e+00
30 53 -1.86367337523443610e+00
31 53 -1.93842612383761037e+00
32 53 -1.99304461690659940e+00
33 53 -2.02819464681215234e+00
34 53 -2.04501827045789852e+00
35 53 -2.04501827045789852e+00
36 53 -2.04501827045789852e+00
37 53 -2.02819464681215278e+00
38 53 -1.99304461690659940e+00
39 53 -1.93842612383761059e+00
40 53 -1.86367337523443588e+00
41 53 -1.76869480415600910e+00
42 53 -1.65403919996375315e+00
43 53 -1.52091778466200700e+00
44 53 -1.37117478872032383e+00
45 53 -1.20720597654187256e+00
46 53 -1.03183222735097146e+00
47 53 -8.48141961983047921e-01
48 53 -6.59320364394154868e-01
49 53 -4.68484112735157388e-01
50 53 -2.78537787654568048e-01
51 53 -9.20631855908178864e-02
52 53 -3.75663761867118183e-16
53 53 9.20631855908171509e-02
54 53 2.78537787654567326e-01
55 53 4.68484112735156666e-01
56 53 6.59320364394154201e-01
57 53 8.48141961983047032e-01
58 53 1.03183222735097058e+00
59 53 1.20720597654187189e+00
60 53 1.37117478872032295e+00
61 53 1.52091778466200633e+00
62 53 1.65403919996375226e+00
63 53 1.76869480415600888e+00
64 53 1.86367337523443610e+00
65 53 1.93842612383761037e+00
66 53 1.99304461690659940e+00
67 53 2.02819464681215234e+00
68 53 2.04501827045789852e+00
69 53 2.04501827045789852e+00
1 54 2.13620308027477890e+00
2 54 2.13620308027477934e+00
3 54 2.11862931226859974e+00
4 54 2.08191198644285969e+00
5 54 2.02485812300338308e+00
6 54 1.94677224272938787e+00
7 54 1.84755869582430199e+00
8 54 1.72779074148156542e+00
9 54 1.58873360858149870e+00
10 54 1.43231375952627626e+00
11 54 1.26103378286074941e+00
12 54 1.07784033728969564e+00
13 54 8.85959552475196865e-01
14 54 6.88718635746623398e-01
15 54 4.89373234039887750e-01
16 54 2.90957439625896930e-01
17 54 9.61681680208059941e-02
18 54 1.30804713229361259e-16
19 54 -9.61681680208057166e-02
20 54 -2.90957439625896597e-01
21 54 -4.89373234039887417e-01
22 54 -6.88718635746623065e-01
23 54 -8.85959552475196643e-01
24 54 -1.07784033728969519e+00
25 54 -1.26103378286074874e+00
26 54 -1.43231375952627560e+00
27 54 -1.58873360858149848e+00
28 54 -1.72779074148156520e+00
29 54 -1.84755869582430177e+00
30 54 -1.94677224272938787e+00
31 54 -2.02485812300338264e+00
32 54 -2.08191198644285969e+00
33 54 -2.11862931226859974e+00
34 54 -2.13620308027477934e+00
35 54 -2.13620308027477890e+00
36 54 -2.13620308027477934e+00
37 54 -2.11862931226859974e+00
38 54 -2.08191198644285969e+00
39 54 -2.02485812300338308e+00
40 54 -1.94677224272938787e+00
41 54 -1.84755869582430199e+00
42 54 -1.72779074148156542e+00
43 54 -1.58873360858149870e+00
44 54 -1.43231375952627626e+00
45 54 -1.26103378286074963e+00
46 54 -1.07784033728969586e+00
47 54 -8.85959552475197420e-01
48 54 -6.88718635746623620e-01
49 54 -4.89373234039888028e-01
50 54 -2.90957439625897207e-01
51 54 -9.61681680208062578e-02
52 54 -3.92414139688083653e-16
53 54 9.61681680208054945e-02
54 54 2.90957439625896375e-01
55 54 4.89373234039887250e-01
56 54 6.88718635746623065e-01
57 54 8.85959552475196643e-01
58 54 1.07784033728969497e+00
59 54 1.26103378286074852e+00
60 54 1.43231375952627515e+00
61 54 1.58873360858149848e+00
62 54 1.72779074148156453e+00
63 54 1.84755869582430177e+00
64 54 1.94677224272938787e+00
65 54 2.02485812300338264e+00
66 54 2.08191198644285969e+00
67 54 2.11862931226859930e+00
68 54 2.13620308027477934e+00
69 54 2.13620308027477890e+00
1 55 2.22908553899142348e+00
2 55 2.22908553899142392e+00
3 55 2.21074766068299722e+00
4 55 2.17243385953537116e+00
5 55 2.11289928479813716e+00
6 55 2.03141821770043940e+00
7 55 1.92789084957693335e+00
8 55 1.80291536502438832e+00
9 55 1.65781200528142070e+00
10 55 1.49459099564999165e+00
11 55 1.31586373763349140e+00
12 55 1.12470501113829213e+00
13 55 9.24481218470926680e-01
14 55 7.18664234478692876e-01
15 55 5.10651262157838959e-01
16 55 3.03608316606598982e-01
17 55 1.00349575668106483e-01
18 55 1.36492123517574990e-16
19 55 -1.00349575668106192e-01
20 55 -3.03608316606598705e-01
21 55 -5.10651262157838515e-01
22 55 -7.18664234478692543e-01
23 55 -9.24481218470926680e-01
24 55 -1.12470501113829169e+00
25 55 -1.31586373763349052e+00
26 55 -1.49459099564999121e+00
27 55 -1.65781200528142070e+00
28 55 -1.80291536502438832e+00
29 55 -1.92789084957693313e+00
30 55 -2.03141821770043896e+00
31 55 -2.11289928479813671e+00
32 55 -2.17243385953537116e+00
33 55 -2.21074766068299722e+00
34 55 -2.22908553899142392e+00
35 55 -2.22908553899142348e+00
36 55 -2.22908553899142392e+00
37 55 -2.21074766068299722e+00
38 55 -2.17243385953537116e+00
39 55 -2.11289928479813716e+00
40 55 -2.03141821770043940e+00
41 55 -1.92789084957693335e+00
42 55 -1.80291536502438832e+00
43 55 -1.65781200528142070e+00
44 55 -1.49459099564999165e+00
45 55 -1.31586373763349163e+00
46 55 -1.12470501113829235e+00
47 55 -9.24481218470927013e-01
48 55 -7.18664234478693209e-01
49 55 -5.10651262157839292e-01
50 55 -3.03608316606599260e-01
51 55 -1.00349575668106775e-01
52 55 -4.09476370552724872e-16
53 55 1.00349575668105956e-01
54 55 3.03608316606598372e-01
55 55 5.10651262157838404e-01
56 55 7.18664234478692543e-01
57 55 9.24481218470926347e-01
58 55 1.12470501113829124e+00
59 55 1.31586373763349007e+00
60 55 1.49459099564999054e+00
61 55 1.65781200528142025e+00
62 55 1.80291536502438765e+00
63 55 1.92789084957693313e+00
64 55 2.03141821770043896e+00
65 55 2.11289928479813671e+00
66 55 2.17243385953537116e+00
67 55 2.21074766068299633e+00
68 55 2.22908553899142392e+00
69 55 2.22908553899142348e+00
1 56 2.32240316574116790e+00
2 56 2.32240316574116834e+00
3 56 2.30329759716090843e+00
4 56 2.26337984096879463e+00
5 56 2.20135293243509889e+00
6 56 2.11646077156213330e+00
7 56 2.00859937133086675e+00
8 56 1.87839195852059304e+00
9 56 1.72721404446924587e+00
10 56 1.55716000982012526e+00
11 56 1.37095057883993721e+00
12 56 1.17178925290339642e+00
13 56 9.63183364159536093e-01
14 56 7.48750132762263210e-01
15 56 5.32028980979204480e-01
16 56 3.16318464813846345e-01
17 56 1.04550573827615706e-01
18 56 1.42206180162730068e-16
19 56 -1.04550573827615387e-01
20 56 -3.16318464813846123e-01
21 56 -5.32028980979204147e-01
22 56 -7.48750132762262877e-01
23 56 -9.63183364159536093e-01
24 56 -1.17178925290339619e+00
25 56 -1.37095057883993676e+00
26 56 -1.55716000982012504e+00
27 56 -1.72721404446924587e+00
28 56 -1.87839195852059304e+00
29 56 -2.00859937133086630e+00
30 56 -2.11646077156213241e+00
31 56 -2.20135293243509844e+00
32 56 -2.26337984096879463e+00
33 56 -2.30329759716090798e+00
34 56 -2.32240316574116834e+00
35 56 -2.32240316574116790e+00
36 56 -2.32240316574116834e+00
37 56 -2.30329759716090843e+00
38 56 -2.26337984096879463e+00
39 56 -2.20135293243509889e+00
40 56 -2.11646077156213330e+00
41 56 -2.00859937133086675e+00
42 56 -1.87839195852059304e+00
43 56 -1.72721404446924587e+00
44 56 -1.55716000982012526e+00
45 56 -1.37095057883993765e+00
46 56 -1.17178925290339664e+00
47 56 -9.63183364159536648e-01
48 56 -7.48750132762263432e-01
49 56 -5.32028980979204924e-01
50 56 -3.16318464813846512e-01
51 56 -1.04550573827615984e-01
52 56 -4.26618540488190155e-16
53 56 1.04550573827615137e-01
54 56 3.16318464813845679e-01
55 56 5.32028980979203925e-01
56 56 7.48750132762262766e-01
57 56 9.63183364159535871e-01
58 56 1.17178925290339553e+00
59 56 1.37095057883993565e+00
60 56 1.55716000982012415e+00
61 56 1.72721404446924542e+00
62 56 1.87839195852059238e+00
63 56 2.00859937133086630e+00
64 56 2.11646077156213241e+00
65 56 2.20135293243509800e+00
66 56 2.26337984096879463e+00
67 56 2.30329759716090710e+00
68 56 2.32240316574116834e+00
69 56 2.32240316574116790e+00
1 57 2.41473564037799093e+00
2 57 2.41473564037799093e+00
3 57 2.39487048601504648e+00
4 57 2.35336570769622488e+00
5 57 2.28887277687859880e+00
6 57 2.20060553307158679e+00
7 57 2.08845585501325903e+00
8 57 1.95307174729566735e+00
9 57 1.79588340787085232e+00
10 57 1.61906848429738393e+00
11 57 1.42545586948729897e+00
12 57 1.21837642737397323e+00
13 57 1.00147693215572331e+00
14 57 7.78518414885891130e-01
15 57 5.53181015697792988e-01
16 57 3.28894432268774572e-01
17 57 1.08707222142863255e-01
18 57 1.47859913638797031e-16
19 57 -1.08707222142862950e-01
20 57 -3.28894432268774350e-01
21 57 -5.53181015697792655e-01
22 57 -7.78518414885890575e-01
23 57 -1.00147693215572331e+00
24 57 -1.21837642737397345e+00
25 57 -1.42545586948729874e+00
26 57 -1.61906848429738348e+00
27 57 -1.79588340787085232e+00
28 57 -1.95307174729566735e+00
29 57 -2.08845585501325814e+00
30 57 -2.20060553307158591e+00
31 57 -2.28887277687859880e+00
32 57 -2.35336570769622488e+00
33 57 -2.39487048601504604e+00
34 57 -2.41473564037799093e+00
35 57 -2.41473564037799093e+00
36 57 -2.41473564037799093e+00
37 57 -2.39487048601504648e+00
38 57 -2.35336570769622488e+00
39 57 -2.28887277687859880e+00
40 57 -2.20060553307158679e+00
41 57 -2.08845585501325903e+00
42 57 -1.95307174729566735e+00
43 57 -1.79588340787085232e+00
44 57 -1.61906848429738393e+00
45 57 -1.42545586948729963e+00
46 57 -1.21837642737397389e+00
47 57 -1.00147693215572375e+00
48 57 -7.78518414885891241e-01
49 57 -5.53181015697793432e-01
50 57 -3.28894432268774739e-01
51 57 -1.08707222142863547e-01
52 57 -4.43579740916390969e-16
53 57 1.08707222142862672e-01
54 57 3.28894432268773906e-01
55 57 5.53181015697792322e-01
56 57 7.78518414885890353e-01
57 57 1.00147693215572309e+00
58 57 1.21837642737397256e+00
59 57 1.42545586948729719e+00
60 57 1.61906848429738282e+00
61 57 1.79588340787085143e+00
62 57 1.95307174729566646e+00
63 57 2.08845585501325814e+00
64 57 2.20060553307158591e+00
65 57 2.28887277687859791e+00
66 57 2.35336570769622488e+00
67 57 2.39487048601504560e+00
68 57 2.41473564037799093e+00
69 57 2.41473564037799093e+00
1 58 2.50455892852240147e+00
2 58 2.50455892852240147e+00
3 58 2.48395483054404043e+00
4 58 2.44090615830989233e+00
5 58 2.37401422073921120e+00
6 58 2.28246361375918161e+00
7 58 2.16614219421533072e+00
8 58 2.02572207116158953e+00
9 58 1.86268664302486608e+00
10 58 1.67929456145414147e+00
11 58 1.47847994846352027e+00
12 58 1.26369756939647582e+00
13 58 1.03872985108515214e+00
14 58 8.07477727340930151e-01
15 58 5.73758232076337249e-01
16 58 3.41128640794452320e-01
17 58 1.12750911221966080e-01
18 58 1.53360003754544125e-16
19 58 -1.12750911221965761e-01
20 58 -3.41128640794452098e-01
21 58 -5.73758232076336916e-01
22 58 -8.07477727340929707e-01
23 58 -1.03872985108515214e+00
24 58 -1.26369756939647582e+00
25 58 -1.47847994846352004e+00
26 58 -1.67929456145414102e+00
27 58 -1.86268664302486608e+00
28 58 -2.02572207116158953e+00
29 58 -2.16614219421533027e+00
30 58 -2.28246361375918072e+00
31 58 -2.37401422073921164e+00
32 58 -2.44090615830989233e+00
33 58 -2.48395483054403998e+00
34 58 -2.50455892852240147e+00
35 58 -2.50455892852240147e+00
36 58 -2.50455892852240147e+00
37 58 -2.48395483054404043e+00
38 58 -2.44090615830989233e+00
39 58 -2.37401422073921120e+00
40 58 -2.28246361375918161e+00
41 58 -2.16614219421533072e+00
42 58 -2.02572207116158953e+00
43 58 -1.86268664302486608e+00
44 58 -1.67929456145414169e+00
45 58 -1.47847994846352093e+00
46 58 -1.26369756939647648e+00
47 58 -1.03872985108515259e+00
48 58 -8.07477727340930374e-01
49 58 -5.73758232076337582e-01
50 58 -3.41128640794452542e-01
51 58 -1.12750911221966385e-01
52 58 -4.60080011263632376e-16
53 58 1.12750911221965441e-01
54 58 3.41128640794451543e-01
55 58 5.73758232076336472e-01
56 58 8.07477727340929152e-01
57 58 1.03872985108515170e+00
58 58 1.26369756939647471e+00
59 58 1.47847994846351849e+00
60 58 1.67929456145414036e+00
61 58 1.86268664302486520e+00
62 58 2.02572207116158864e+00
63 58 2.16614219421533027e+00
64 58 2.28246361375918072e+00
65 58 2.37401422073921076e+00
66 58 2.44090615830989233e+00
67 58 2.48395483054403909e+00
68 58 2.50455892852240147e+00
69 58 2.50455892852240147e+00
1 59 2.59031549692295382e+00
2 59 2.59031549692295293e+00
3 59 2.56900591075763485e+00
4 59 2.52448324389594614e+00
5 59 2.45530091381167725e+00
6 59 2.36061559684331979e+00
7 59 2.24031131003371575e+00
8 59 2.09508317557711354e+00
9 59 1.92646538374133880e+00
10 59 1.73679392283230571e+00
11 59 1.52910337975329913e+00
12 59 1.30696681166241624e+00
13 59 1.07429615639737408e+00
14 59 8.35125916476367136e-01
15 59 5.93403821770432605e-01
16 59 3.52808949564402341e-01
17 59 1.16611523611763385e-01
18 59 1.58611079104423994e-16
19 59 -1.16611523611763079e-01
20 59 -3.52808949564402063e-01
21 59 -5.93403821770432383e-01
22 59 -8.35125916476366692e-01
23 59 -1.07429615639737386e+00
24 59 -1.30696681166241646e+00
25 59 -1.52910337975329891e+00
26 59 -1.73679392283230505e+00
27 59 -1.92646538374133880e+00
28 59 -2.09508317557711354e+00
29 59 -2.24031131003371531e+00
30 59 -2.36061559684331934e+00
31 59 -2.45530091381167770e+00
32 59 -2.52448324389594614e+00
33 59 -2.56900591075763396e+00
34 59 -2.59031549692295293e+00
35 59 -2.59031549692295382e+00
36 59 -2.59031549692295293e+00
37 59 -2.56900591075763485e+00
38 59 -2.52448324389594614e+00
39 59 -2.45530091381167725e+00
40 59 -2.36061559684331979e+00
41 59 -2.24031131003371575e+00
42 59 -2.09508317557711354e+00
43 59 -1.92646538374133880e+00
44 59 -1.73679392283230616e+00
45 59 -1.52910337975329980e+00
46 59 -1.30696681166241691e+00
47 59 -1.07429615639737475e+00
48 59 -8.35125916476367469e-01
49 59 -5.93403821770432938e-01
50 59 -3.52808949564402619e-01
51 59 -1.16611523611763718e-01
52 59 -4.75833237313271981e-16
53 59 1.16611523611762732e-01
54 59 3.52808949564401564e-01
55 59 5.93403821770431827e-01
56 59 8.35125916476366026e-01
57 59 1.07429615639737341e+00
58 59 1.30696681166241513e+00
59 59 1.52910337975329735e+00
60 59 1.73679392283230483e+00
61 59 1.92646538374133791e+00
62 59 2.09508317557711310e+00
63 59 2.24031131003371531e+00
64 59 2.36061559684331934e+00
65 59 2.45530091381167681e+00
66 59 2.52448324389594569e+00
67 59 2.56900591075763307e+00
68 59 2.59031549692295293e+00
69 59 2.59031549692295382e+00
1 60 2.67049512883486617e+00
2 60 2.67049512883486573e+00
3 60 2.64852593391649771e+00
4 60 2.60262512950942249e+00
5 60 2.53130135612700968e+00
6 60 2.43368518619073937e+00
7 60 2.30965704665150628e+00
8 60 2.15993357624921778e+00
9 60 1.98609645398853840e+00
10 60 1.79055397546101580e+00
11 60 1.57643465900847946e+00
12 60 1.34742216082921162e+00
13 60 1.10754950738363300e+00
14 60 8.60976083632729483e-01
15 60 6.11771815963107146e-01
16 60 3.63729662406102883e-01
17 60 1.20221071966388635e-01
18 60 1.63520665583310842e-16
19 60 -1.20221071966388315e-01
20 60 -3.63729662406102494e-01
21 60 -6.11771815963106924e-01
22 60 -8.60976083632729150e-01
23 60 -1.10754950738363256e+00
24 60 -1.34742216082921185e+00
25 60 -1.57643465900847901e+00
26 60 -1.79055397546101513e+00
27 60 -1.98609645398853840e+00
28 60 -2.15993357624921778e+00
29 60 -2.30965704665150540e+00
30 60 -2.43368518619073937e+00
31 60 -2.53130135612700968e+00
32 60 -2.60262512950942249e+00
33 60 -2.64852593391649727e+00
34 60 -2.67049512883486573e+00
35 60 -2.67049512883486617e+00
36 60 -2.67049512883486573e+00
37 60 -2.64852593391649771e+00
38 60 -2.60262512950942249e+00
39 60 -2.53130135612700968e+00
40 60 -2.43368518619073937e+00
41 60 -2.30965704665150628e+00
42 60 -2.15993357624921778e+00
43 60 -1.98609645398853840e+00
44 60 -1.79055397546101669e+00
45 60 -1.57643465900848012e+00
46 60 -1.34742216082921251e+00
47 60 -1.10754950738363367e+00
48 60 -8.60976083632729927e-01
49 60 -6.11771815963107479e-01
50 60 -3.63729662406103160e-01
51 60 -1.20221071966388982e-01
52 60 -4.90561996749932575e-16
53 60 1.20221071966387955e-01
54 60 3.63729662406102050e-01
55 60 6.11771815963106258e-01
56 60 8.60976083632728262e-01
57 60 1.10754950738363234e+00
58 60 1.34742216082921051e+00
59 60 1.57643465900847768e+00
60 60 1.79055397546101491e+00
61 60 1.98609645398853774e+00
62 60 2.15993357624921734e+00
63 60 2.30965704665150540e+00
64 60 2.43368518619073937e+00
65 60 2.53130135612700924e+00
66 60 2.60262512950942204e+00
67 60 2.64852593391649638e+00
68 60 2.67049512883486573e+00
69 60 2.67049512883486617e+00
1 61 2.74371843353822964e+00
2 61 2.74371843353822920e+00
3 61 2.72114685704791004e+00
4 61 2.67398748131788500e+00
5 61 2.60070805471799060e+00
6 61 2.50041531050976618e+00
7 61 2.37298639702595127e+00
8 61 2.21915760279208829e+00
9 61 2.04055397546101602e+00
10 61 1.83964984458181213e+00
11 61 1.61965951051078583e+00
12 61 1.38436763299320975e+00
13 61 1.13791782155037513e+00
14 61 8.84583508875123936e-01
15 61 6.28546216187810258e-01
16 61 3.73702902054599662e-01
17 61 1.23517458501345753e-01
18 61 1.68004299869709103e-16
19 61 -1.23517458501345420e-01
20 61 -3.73702902054599273e-01
21 61 -6.28546216187810147e-01
22 61 -8.84583508875123714e-01
23 61 -1.13791782155037469e+00
24 61 -1.38436763299320997e+00
25 61 -1.61965951051078583e+00
26 61 -1.83964984458181124e+00
27 61 -2.04055397546101602e+00
28 61 -2.21915760279208785e+00
29 61 -2.37298639702595082e+00
30 61 -2.50041531050976573e+00
31 61 -2.60070805471799060e+00
32 61 -2.67398748131788455e+00
33 61 -2.72114685704790915e+00
34 61 -2.74371843353822920e+00
35 61 -2.74371843353822964e+00
36 61 -2.74371843353822920e+00
37 61 -2.72114685704791004e+00
38 61 -2.67398748131788500e+00
39 61 -2.60070805471799060e+00
40 61 -2.50041531050976618e+00
41 61 -2.37298639702595127e+00
42 61 -2.21915760279208829e+00
43 61 -2.04055397546101602e+00
44 61 -1.83964984458181258e+00
45 61 -1.61965951051078672e+00
46 61 -1.38436763299321064e+00
47 61 -1.13791782155037557e+00
48 61 -8.84583508875124380e-01
49 61 -6.28546216187810702e-01
50 61 -3.73702902054599939e-01
51 61 -1.23517458501346114e-01
52 61 -5.04012899609127458e-16
53 61 1.23517458501345045e-01
54 61 3.73702902054598773e-01
55 61 6.28546216187809481e-01
56 61 8.84583508875122715e-01
57 61 1.13791782155037424e+00
58 61 1.38436763299320842e+00
59 61 1.61965951051078427e+00
60 61 1.83964984458181080e+00
61 61 2.04055397546101513e+00
62 61 2.21915760279208740e+00
63 61 2.37298639702595038e+00
64 61 2.50041531050976573e+00
65 61 2.60070805471799016e+00
66 61 2.67398748131788411e+00
67 61 2.72114685704790826e+00
68 61 2.74371843353822875e+00
69 61 2.74371843353822964e+00
1 62 2.80881389856404518e+00
2 62 2.80881389856404518e+00
3 62 2.78570680529108383e+00
4 62 2.73742856056344364e+00
5 62 2.66241055966487528e+00
6 62 2.55973834286094082e+00
7 62 2.42928614379520624e+00
8 62 2.27180771963845807e+00
9 62 2.08896667274045855e+00
10 62 1.88329603679086199e+00
11 62 1.65808637229493083e+00
12 62 1.41721213107830279e+00
13 62 1.16491523092355997e+00
14 62 9.05570492874840371e-01
15 62 6.43458645879146585e-01
16 62 3.82569104903034918e-01
17 62 1.26447943751460595e-01
18 62 1.71990247513852807e-16
19 62 -1.26447943751460262e-01
20 62 -3.82569104903034474e-01
21 62 -6.43458645879146585e-01
22 62 -9.05570492874840260e-01
23 62 -1.16491523092355975e+00
24 62 -1.41721213107830302e+00
25 62 -1.65808637229493083e+00
26 62 -1.88329603679086111e+00
27 62 -2.08896667274045811e+00
28 62 -2.27180771963845718e+00
29 62 -2.42928614379520580e+00
30 62 -2.55973834286094037e+00
31 62 -2.66241055966487572e+00
32 62 -2.73742856056344275e+00
33 62 -2.78570680529108339e+00
34 62 -2.80881389856404518e+00
35 62 -2.80881389856404518e+00
36 62 -2.80881389856404518e+00
37 62 -2.78570680529108383e+00
38 62 -2.73742856056344364e+00
39 62 -2.66241055966487528e+00
40 62 -2.55973834286094082e+00
41 62 -2.42928614379520624e+00
42 62 -2.27180771963845807e+00
43 62 -2.08896667274045855e+00
44 62 -1.88329603679086244e+00
45 62 -1.65808637229493194e+00
46 62 -1.41721213107830368e+00
47 62 -1.16491523092356064e+00
48 62 -9.05570492874840816e-01
49 62 -6.43458645879147029e-01
50 62 -3.82569104903035195e-01
51 62 -1.26447943751460984e-01
52 62 -5.15970742541558519e-16
53 62 1.26447943751459874e-01
54 62 3.82569104903034030e-01
55 62 6.43458645879145807e-01
56 62 9.05570492874839261e-01
57 62 1.16491523092355886e+00
58 62 1.41721213107830146e+00
59 62 1.65808637229492950e+00
60 62 1.88329603679086066e+00
61 62 2.08896667274045722e+00
62 62 2.27180771963845674e+00
63 62 2.42928614379520535e+00
64 62 2.55973834286094037e+00
65 62 2.66241055966487528e+00
66 62 2.73742856056344186e+00
67 62 2.78570680529108161e+00
68 62 2.80881389856404429e+00
69 62 2.80881389856404518e+00
1 63 2.86487970777883705e+00
2 63 2.86487970777883705e+00
3 63 2.84131138142681294e+00
4 63 2.79206947055542809e+00
5 63 2.71555406004627464e+00
6 63 2.61083243693531086e+00
7 63 2.47777632448527951e+00
8 63 2.31715452536562205e+00
9 63 2.13066384854473689e+00
10 63 1.92088788876356498e+00
11 63 1.69118288832194819e+00
12 63 1.44550063570245957e+00
13 63 1.18816772021156702e+00
14 63 9.23646287255529663e-01
15 63 6.56302512002107652e-01
16 63 3.90205440816187632e-01
17 63 1.28971929514133027e-01
18 63 1.75423288203677854e-16
19 63 -1.28971929514132694e-01
20 63 -3.90205440816187243e-01
21 63 -6.56302512002107430e-01
22 63 -9.23646287255529441e-01
23 63 -1.18816772021156680e+00
24 63 -1.44550063570245979e+00
25 63 -1.69118288832194819e+00
26 63 -1.92088788876356387e+00
27 63 -2.13066384854473645e+00
28 63 -2.31715452536562116e+00
29 63 -2.47777632448527907e+00
30 63 -2.61083243693531042e+00
31 63 -2.71555406004627509e+00
32 63 -2.79206947055542720e+00
33 63 -2.84131138142681205e+00
34 63 -2.86487970777883705e+00
35 63 -2.86487970777883705e+00
36 63 -2.86487970777883705e+00
37 63 -2.84131138142681294e+00
38 63 -2.79206947055542809e+00
39 63 -2.71555406004627464e+00
40 63 -2.61083243693531086e+00
41 63 -2.47777632448527951e+00
42 63 -2.31715452536562205e+00
43 63 -2.13066384854473689e+00
44 63 -1.92088788876356542e+00
45 63 -1.69118288832194952e+00
46 63 -1.44550063570246046e+00
47 63 -1.18816772021156769e+00
48 63 -9.23646287255530107e-01
49 63 -6.56302512002108096e-01
50 63 -3.90205440816187965e-01
51 63 -1.28971929514133443e-01
52 63 -5.26269864611033686e-16
53 63 1.28971929514132305e-01
54 63 3.90205440816186744e-01
55 63 6.56302512002106764e-01
56 63 9.23646287255528442e-01
57 63 1.18816772021156569e+00
58 63 1.44550063570245824e+00
59 63 1.69118288832194708e+00
60 63 1.92088788876356364e+00
61 63 2.13066384854473556e+00
62 63 2.31715452536562072e+00
63 63 2.47777632448527863e+00
64 63 2.61083243693531042e+00
65 63 2.71555406004627420e+00
66 63 2.79206947055542587e+00
67 63 2.84131138142681072e+00
68 63 2.86487970777883616e+00
69 63 2.86487970777883705e+00
1 64 2.91132358187545348e+00
2 64 2.91132358187545393e+00
3 64 2.88737317861500298e+00
4 64 2.83733298462458228e+00
5 64 2.75957714783069274e+00
6 64 2.65315783463321209e+00
7 64 2.51794468874207844e+00
8 64 2.35471897623812421e+00
9 64 2.16520501383531938e+00
10 64 1.95202828010956608e+00
11 64 1.71859942693831980e+00
12 64 1.46893430705307781e+00
13 64 1.20742965007666192e+00
14 64 9.38619939293563021e-01
15 64 6.66942131932380944e-01
16 64 3.96531239528040869e-01
17 64 1.31062752399327104e-01
18 64 1.78267155291299023e-16
19 64 -1.31062752399326771e-01
20 64 -3.96531239528040369e-01
21 64 -6.66942131932380722e-01
22 64 -9.38619939293562910e-01
23 64 -1.20742965007666170e+00
24 64 -1.46893430705307781e+00
25 64 -1.71859942693831980e+00
26 64 -1.95202828010956519e+00
27 64 -2.16520501383531849e+00
28 64 -2.35471897623812376e+00
29 64 -2.51794468874207844e+00
30 64 -2.65315783463321164e+00
31 64 -2.75957714783069319e+00
32 64 -2.83733298462458183e+00
33 64 -2.88737317861500165e+00
34 64 -2.91132358187545348e+00
35 64 -2.91132358187545348e+00
36 64 -2.91132358187545393e+00
37 64 -2.88737317861500298e+00
38 64 -2.83733298462458228e+00
39 64 -2.75957714783069274e+00
40 64 -2.65315783463321209e+00
41 64 -2.51794468874207844e+00
42 64 -2.35471897623812421e+00
43 64 -2.16520501383531938e+00
44 64 -1.95202828010956653e+00
45 64 -1.71859942693832068e+00
46 64 -1.46893430705307870e+00
47 64 -1.20742965007666259e+00
48 64 -9.38619939293563466e-01
49 64 -6.66942131932381277e-01
50 64 -3.96531239528041202e-01
51 64 -1.31062752399327520e-01
52 64 -5.34801465873897217e-16
53 64 1.31062752399326354e-01
54 64 3.96531239528039869e-01
55 64 6.66942131932379945e-01
56 64 9.38619939293561911e-01
57 64 1.20742965007666081e+00
58 64 1.46893430705307626e+00
59 64 1.71859942693831846e+00
60 64 1.95202828010956475e+00
61 64 2.16520501383531760e+00
62 64 2.35471897623812287e+00
63 64 2.51794468874207755e+00
64 64 2.65315783463321164e+00
65 64 2.75957714783069141e+00
66 64 2.83733298462458050e+00
67 64 2.88737317861500076e+00
68 64 2.91132358187545304e+00
69 64 2.91132358187545348e+00
1 65 2.94787716659547439e+00
2 65 2.94787716659547527e+00
3 65 2.92362605025039501e+00
4 65 2.87295756867221819e+00
5 65 2.79422545614401407e+00
6 65 2.68646997839064960e+00
7 65 2.54955914241299997e+00
8 65 2.38428402360201597e+00
9 65 2.19239058860350067e+00
10 65 1.97653728060579303e+00
11 65 1.74017757446663457e+00
12 65 1.48737774459306471e+00
13 65 1.22258972444363123e+00
14 65 9.50404930726485797e-01
15 65 6.75316029590035671e-01
16 65 4.01509950361992884e-01
17 65 1.32708331562458759e-01
18 65 1.80505416817535807e-16
19 65 -1.32708331562458398e-01
20 65 -4.01509950361992440e-01
21 65 -6.75316029590035338e-01
22 65 -9.50404930726485686e-01
23 65 -1.22258972444363079e+00
24 65 -1.48737774459306471e+00
25 65 -1.74017757446663435e+00
26 65 -1.97653728060579215e+00
27 65 -2.19239058860349978e+00
28 65 -2.38428402360201552e+00
29 65 -2.54955914241299952e+00
30 65 -2.68646997839064916e+00
31 65 -2.79422545614401452e+00
32 65 -2.87295756867221819e+00
33 65 -2.92362605025039368e+00
34 65 -2.94787716659547483e+00
35 65 -2.94787716659547439e+00
36 65 -2.94787716659547527e+00
37 65 -2.92362605025039501e+00
38 65 -2.87295756867221819e+00
39 65 -2.79422545614401407e+00
40 65 -2.68646997839064960e+00
41 65 -2.54955914241299997e+00
42 65 -2.38428402360201597e+00
43 65 -2.19239058860350067e+00
44 65 -1.97653728060579326e+00
45 65 -1.74017757446663501e+00
46 65 -1.48737774459306538e+00
47 65 -1.22258972444363190e+00
48 65 -9.50404930726486352e-01
49 65 -6.75316029590036115e-01
50 65 -4.01509950361993218e-01
51 65 -1.32708331562459175e-01
52 65 -5.41516250452607521e-16
53 65 1.32708331562457982e-01
54 65 4.01509950361991885e-01
55 65 6.75316029590034672e-01
56 65 9.50404930726484798e-01
57 65 1.22258972444363012e+00
58 65 1.48737774459306293e+00
59 65 1.74017757446663301e+00
60 65 1.97653728060579148e+00
61 65 2.19239058860349845e+00
62 65 2.38428402360201419e+00
63 65 2.54955914241299864e+00
64 65 2.68646997839064916e+00
65 65 2.79422545614401274e+00
66 65 2.87295756867221641e+00
67 65 2.92362605025039324e+00
68 65 2.94787716659547439e+00
69 65 2.94787716659547439e+00
1 66 2.97458523754916815e+00
2 66 2.97458523754916815e+00
3 66 2.95011440359054911e+00
4 66 2.89898686034710362e+00
5 66 2.81954142676483199e+00
6 66 2.71080967327715339e+00
7 66 2.57265841101476678e+00
8 66 2.40588588259319813e+00
9 66 2.21225387329600931e+00
10 66 1.99444491208082053e+00
11 66 1.75594376264351770e+00
12 66 1.50085354025636053e+00
13 66 1.23366651335387201e+00
14 66 9.59015697352796237e-01
15 66 6.81434462419883702e-01
16 66 4.05147671894083294e-01
17 66 1.33910682724060870e-01
18 66 1.82140814497777856e-16
19 66 -1.33910682724060509e-01
20 66 -4.05147671894082850e-01
21 66 -6.81434462419883369e-01
22 66 -9.59015697352796126e-01
23 66 -1.23366651335387179e+00
24 66 -1.50085354025636053e+00
25 66 -1.75594376264351726e+00
26 66 -1.99444491208081942e+00
27 66 -2.21225387329600842e+00
28 66 -2.40588588259319724e+00
29 66 -2.57265841101476589e+00
30 66 -2.71080967327715294e+00
31 66 -2.81954142676483155e+00
32 66 -2.89898686034710362e+00
33 66 -2.95011440359054822e+00
34 66 -2.97458523754916815e+00
35 66 -2.97458523754916815e+00
36 66 -2.97458523754916815e+00
37 66 -2.95011440359054911e+00
38 66 -2.89898686034710362e+00
39 66 -2.81954142676483199e+00
40 66 -2.71080967327715339e+00
41 66 -2.57265841101476678e+00
42 66 -2.40588588259319813e+00
43 66 -2.21225387329600931e+00
44 66 -1.99444491208082053e+00
45 66 -1.75594376264351837e+00
46 66 -1.50085354025636120e+00
47 66 -1.23366651335387267e+00
48 66 -9.59015697352796903e-01
49 66 -6.81434462419884257e-01
50 66 -4.05147671894083683e-01
51 66 -1.33910682724061286e-01
52 66 -5.46422443493333717e-16
53 66 1.33910682724060093e-01
54 66 4.05147671894082295e-01
55 66 6.81434462419882703e-01
56 66 9.59015697352795349e-01
57 66 1.23366651335387112e+00
58 66 1.50085354025635875e+00
59 66 1.75594376264351615e+00
60 66 1.99444491208081875e+00
61 66 2.21225387329600665e+00
62 66 2.40588588259319636e+00
63 66 2.57265841101476544e+00
64 66 2.71080967327715294e+00
65 66 2.81954142676483066e+00
66 66 2.89898686034710229e+00
67 66 2.95011440359054777e+00
68 66 2.97458523754916770e+00
69 66 2.97458523754916815e+00
1 67 2.99177336266928418e+00
2 67 2.99177336266928373e+00
3 67 2.96716112823890654e+00
4 67 2.91573815335031705e+00
5 67 2.83583365810277632e+00
6 67 2.72647361702734070e+00
7 67 2.58752407164591869e+00
8 67 2.41978787708060583e+00
9 67 2.22503699878580097e+00
10 67 2.00596946624766259e+00
11 67 1.76609017926497303e+00
12 67 1.50952596225027502e+00
13 67 1.24079504143246022e+00
14 67 9.64557203304676980e-01
15 67 6.85372013327277485e-01
16 67 4.07488747479591462e-01
17 67 1.34684462389382448e-01
18 67 1.83193283618362559e-16
19 67 -1.34684462389382087e-01
20 67 -4.07488747479590963e-01
21 67 -6.85372013327277263e-01
22 67 -9.64557203304676758e-01
23 67 -1.24079504143245978e+00
24 67 -1.50952596225027480e+00
25 67 -1.76609017926497236e+00
26 67 -2.00596946624766126e+00
27 67 -2.22503699878580008e+00
28 67 -2.41978787708060494e+00
29 67 -2.58752407164591736e+00
30 67 -2.72647361702734026e+00
31 67 -2.83583365810277543e+00
32 67 -2.91573815335031661e+00
33 67 -2.96716112823890610e+00
34 67 -2.99177336266928373e+00
35 67 -2.99177336266928418e+00
36 67 -2.99177336266928373e+00
37 67 -2.96716112823890654e+00
38 67 -2.91573815335031705e+00
39 67 -2.83583365810277632e+00
40 67 -2.72647361702734070e+00
41 67 -2.58752407164591869e+00
42 67 -2.41978787708060583e+00
43 67 -2.22503699878580097e+00
44 67 -2.00596946624766259e+00
45 67 -1.76609017926497347e+00
46 67 -1.50952596225027569e+00
47 67 -1.24079504143246089e+00
48 67 -9.64557203304677646e-01
49 67 -6.85372013327278040e-01
50 67 -4.07488747479591795e-01
51 67 -1.34684462389382864e-01
52 67 -5.49579850855087825e-16
53 67 1.34684462389381671e-01
54 67 4.07488747479590407e-01
55 67 6.85372013327276486e-01
56 67 9.64557203304675981e-01
57 67 1.24079504143245933e+00
58 67 1.50952596225027347e+00
59 67 1.76609017926497125e+00
60 67 2.00596946624766082e+00
61 67 2.22503699878579830e+00
62 67 2.41978787708060405e+00
63 67 2.58752407164591691e+00
64 67 2.72647361702734026e+00
65 67 2.83583365810277455e+00
66 67 2.91573815335031528e+00
67 67 2.96716112823890565e+00
68 67 2.99177336266928329e+00
69 67 2.99177336266928418e+00
1 68 3.00000000000000000e+00
2 68 3.00000000000000044e+00
3 68 2.97532008800785164e+00
4 68 2.92375571264750356e+00
5 68 2.84363149978642404e+00
6 68 2.73397074562636000e+00
7 68 2.59463912333651114e+00
8 68 2.42644169569213508e+00
9 68 2.23115530061468847e+00
10 68 2.01148538650459896e+00
11 68 1.77094649076885990e+00
12 68 1.51367678556720353e+00
13 68 1.24420692113397258e+00
14 68 9.67209497223504355e-01
15 68 6.87256616974271539e-01
16 68 4.08609240824338471e-01
17 68 1.35054811373695682e-01
18 68 1.83697019872102944e-16
19 68 -1.35054811373695322e-01
20 68 -4.08609240824338027e-01
21 68 -6.87256616974271317e-01
22 68 -9.67209497223504022e-01
23 68 -1.24420692113397213e+00
24 68 -1.51367678556720331e+00
25 68 -1.77094649076885902e+00
26 68 -2.01148538650459763e+00
27 68 -2.23115530061468759e+00
28 68 -2.42644169569213419e+00
29 68 -2.59463912333650981e+00
30 68 -2.73397074562635911e+00
31 68 -2.84363149978642316e+00
32 68 -2.92375571264750356e+00
33 68 -2.97532008800785119e+00
34 68 -3.00000000000000044e+00
35 68 -3.00000000000000000e+00
36 68 -3.00000000000000044e+00
37 68 -2.97532008800785164e+00
38 68 -2.92375571264750356e+00
39 68 -2.84363149978642404e+00
40 68 -2.73397074562636000e+00
41 68 -2.59463912333651114e+00
42 68 -2.42644169569213508e+00
43 68 -2.23115530061468847e+00
44 68 -2.01148538650459896e+00
45 68 -1.77094649076886013e+00
46 68 -1.51367678556720420e+00
47 68 -1.24420692113397302e+00
48 68 -9.67209497223505021e-01
49 68 -6.87256616974272205e-01
50 68 -4.08609240824338860e-01
51 68 -1.35054811373696071e-01
52 68 -5.51091059616309054e-16
53 68 1.35054811373694905e-01
54 68 4.08609240824337472e-01
55 68 6.87256616974270651e-01
56 68 9.67209497223503356e-01
57 68 1.24420692113397147e+00
58 68 1.51367678556720220e+00
59 68 1.77094649076885813e+00
60 68 2.01148538650459718e+00
61 68 2.23115530061468581e+00
62 68 2.42644169569213330e+00
63 68 2.59463912333650892e+00
64 68 2.73397074562635867e+00
65 68 2.84363149978642227e+00
66 68 2.92375571264750223e+00
67 68 2.97532008800785075e+00
68 68 2.99999999999999956e+00
69 68 3.00000000000000000e+00
1 69 3.00000000000000000e+00
2 69 3.00000000000000000e+00
3 69 2.97532008800785119e+00
4 69 2.92375571264750400e+00
5 69 2.84363149978642404e+00
6 69 2.73397074562636044e+00
7 69 2.59463912333651114e+00
8 69 2.42644169569213508e+00
9 69 2.23115530061468803e+00
10 69 2.01148538650459896e+00
11 69 1.77094649076885990e+00
12 69 1.51367678556720375e+00
13 69 1.24420692113397258e+00
14 69 9.67209497223504355e-01
15 69 6.87256616974271650e-01
16 69 4.08609240824338416e-01
17 69 1.35054811373695682e-01
18 69 1.83697019872102969e-16
19 69 -1.35054811373695322e-01
20 69 -4.08609240824338027e-01
21 69 -6.87256616974271317e-01
22 69 -9.67209497223503911e-01
23 69 -1.24420692113397213e+00
24 69 -1.51367678556720309e+00
25 69 -1.77094649076885879e+00
26 69 -2.01148538650459763e+00
27 69 -2.23115530061468714e+00
28 69 -2.42644169569213419e+00
29 69 -2.59463912333650981e+00
30 69 -2.73397074562635911e+00
31 69 -2.84363149978642316e+00
32 69 -2.92375571264750356e+00
33 69 -2.97532008800785075e+00
34 69 -3.00000000000000000e+00
35 69 -3.00000000000000000e+00
36 69 -3.00000000000000000e+00
37 69 -2.97532008800785119e+00
38 69 -2.92375571264750400e+00
39 69 -2.84363149978642404e+00
40 69 -2.73397074562636044e+00
41 69 -2.59463912333651114e+00
42 69 -2.42644169569213508e+00
43 69 -2.23115530061468803e+00
44 69 -2.01148538650459896e+00
45 69 -1.77094649076885990e+00
46 69 -1.51367678556720420e+00
47 69 -1.24420692113397324e+00
48 69 -9.67209497223504910e-01
49 69 -6.87256616974272316e-01
50 69 -4.08609240824338860e-01
51 69 -1.35054811373696071e-01
52 69 -5.51091059616308956e-16
53 69 1.35054811373694877e-01
54 69 4.08609240824337472e-01
55 69 6.87256616974270651e-01
56 69 9.67209497223503356e-01
57 69 1.24420692113397147e+00
58 69 1.51367678556720220e+00
59 69 1.77094649076885813e+00
60 69 2.01148538650459674e+00
61 69 2.23115530061468581e+00
62 69 2.42644169569213286e+00
63 69 2.59463912333650892e+00
64 69 2.73397074562635822e+00
65 69 2.84363149978642227e+00
66 69 2.92375571264750267e+00
67 69 2.97532008800785031e+00
68 69 2.99999999999999956e+00
69 69 3.00000000000000000e+00
