%%MatrixMarket matrix coordinate  real general
69 69 4761
1 1 0.00000000000000000e+00
2 1 -1.35054811373695516e-01
3 1 -4.08609240824338249e-01
4 1 -6.87256616974271428e-01
5 1 -9.67209497223504022e-01
6 1 -1.24420692113397213e+00
7 1 -1.51367678556720309e+00
8 1 -1.77094649076885902e+00
9 1 -2.01148538650459807e+00
10 1 -2.23115530061468759e+00
11 1 -2.42644169569213464e+00
12 1 -2.59463912333651070e+00
13 1 -2.73397074562636000e+00
14 1 -2.84363149978642404e+00
15 1 -2.92375571264750400e+00
16 1 -2.97532008800785119e+00
17 1 -3.00000000000000000e+00
18 1 -3.00000000000000000e+00
19 1 -3.00000000000000000e+00
20 1 -2.97532008800785119e+00
21 1 -2.92375571264750400e+00
22 1 -2.84363149978642404e+00
23 1 -2.73397074562636044e+00
24 1 -2.59463912333651114e+00
25 1 -2.42644169569213508e+00
26 1 -2.23115530061468803e+00
27 1 -2.01148538650459896e+00
28 1 -1.77094649076885990e+00
29 1 -1.51367678556720375e+00
30 1 -1.24420692113397258e+00
31 1 -9.67209497223504355e-01
32 1 -6.87256616974271761e-01
33 1 -4.08609240824338527e-01
34 1 -1.35054811373695849e-01
35 1 -3.67394039744205888e-16
36 1 1.35054811373695099e-01
37 1 4.08609240824337805e-01
38 1 6.87256616974271206e-01
39 1 9.67209497223503800e-01
40 1 1.24420692113397213e+00
41 1 1.51367678556720309e+00
42 1 1.77094649076885902e+00
43 1 2.01148538650459807e+00
44 1 2.23115530061468759e+00
45 1 2.42644169569213464e+00
46 1 2.59463912333651026e+00
47 1 2.73397074562635956e+00
48 1 2.84363149978642360e+00
49 1 2.92375571264750356e+00
50 1 2.97532008800785075e+00
51 1 3.00000000000000000e+00
52 1 3.00000000000000000e+00
53 1 3.00000000000000000e+00
54 1 2.97532008800785119e+00
55 1 2.92375571264750400e+00
56 1 2.84363149978642404e+00
57 1 2.73397074562636044e+00
58 1 2.59463912333651114e+00
59 1 2.42644169569213508e+00
60 1 2.23115530061468803e+00
61 1 2.01148538650459896e+00
62 1 1.77094649076885990e+00
63 1 1.51367678556720375e+00
64 1 1.24420692113397280e+00
65 1 9.67209497223504577e-01
66 1 6.87256616974272094e-01
67 1 4.08609240824338860e-01
68 1 1.35054811373696210e-01
69 1 7.34788079488411776e-16
1 2 0.00000000000000000e+00
2 2 -1.35054811373695516e-01
3 2 -4.08609240824338305e-01
4 2 -6.87256616974271428e-01
5 2 -9.67209497223504133e-01
6 2 -1.24420692113397213e+00
7 2 -1.51367678556720309e+00
8 2 -1.77094649076885924e+00
9 2 -2.01148538650459807e+00
10 2 -2.23115530061468759e+00
11 2 -2.42644169569213464e+00
12 2 -2.59463912333651070e+00
13 2 -2.73397074562636044e+00
14 2 -2.84363149978642360e+00
15 2 -2.92375571264750356e+00
16 2 -2.97532008800785119e+00
17 2 -3.00000000000000044e+00
18 2 -3.00000000000000000e+00
19 2 -3.00000000000000044e+00
20 2 -2.97532008800785164e+00
21 2 -2.92375571264750356e+00
22 2 -2.84363149978642404e+00
23 2 -2.73397074562636000e+00
24 2 -2.59463912333651070e+00
25 2 -2.42644169569213553e+00
26 2 -2.23115530061468803e+00
27 2 -2.01148538650459896e+00
28 2 -1.77094649076885990e+00
29 2 -1.51367678556720375e+00
30 2 -1.24420692113397258e+00
31 2 -9.67209497223504244e-01
32 2 -6.87256616974271761e-01
33 2 -4.08609240824338471e-01
34 2 -1.35054811373695877e-01
35 2 -3.67394039744205839e-16
36 2 1.35054811373695127e-01
37 2 4.08609240824337860e-01
38 2 6.87256616974271317e-01
39 2 9.67209497223503800e-01
40 2 1.24420692113397213e+00
41 2 1.51367678556720309e+00
42 2 1.77094649076885924e+00
43 2 2.01148538650459807e+00
44 2 2.23115530061468759e+00
45 2 2.42644169569213464e+00
46 2 2.59463912333651070e+00
47 2 2.73397074562636000e+00
48 2 2.84363149978642316e+00
49 2 2.92375571264750356e+00
50 2 2.97532008800785031e+00
51 2 3.00000000000000044e+00
52 2 3.00000000000000000e+00
53 2 3.00000000000000044e+00
54 2 2.97532008800785164e+00
55 2 2.92375571264750356e+00
56 2 2.84363149978642404e+00
57 2 2.73397074562636000e+00
58 2 2.59463912333651070e+00
59 2 2.42644169569213553e+00
60 2 2.23115530061468803e+00
61 2 2.01148538650459896e+00
62 2 1.77094649076885990e+00
63 2 1.51367678556720375e+00
64 2 1.24420692113397302e+00
65 2 9.67209497223504466e-01
66 2 6.87256616974272205e-01
67 2 4.08609240824338804e-01
68 2 1.35054811373696182e-01
69 2 7.34788079488411678e-16
1 3 0.00000000000000000e+00
2 3 -1.34684462389382309e-01
3 3 -4.07488747479591185e-01
4 3 -6.85372013327277152e-01
5 3 -9.64557203304676758e-01
6 3 -1.24079504143246000e+00
7 3 -1.50952596225027458e+00
8 3 -1.76609017926497214e+00
9 3 -2.00596946624766215e+00
10 3 -2.22503699878580008e+00
11 3 -2.41978787708060539e+00
12 3 -2.58752407164591824e+00
13 3 -2.72647361702734115e+00
14 3 -2.83583365810277588e+00
15 3 -2.91573815335031661e+00
16 3 -2.96716112823890654e+00
17 3 -2.99177336266928373e+00
18 3 -2.99177336266928418e+00
19 3 -2.99177336266928373e+00
20 3 -2.96716112823890654e+00
21 3 -2.91573815335031661e+00
22 3 -2.83583365810277677e+00
23 3 -2.72647361702734115e+00
24 3 -2.58752407164591869e+00
25 3 -2.41978787708060583e+00
26 3 -2.22503699878580052e+00
27 3 -2.00596946624766259e+00
28 3 -1.76609017926497280e+00
29 3 -1.50952596225027502e+00
30 3 -1.24079504143246067e+00
31 3 -9.64557203304676869e-01
32 3 -6.85372013327277596e-01
33 3 -4.07488747479591518e-01
34 3 -1.34684462389382614e-01
35 3 -3.66386567236725118e-16
36 3 1.34684462389381893e-01
37 3 4.07488747479590685e-01
38 3 6.85372013327277152e-01
39 3 9.64557203304676647e-01
40 3 1.24079504143246000e+00
41 3 1.50952596225027458e+00
42 3 1.76609017926497214e+00
43 3 2.00596946624766215e+00
44 3 2.22503699878580008e+00
45 3 2.41978787708060539e+00
46 3 2.58752407164591736e+00
47 3 2.72647361702734115e+00
48 3 2.83583365810277588e+00
49 3 2.91573815335031572e+00
50 3 2.96716112823890521e+00
51 3 2.99177336266928373e+00
52 3 2.99177336266928418e+00
53 3 2.99177336266928373e+00
54 3 2.96716112823890654e+00
55 3 2.91573815335031661e+00
56 3 2.83583365810277677e+00
57 3 2.72647361702734115e+00
58 3 2.58752407164591869e+00
59 3 2.41978787708060583e+00
60 3 2.22503699878580052e+00
61 3 2.00596946624766259e+00
62 3 1.76609017926497280e+00
63 3 1.50952596225027502e+00
64 3 1.24079504143246111e+00
65 3 9.64557203304677091e-01
66 3 6.85372013327278040e-01
67 3 4.07488747479591795e-01
68 3 1.34684462389382920e-01
69 3 7.32773134473450236e-16
1 4 0.00000000000000000e+00
2 4 -1.33910682724060703e-01
3 4 -4.05147671894083183e-01
4 4 -6.81434462419883369e-01
5 4 -9.59015697352796237e-01
6 4 -1.23366651335387201e+00
7 4 -1.50085354025635986e+00
8 4 -1.75594376264351726e+00
9 4 -1.99444491208082031e+00
10 4 -2.21225387329600887e+00
11 4 -2.40588588259319858e+00
12 4 -2.57265841101476633e+00
13 4 -2.71080967327715339e+00
14 4 -2.81954142676483155e+00
15 4 -2.89898686034710362e+00
16 4 -2.95011440359054866e+00
17 4 -2.97458523754916770e+00
18 4 -2.97458523754916859e+00
19 4 -2.97458523754916770e+00
20 4 -2.95011440359054911e+00
21 4 -2.89898686034710362e+00
22 4 -2.81954142676483244e+00
23 4 -2.71080967327715383e+00
24 4 -2.57265841101476678e+00
25 4 -2.40588588259319858e+00
26 4 -2.21225387329600931e+00
27 4 -1.99444491208082053e+00
28 4 -1.75594376264351770e+00
29 4 -1.50085354025636031e+00
30 4 -1.23366651335387223e+00
31 4 -9.59015697352796237e-01
32 4 -6.81434462419883813e-01
33 4 -4.05147671894083405e-01
34 4 -1.33910682724061036e-01
35 4 -3.64281628995555664e-16
36 4 1.33910682724060315e-01
37 4 4.05147671894082684e-01
38 4 6.81434462419883369e-01
39 4 9.59015697352796126e-01
40 4 1.23366651335387201e+00
41 4 1.50085354025635986e+00
42 4 1.75594376264351726e+00
43 4 1.99444491208082031e+00
44 4 2.21225387329600887e+00
45 4 2.40588588259319858e+00
46 4 2.57265841101476589e+00
47 4 2.71080967327715339e+00
48 4 2.81954142676483155e+00
49 4 2.89898686034710273e+00
50 4 2.95011440359054689e+00
51 4 2.97458523754916770e+00
52 4 2.97458523754916859e+00
53 4 2.97458523754916770e+00
54 4 2.95011440359054911e+00
55 4 2.89898686034710362e+00
56 4 2.81954142676483244e+00
57 4 2.71080967327715383e+00
58 4 2.57265841101476678e+00
59 4 2.40588588259319858e+00
60 4 2.21225387329600931e+00
61 4 1.99444491208082053e+00
62 4 1.75594376264351770e+00
63 4 1.50085354025636031e+00
64 4 1.23366651335387245e+00
65 4 9.59015697352796681e-01
66 4 6.81434462419884368e-01
67 4 4.05147671894083738e-01
68 4 1.33910682724061370e-01
69 4 7.28563257991111327e-16
1 5 0.00000000000000000e+00
2 5 -1.32708331562458592e-01
3 5 -4.01509950361992829e-01
4 5 -6.75316029590035227e-01
5 5 -9.50404930726485797e-01
6 5 -1.22258972444363101e+00
7 5 -1.48737774459306427e+00
8 5 -1.74017757446663390e+00
9 5 -1.97653728060579326e+00
10 5 -2.19239058860350022e+00
11 5 -2.38428402360201641e+00
12 5 -2.54955914241299952e+00
13 5 -2.68646997839064916e+00
14 5 -2.79422545614401407e+00
15 5 -2.87295756867221774e+00
16 5 -2.92362605025039413e+00
17 5 -2.94787716659547439e+00
18 5 -2.94787716659547527e+00
19 5 -2.94787716659547439e+00
20 5 -2.92362605025039546e+00
21 5 -2.87295756867221774e+00
22 5 -2.79422545614401407e+00
23 5 -2.68646997839065005e+00
24 5 -2.54955914241299997e+00
25 5 -2.38428402360201641e+00
26 5 -2.19239058860350067e+00
27 5 -1.97653728060579348e+00
28 5 -1.74017757446663479e+00
29 5 -1.48737774459306449e+00
30 5 -1.22258972444363145e+00
31 5 -9.50404930726485797e-01
32 5 -6.75316029590035671e-01
33 5 -4.01509950361992995e-01
34 5 -1.32708331562458925e-01
35 5 -3.61010833635071565e-16
36 5 1.32708331562458232e-01
37 5 4.01509950361992329e-01
38 5 6.75316029590035227e-01
39 5 9.50404930726485797e-01
40 5 1.22258972444363101e+00
41 5 1.48737774459306427e+00
42 5 1.74017757446663390e+00
43 5 1.97653728060579326e+00
44 5 2.19239058860350022e+00
45 5 2.38428402360201641e+00
46 5 2.54955914241299908e+00
47 5 2.68646997839064916e+00
48 5 2.79422545614401407e+00
49 5 2.87295756867221730e+00
50 5 2.92362605025039279e+00
51 5 2.94787716659547439e+00
52 5 2.94787716659547527e+00
53 5 2.94787716659547439e+00
54 5 2.92362605025039546e+00
55 5 2.87295756867221774e+00
56 5 2.79422545614401407e+00
57 5 2.68646997839065005e+00
58 5 2.54955914241299997e+00
59 5 2.38428402360201641e+00
60 5 2.19239058860350067e+00
61 5 1.97653728060579348e+00
62 5 1.74017757446663479e+00
63 5 1.48737774459306449e+00
64 5 1.22258972444363168e+00
65 5 9.50404930726486241e-01
66 5 6.75316029590036226e-01
67 5 4.01509950361993273e-01
68 5 1.32708331562459286e-01
69 5 7.22021667270143131e-16
1 6 0.00000000000000000e+00
2 6 -1.31062752399326965e-01
3 6 -3.96531239528040869e-01
4 6 -6.66942131932380500e-01
5 6 -9.38619939293562910e-01
6 6 -1.20742965007666170e+00
7 6 -1.46893430705307759e+00
8 6 -1.71859942693831913e+00
9 6 -1.95202828010956653e+00
10 6 -2.16520501383531938e+00
11 6 -2.35471897623812465e+00
12 6 -2.51794468874207844e+00
13 6 -2.65315783463321164e+00
14 6 -2.75957714783069319e+00
15 6 -2.83733298462458183e+00
16 6 -2.88737317861500253e+00
17 6 -2.91132358187545304e+00
18 6 -2.91132358187545393e+00
19 6 -2.91132358187545348e+00
20 6 -2.88737317861500298e+00
21 6 -2.83733298462458183e+00
22 6 -2.75957714783069274e+00
23 6 -2.65315783463321209e+00
24 6 -2.51794468874207888e+00
25 6 -2.35471897623812465e+00
26 6 -2.16520501383531938e+00
27 6 -1.95202828010956675e+00
28 6 -1.71859942693832002e+00
29 6 -1.46893430705307781e+00
30 6 -1.20742965007666214e+00
31 6 -9.38619939293563132e-01
32 6 -6.66942131932380944e-01
33 6 -3.96531239528040980e-01
34 6 -1.31062752399327326e-01
35 6 -3.56534310582598046e-16
36 6 1.31062752399326632e-01
37 6 3.96531239528040369e-01
38 6 6.66942131932380389e-01
39 6 9.38619939293562910e-01
40 6 1.20742965007666170e+00
41 6 1.46893430705307759e+00
42 6 1.71859942693831913e+00
43 6 1.95202828010956653e+00
44 6 2.16520501383531938e+00
45 6 2.35471897623812465e+00
46 6 2.51794468874207800e+00
47 6 2.65315783463321164e+00
48 6 2.75957714783069274e+00
49 6 2.83733298462458183e+00
50 6 2.88737317861500076e+00
51 6 2.91132358187545304e+00
52 6 2.91132358187545393e+00
53 6 2.91132358187545348e+00
54 6 2.88737317861500298e+00
55 6 2.83733298462458183e+00
56 6 2.75957714783069274e+00
57 6 2.65315783463321209e+00
58 6 2.51794468874207888e+00
59 6 2.35471897623812465e+00
60 6 2.16520501383531938e+00
61 6 1.95202828010956675e+00
62 6 1.71859942693832002e+00
63 6 1.46893430705307781e+00
64 6 1.20742965007666236e+00
65 6 9.38619939293563466e-01
66 6 6.66942131932381499e-01
67 6 3.96531239528041313e-01
68 6 1.31062752399327659e-01
69 6 7.13068621165196092e-16
1 7 0.00000000000000000e+00
2 7 -1.28971929514132916e-01
3 7 -3.90205440816187688e-01
4 7 -6.56302512002107319e-01
5 7 -9.23646287255529663e-01
6 7 -1.18816772021156680e+00
7 7 -1.44550063570245957e+00
8 7 -1.69118288832194819e+00
9 7 -1.92088788876356498e+00
10 7 -2.13066384854473689e+00
11 7 -2.31715452536562250e+00
12 7 -2.47777632448527996e+00
13 7 -2.61083243693531042e+00
14 7 -2.71555406004627553e+00
15 7 -2.79206947055542765e+00
16 7 -2.84131138142681250e+00
17 7 -2.86487970777883660e+00
18 7 -2.86487970777883749e+00
19 7 -2.86487970777883705e+00
20 7 -2.84131138142681294e+00
21 7 -2.79206947055542765e+00
22 7 -2.71555406004627464e+00
23 7 -2.61083243693531086e+00
24 7 -2.47777632448527951e+00
25 7 -2.31715452536562250e+00
26 7 -2.13066384854473689e+00
27 7 -1.92088788876356542e+00
28 7 -1.69118288832194885e+00
29 7 -1.44550063570245979e+00
30 7 -1.18816772021156702e+00
31 7 -9.23646287255529774e-01
32 7 -6.56302512002107652e-01
33 7 -3.90205440816187743e-01
34 7 -1.28971929514133249e-01
35 7 -3.50846576407355610e-16
36 7 1.28971929514132583e-01
37 7 3.90205440816187132e-01
38 7 6.56302512002107208e-01
39 7 9.23646287255529663e-01
40 7 1.18816772021156680e+00
41 7 1.44550063570245957e+00
42 7 1.69118288832194819e+00
43 7 1.92088788876356498e+00
44 7 2.13066384854473689e+00
45 7 2.31715452536562250e+00
46 7 2.47777632448527907e+00
47 7 2.61083243693531042e+00
48 7 2.71555406004627509e+00
49 7 2.79206947055542765e+00
50 7 2.84131138142681028e+00
51 7 2.86487970777883660e+00
52 7 2.86487970777883749e+00
53 7 2.86487970777883705e+00
54 7 2.84131138142681294e+00
55 7 2.79206947055542765e+00
56 7 2.71555406004627464e+00
57 7 2.61083243693531086e+00
58 7 2.47777632448527951e+00
59 7 2.31715452536562250e+00
60 7 2.13066384854473689e+00
61 7 1.92088788876356542e+00
62 7 1.69118288832194885e+00
63 7 1.44550063570245979e+00
64 7 1.18816772021156725e+00
65 7 9.23646287255530107e-01
66 7 6.56302512002108207e-01
67 7 3.90205440816188076e-01
68 7 1.28971929514133582e-01
69 7 7.01693152814711220e-16
1 8 0.00000000000000000e+00
2 8 -1.26447943751460484e-01
3 8 -3.82569104903034918e-01
4 8 -6.43458645879146474e-01
5 8 -9.05570492874840371e-01
6 8 -1.16491523092355975e+00
7 8 -1.41721213107830302e+00
8 8 -1.65808637229493083e+00
9 8 -1.88329603679086222e+00
10 8 -2.08896667274045855e+00
11 8 -2.27180771963845807e+00
12 8 -2.42928614379520669e+00
13 8 -2.55973834286094082e+00
14 8 -2.66241055966487616e+00
15 8 -2.73742856056344319e+00
16 8 -2.78570680529108383e+00
17 8 -2.80881389856404429e+00
18 8 -2.80881389856404562e+00
19 8 -2.80881389856404518e+00
20 8 -2.78570680529108428e+00
21 8 -2.73742856056344319e+00
22 8 -2.66241055966487483e+00
23 8 -2.55973834286094082e+00
24 8 -2.42928614379520669e+00
25 8 -2.27180771963845851e+00
26 8 -2.08896667274045855e+00
27 8 -1.88329603679086244e+00
28 8 -1.65808637229493128e+00
29 8 -1.41721213107830279e+00
30 8 -1.16491523092355997e+00
31 8 -9.05570492874840371e-01
32 8 -6.43458645879146696e-01
33 8 -3.82569104903035029e-01
34 8 -1.26447943751460790e-01
35 8 -3.43980495027705466e-16
36 8 1.26447943751460151e-01
37 8 3.82569104903034418e-01
38 8 6.43458645879146363e-01
39 8 9.05570492874840371e-01
40 8 1.16491523092355975e+00
41 8 1.41721213107830302e+00
42 8 1.65808637229493083e+00
43 8 1.88329603679086222e+00
44 8 2.08896667274045855e+00
45 8 2.27180771963845807e+00
46 8 2.42928614379520580e+00
47 8 2.55973834286094082e+00
48 8 2.66241055966487528e+00
49 8 2.73742856056344319e+00
50 8 2.78570680529108206e+00
51 8 2.80881389856404429e+00
52 8 2.80881389856404562e+00
53 8 2.80881389856404518e+00
54 8 2.78570680529108428e+00
55 8 2.73742856056344319e+00
56 8 2.66241055966487483e+00
57 8 2.55973834286094082e+00
58 8 2.42928614379520669e+00
59 8 2.27180771963845851e+00
60 8 2.08896667274045855e+00
61 8 1.88329603679086244e+00
62 8 1.65808637229493128e+00
63 8 1.41721213107830279e+00
64 8 1.16491523092356020e+00
65 8 9.05570492874840705e-01
66 8 6.43458645879147251e-01
67 8 3.82569104903035362e-01
68 8 1.26447943751461123e-01
69 8 6.87960990055410931e-16
1 9 0.00000000000000000e+00
2 9 -1.23517458501345628e-01
3 9 -3.73702902054599606e-01
4 9 -6.28546216187810258e-01
5 9 -8.84583508875124047e-01
6 9 -1.13791782155037513e+00
7 9 -1.38436763299321020e+00
8 9 -1.61965951051078538e+00
9 9 -1.83964984458181258e+00
10 9 -2.04055397546101647e+00
11 9 -2.21915760279208873e+00
12 9 -2.37298639702595171e+00
13 9 -2.50041531050976618e+00
14 9 -2.60070805471799105e+00
15 9 -2.67398748131788500e+00
16 9 -2.72114685704790915e+00
17 9 -2.74371843353822831e+00
18 9 -2.74371843353822964e+00
19 9 -2.74371843353822920e+00
20 9 -2.72114685704791004e+00
21 9 -2.67398748131788500e+00
22 9 -2.60070805471799016e+00
23 9 -2.50041531050976618e+00
24 9 -2.37298639702595215e+00
25 9 -2.21915760279208918e+00
26 9 -2.04055397546101647e+00
27 9 -1.83964984458181258e+00
28 9 -1.61965951051078605e+00
29 9 -1.38436763299320975e+00
30 9 -1.13791782155037535e+00
31 9 -8.84583508875123936e-01
32 9 -6.28546216187810369e-01
33 9 -3.73702902054599717e-01
34 9 -1.23517458501345920e-01
35 9 -3.36008599739418108e-16
36 9 1.23517458501345295e-01
37 9 3.73702902054599106e-01
38 9 6.28546216187810036e-01
39 9 8.84583508875124047e-01
40 9 1.13791782155037513e+00
41 9 1.38436763299321020e+00
42 9 1.61965951051078538e+00
43 9 1.83964984458181258e+00
44 9 2.04055397546101647e+00
45 9 2.21915760279208873e+00
46 9 2.37298639702595127e+00
47 9 2.50041531050976618e+00
48 9 2.60070805471799016e+00
49 9 2.67398748131788500e+00
50 9 2.72114685704790826e+00
51 9 2.74371843353822831e+00
52 9 2.74371843353822964e+00
53 9 2.74371843353822920e+00
54 9 2.72114685704791004e+00
55 9 2.67398748131788500e+00
56 9 2.60070805471799016e+00
57 9 2.50041531050976618e+00
58 9 2.37298639702595215e+00
59 9 2.21915760279208918e+00
60 9 2.04055397546101647e+00
61 9 1.83964984458181258e+00
62 9 1.61965951051078605e+00
63 9 1.38436763299320997e+00
64 9 1.13791782155037557e+00
65 9 8.84583508875124158e-01
66 9 6.28546216187811035e-01
67 9 3.73702902054600050e-01
68 9 1.23517458501346267e-01
69 9 6.72017199478836216e-16
1 10 0.00000000000000000e+00
2 10 -1.20221071966388524e-01
3 10 -3.63729662406102772e-01
4 10 -6.11771815963107146e-01
5 10 -8.60976083632729594e-01
6 10 -1.10754950738363322e+00
7 10 -1.34742216082921185e+00
8 10 -1.57643465900847901e+00
9 10 -1.79055397546101625e+00
10 10 -1.98609645398853862e+00
11 10 -2.15993357624921867e+00
12 10 -2.30965704665150628e+00
13 10 -2.43368518619073937e+00
14 10 -2.53130135612701013e+00
15 10 -2.60262512950942293e+00
16 10 -2.64852593391649682e+00
17 10 -2.67049512883486573e+00
18 10 -2.67049512883486662e+00
19 10 -2.67049512883486617e+00
20 10 -2.64852593391649771e+00
21 10 -2.60262512950942337e+00
22 10 -2.53130135612700924e+00
23 10 -2.43368518619073937e+00
24 10 -2.30965704665150673e+00
25 10 -2.15993357624921911e+00
26 10 -1.98609645398853862e+00
27 10 -1.79055397546101625e+00
28 10 -1.57643465900847946e+00
29 10 -1.34742216082921140e+00
30 10 -1.10754950738363322e+00
31 10 -8.60976083632729483e-01
32 10 -6.11771815963107146e-01
33 10 -3.63729662406102938e-01
34 10 -1.20221071966388815e-01
35 10 -3.27041331166621684e-16
36 10 1.20221071966388204e-01
37 10 3.63729662406102328e-01
38 10 6.11771815963106924e-01
39 10 8.60976083632729594e-01
40 10 1.10754950738363322e+00
41 10 1.34742216082921185e+00
42 10 1.57643465900847901e+00
43 10 1.79055397546101625e+00
44 10 1.98609645398853862e+00
45 10 2.15993357624921867e+00
46 10 2.30965704665150584e+00
47 10 2.43368518619073937e+00
48 10 2.53130135612700924e+00
49 10 2.60262512950942293e+00
50 10 2.64852593391649638e+00
51 10 2.67049512883486573e+00
52 10 2.67049512883486662e+00
53 10 2.67049512883486617e+00
54 10 2.64852593391649771e+00
55 10 2.60262512950942337e+00
56 10 2.53130135612700924e+00
57 10 2.43368518619073937e+00
58 10 2.30965704665150673e+00
59 10 2.15993357624921911e+00
60 10 1.98609645398853862e+00
61 10 1.79055397546101625e+00
62 10 1.57643465900847968e+00
63 10 1.34742216082921162e+00
64 10 1.10754950738363367e+00
65 10 8.60976083632729927e-01
66 10 6.11771815963107812e-01
67 10 3.63729662406103216e-01
68 10 1.20221071966389148e-01
69 10 6.54082662333243368e-16
1 11 0.00000000000000000e+00
2 11 -1.16611523611763274e-01
3 11 -3.52808949564402174e-01
4 11 -5.93403821770432605e-01
5 11 -8.35125916476367247e-01
6 11 -1.07429615639737452e+00
7 11 -1.30696681166241646e+00
8 11 -1.52910337975329891e+00
9 11 -1.73679392283230594e+00
10 11 -1.92646538374133880e+00
11 11 -2.09508317557711443e+00
12 11 -2.24031131003371620e+00
13 11 -2.36061559684331979e+00
14 11 -2.45530091381167814e+00
15 11 -2.52448324389594614e+00
16 11 -2.56900591075763307e+00
17 11 -2.59031549692295293e+00
18 11 -2.59031549692295338e+00
19 11 -2.59031549692295338e+00
20 11 -2.56900591075763396e+00
21 11 -2.52448324389594658e+00
22 11 -2.45530091381167725e+00
23 11 -2.36061559684331979e+00
24 11 -2.24031131003371664e+00
25 11 -2.09508317557711488e+00
26 11 -1.92646538374133880e+00
27 11 -1.73679392283230594e+00
28 11 -1.52910337975329913e+00
29 11 -1.30696681166241624e+00
30 11 -1.07429615639737430e+00
31 11 -8.35125916476367136e-01
32 11 -5.93403821770432605e-01
33 11 -3.52808949564402397e-01
34 11 -1.16611523611763565e-01
35 11 -3.17222158208847988e-16
36 11 1.16611523611762982e-01
37 11 3.52808949564401730e-01
38 11 5.93403821770432383e-01
39 11 8.35125916476367136e-01
40 11 1.07429615639737452e+00
41 11 1.30696681166241646e+00
42 11 1.52910337975329891e+00
43 11 1.73679392283230594e+00
44 11 1.92646538374133880e+00
45 11 2.09508317557711443e+00
46 11 2.24031131003371575e+00
47 11 2.36061559684331979e+00
48 11 2.45530091381167681e+00
49 11 2.52448324389594614e+00
50 11 2.56900591075763307e+00
51 11 2.59031549692295293e+00
52 11 2.59031549692295338e+00
53 11 2.59031549692295338e+00
54 11 2.56900591075763396e+00
55 11 2.52448324389594658e+00
56 11 2.45530091381167725e+00
57 11 2.36061559684331979e+00
58 11 2.24031131003371664e+00
59 11 2.09508317557711488e+00
60 11 1.92646538374133880e+00
61 11 1.73679392283230594e+00
62 11 1.52910337975329935e+00
63 11 1.30696681166241646e+00
64 11 1.07429615639737497e+00
65 11 8.35125916476367580e-01
66 11 5.93403821770433160e-01
67 11 3.52808949564402619e-01
68 11 1.16611523611763870e-01
69 11 6.34444316417695975e-16
1 12 0.00000000000000000e+00
2 12 -1.12750911221965941e-01
3 12 -3.41128640794452154e-01
4 12 -5.73758232076337249e-01
5 12 -8.07477727340930262e-01
6 12 -1.03872985108515259e+00
7 12 -1.26369756939647582e+00
8 12 -1.47847994846352004e+00
9 12 -1.67929456145414191e+00
10 12 -1.86268664302486631e+00
11 12 -2.02572207116158998e+00
12 12 -2.16614219421533116e+00
13 12 -2.28246361375918116e+00
14 12 -2.37401422073921164e+00
15 12 -2.44090615830989277e+00
16 12 -2.48395483054403954e+00
17 12 -2.50455892852240103e+00
18 12 -2.50455892852240147e+00
19 12 -2.50455892852240103e+00
20 12 -2.48395483054403998e+00
21 12 -2.44090615830989321e+00
22 12 -2.37401422073921120e+00
23 12 -2.28246361375918161e+00
24 12 -2.16614219421533116e+00
25 12 -2.02572207116159042e+00
26 12 -1.86268664302486631e+00
27 12 -1.67929456145414191e+00
28 12 -1.47847994846352004e+00
29 12 -1.26369756939647582e+00
30 12 -1.03872985108515214e+00
31 12 -8.07477727340930151e-01
32 12 -5.73758232076337249e-01
33 12 -3.41128640794452431e-01
34 12 -1.12750911221966232e-01
35 12 -3.06720007509088300e-16
36 12 1.12750911221965677e-01
37 12 3.41128640794451765e-01
38 12 5.73758232076337027e-01
39 12 8.07477727340930151e-01
40 12 1.03872985108515259e+00
41 12 1.26369756939647582e+00
42 12 1.47847994846352004e+00
43 12 1.67929456145414191e+00
44 12 1.86268664302486631e+00
45 12 2.02572207116158998e+00
46 12 2.16614219421533072e+00
47 12 2.28246361375918116e+00
48 12 2.37401422073921076e+00
49 12 2.44090615830989277e+00
50 12 2.48395483054403954e+00
51 12 2.50455892852240103e+00
52 12 2.50455892852240147e+00
53 12 2.50455892852240103e+00
54 12 2.48395483054403998e+00
55 12 2.44090615830989321e+00
56 12 2.37401422073921120e+00
57 12 2.28246361375918161e+00
58 12 2.16614219421533116e+00
59 12 2.02572207116159042e+00
60 12 1.86268664302486631e+00
61 12 1.67929456145414191e+00
62 12 1.47847994846352027e+00
63 12 1.26369756939647604e+00
64 12 1.03872985108515303e+00
65 12 8.07477727340930596e-01
66 12 5.73758232076337693e-01
67 12 3.41128640794452598e-01
68 12 1.12750911221966524e-01
69 12 6.13440015018176600e-16
1 13 0.00000000000000000e+00
2 13 -1.08707222142863130e-01
3 13 -3.28894432268774350e-01
4 13 -5.53181015697793099e-01
5 13 -7.78518414885891241e-01
6 13 -1.00147693215572375e+00
7 13 -1.21837642737397323e+00
8 13 -1.42545586948729897e+00
9 13 -1.61906848429738415e+00
10 13 -1.79588340787085232e+00
11 13 -1.95307174729566801e+00
12 13 -2.08845585501325948e+00
13 13 -2.20060553307158635e+00
14 13 -2.28887277687859880e+00
15 13 -2.35336570769622533e+00
16 13 -2.39487048601504560e+00
17 13 -2.41473564037799093e+00
18 13 -2.41473564037799093e+00
19 13 -2.41473564037799093e+00
20 13 -2.39487048601504604e+00
21 13 -2.35336570769622577e+00
22 13 -2.28887277687859880e+00
23 13 -2.20060553307158679e+00
24 13 -2.08845585501325903e+00
25 13 -1.95307174729566824e+00
26 13 -1.79588340787085232e+00
27 13 -1.61906848429738415e+00
28 13 -1.42545586948729897e+00
29 13 -1.21837642737397345e+00
30 13 -1.00147693215572331e+00
31 13 -7.78518414885891130e-01
32 13 -5.53181015697793099e-01
33 13 -3.28894432268774684e-01
34 13 -1.08707222142863408e-01
35 13 -2.95719827277594061e-16
36 13 1.08707222142862867e-01
37 13 3.28894432268774017e-01
38 13 5.53181015697792877e-01
39 13 7.78518414885891130e-01
40 13 1.00147693215572375e+00
41 13 1.21837642737397323e+00
42 13 1.42545586948729897e+00
43 13 1.61906848429738415e+00
44 13 1.79588340787085232e+00
45 13 1.95307174729566801e+00
46 13 2.08845585501325903e+00
47 13 2.20060553307158635e+00
48 13 2.28887277687859836e+00
49 13 2.35336570769622533e+00
50 13 2.39487048601504560e+00
51 13 2.41473564037799093e+00
52 13 2.41473564037799093e+00
53 13 2.41473564037799093e+00
54 13 2.39487048601504604e+00
55 13 2.35336570769622577e+00
56 13 2.28887277687859880e+00
57 13 2.20060553307158679e+00
58 13 2.08845585501325903e+00
59 13 1.95307174729566824e+00
60 13 1.79588340787085232e+00
61 13 1.61906848429738415e+00
62 13 1.42545586948729919e+00
63 13 1.21837642737397367e+00
64 13 1.00147693215572420e+00
65 13 7.78518414885891463e-01
66 13 5.53181015697793432e-01
67 13 3.28894432268774739e-01
68 13 1.08707222142863685e-01
69 13 5.91439654555188123e-16
1 14 0.00000000000000000e+00
2 14 -1.04550573827615595e-01
3 14 -3.16318464813846179e-01
4 14 -5.32028980979204591e-01
5 14 -7.48750132762263543e-01
6 14 -9.63183364159536426e-01
7 14 -1.17178925290339619e+00
8 14 -1.37095057883993698e+00
9 14 -1.55716000982012548e+00
10 14 -1.72721404446924587e+00
11 14 -1.87839195852059371e+00
12 14 -2.00859937133086719e+00
13 14 -2.11646077156213286e+00
14 14 -2.20135293243509844e+00
15 14 -2.26337984096879508e+00
16 14 -2.30329759716090754e+00
17 14 -2.32240316574116878e+00
18 14 -2.32240316574116834e+00
19 14 -2.32240316574116878e+00
20 14 -2.30329759716090843e+00
21 14 -2.26337984096879508e+00
22 14 -2.20135293243509889e+00
23 14 -2.11646077156213286e+00
24 14 -2.00859937133086675e+00
25 14 -1.87839195852059371e+00
26 14 -1.72721404446924587e+00
27 14 -1.55716000982012548e+00
28 14 -1.37095057883993698e+00
29 14 -1.17178925290339619e+00
30 14 -9.63183364159536204e-01
31 14 -7.48750132762263432e-01
32 14 -5.32028980979204702e-01
33 14 -3.16318464813846456e-01
34 14 -1.04550573827615859e-01
35 14 -2.84412360325460136e-16
36 14 1.04550573827615345e-01
37 14 3.16318464813845845e-01
38 14 5.32028980979204369e-01
39 14 7.48750132762263321e-01
40 14 9.63183364159536426e-01
41 14 1.17178925290339619e+00
42 14 1.37095057883993698e+00
43 14 1.55716000982012548e+00
44 14 1.72721404446924587e+00
45 14 1.87839195852059371e+00
46 14 2.00859937133086675e+00
47 14 2.11646077156213286e+00
48 14 2.20135293243509844e+00
49 14 2.26337984096879508e+00
50 14 2.30329759716090754e+00
51 14 2.32240316574116878e+00
52 14 2.32240316574116834e+00
53 14 2.32240316574116878e+00
54 14 2.30329759716090843e+00
55 14 2.26337984096879508e+00
56 14 2.20135293243509889e+00
57 14 2.11646077156213286e+00
58 14 2.00859937133086675e+00
59 14 1.87839195852059371e+00
60 14 1.72721404446924587e+00
61 14 1.55716000982012548e+00
62 14 1.37095057883993721e+00
63 14 1.17178925290339664e+00
64 14 9.63183364159536759e-01
65 14 7.48750132762263543e-01
66 14 5.32028980979204924e-01
67 14 3.16318464813846567e-01
68 14 1.04550573827616122e-01
69 14 5.68824720650920273e-16
1 15 0.00000000000000000e+00
2 15 -1.00349575668106372e-01
3 15 -3.03608316606598871e-01
4 15 -5.10651262157838848e-01
5 15 -7.18664234478693098e-01
6 15 -9.24481218470926902e-01
7 15 -1.12470501113829169e+00
8 15 -1.31586373763349118e+00
9 15 -1.49459099564999165e+00
10 15 -1.65781200528142092e+00
11 15 -1.80291536502438876e+00
12 15 -1.92789084957693380e+00
13 15 -2.03141821770043940e+00
14 15 -2.11289928479813716e+00
15 15 -2.17243385953537116e+00
16 15 -2.21074766068299677e+00
17 15 -2.22908553899142436e+00
18 15 -2.22908553899142436e+00
19 15 -2.22908553899142436e+00
20 15 -2.21074766068299766e+00
21 15 -2.17243385953537116e+00
22 15 -2.11289928479813716e+00
23 15 -2.03141821770043940e+00
24 15 -1.92789084957693335e+00
25 15 -1.80291536502438876e+00
26 15 -1.65781200528142092e+00
27 15 -1.49459099564999165e+00
28 15 -1.31586373763349118e+00
29 15 -1.12470501113829191e+00
30 15 -9.24481218470926791e-01
31 15 -7.18664234478693098e-01
32 15 -5.10651262157839070e-01
33 15 -3.03608316606599149e-01
34 15 -1.00349575668106650e-01
35 15 -2.72984247035149980e-16
36 15 1.00349575668106136e-01
37 15 3.03608316606598594e-01
38 15 5.10651262157838737e-01
39 15 7.18664234478693098e-01
40 15 9.24481218470926902e-01
41 15 1.12470501113829169e+00
42 15 1.31586373763349118e+00
43 15 1.49459099564999165e+00
44 15 1.65781200528142092e+00
45 15 1.80291536502438876e+00
46 15 1.92789084957693335e+00
47 15 2.03141821770043940e+00
48 15 2.11289928479813716e+00
49 15 2.17243385953537116e+00
50 15 2.21074766068299677e+00
51 15 2.22908553899142436e+00
52 15 2.22908553899142436e+00
53 15 2.22908553899142436e+00
54 15 2.21074766068299766e+00
55 15 2.17243385953537116e+00
56 15 2.11289928479813716e+00
57 15 2.03141821770043940e+00
58 15 1.92789084957693335e+00
59 15 1.80291536502438876e+00
60 15 1.65781200528142092e+00
61 15 1.49459099564999165e+00
62 15 1.31586373763349140e+00
63 15 1.12470501113829213e+00
64 15 9.24481218470927235e-01
65 15 7.18664234478693209e-01
66 15 5.10651262157839292e-01
67 15 3.03608316606599260e-01
68 15 1.00349575668106886e-01
69 15 5.45968494070299961e-16
1 16 0.00000000000000000e+00
2 16 -9.61681680208058692e-02
3 16 -2.90957439625896819e-01
4 16 -4.89373234039887695e-01
5 16 -6.88718635746623509e-01
6 16 -8.85959552475197087e-01
7 16 -1.07784033728969519e+00
8 16 -1.26103378286074963e+00
9 16 -1.43231375952627604e+00
10 16 -1.58873360858149892e+00
11 16 -1.72779074148156564e+00
12 16 -1.84755869582430221e+00
13 16 -1.94677224272938787e+00
14 16 -2.02485812300338308e+00
15 16 -2.08191198644285969e+00
16 16 -2.11862931226859930e+00
17 16 -2.13620308027477979e+00
18 16 -2.13620308027477979e+00
19 16 -2.13620308027477979e+00
20 16 -2.11862931226860018e+00
21 16 -2.08191198644285969e+00
22 16 -2.02485812300338308e+00
23 16 -1.94677224272938831e+00
24 16 -1.84755869582430199e+00
25 16 -1.72779074148156564e+00
26 16 -1.58873360858149892e+00
27 16 -1.43231375952627626e+00
28 16 -1.26103378286074963e+00
29 16 -1.07784033728969564e+00
30 16 -8.85959552475196976e-01
31 16 -6.88718635746623620e-01
32 16 -4.89373234039887917e-01
33 16 -2.90957439625897096e-01
34 16 -9.61681680208061468e-02
35 16 -2.61609426458722518e-16
36 16 9.61681680208056611e-02
37 16 2.90957439625896652e-01
38 16 4.89373234039887639e-01
39 16 6.88718635746623509e-01
40 16 8.85959552475197087e-01
41 16 1.07784033728969519e+00
42 16 1.26103378286074963e+00
43 16 1.43231375952627604e+00
44 16 1.58873360858149892e+00
45 16 1.72779074148156564e+00
46 16 1.84755869582430199e+00
47 16 1.94677224272938787e+00
48 16 2.02485812300338308e+00
49 16 2.08191198644285969e+00
50 16 2.11862931226859930e+00
51 16 2.13620308027477979e+00
52 16 2.13620308027477979e+00
53 16 2.13620308027477979e+00
54 16 2.11862931226860018e+00
55 16 2.08191198644285969e+00
56 16 2.02485812300338308e+00
57 16 1.94677224272938831e+00
58 16 1.84755869582430199e+00
59 16 1.72779074148156564e+00
60 16 1.58873360858149892e+00
61 16 1.43231375952627626e+00
62 16 1.26103378286074985e+00
63 16 1.07784033728969586e+00
64 16 8.85959552475197420e-01
65 16 6.88718635746623731e-01
66 16 4.89373234039888139e-01
67 16 2.90957439625897263e-01
68 16 9.61681680208063827e-02
69 16 5.23218852917445035e-16
1 17 0.00000000000000000e+00
2 17 -9.20631855908174840e-02
3 17 -2.78537787654567659e-01
4 17 -4.68484112735156999e-01
5 17 -6.59320364394154645e-01
6 17 -8.48141961983047588e-01
7 17 -1.03183222735097080e+00
8 17 -1.20720597654187234e+00
9 17 -1.37117478872032361e+00
10 17 -1.52091778466200700e+00
11 17 -1.65403919996375337e+00
12 17 -1.76869480415600933e+00
13 17 -1.86367337523443610e+00
14 17 -1.93842612383761059e+00
15 17 -1.99304461690659918e+00
16 17 -2.02819464681215234e+00
17 17 -2.04501827045789852e+00
18 17 -2.04501827045789852e+00
19 17 -2.04501827045789852e+00
20 17 -2.02819464681215278e+00
21 17 -1.99304461690659918e+00
22 17 -1.93842612383761059e+00
23 17 -1.86367337523443632e+00
24 17 -1.76869480415600933e+00
25 17 -1.65403919996375315e+00
26 17 -1.52091778466200700e+00
27 17 -1.37117478872032383e+00
28 17 -1.20720597654187256e+00
29 17 -1.03183222735097124e+00
30 17 -8.48141961983047588e-01
31 17 -6.59320364394154756e-01
32 17 -4.68484112735157165e-01
33 17 -2.78537787654567937e-01
34 17 -9.20631855908177477e-02
35 17 -2.50442507911412187e-16
36 17 9.20631855908172758e-02
37 17 2.78537787654567548e-01
38 17 4.68484112735156999e-01
39 17 6.59320364394154645e-01
40 17 8.48141961983047588e-01
41 17 1.03183222735097080e+00
42 17 1.20720597654187234e+00
43 17 1.37117478872032361e+00
44 17 1.52091778466200700e+00
45 17 1.65403919996375337e+00
46 17 1.76869480415600933e+00
47 17 1.86367337523443610e+00
48 17 1.93842612383761059e+00
49 17 1.99304461690659918e+00
50 17 2.02819464681215234e+00
51 17 2.04501827045789852e+00
52 17 2.04501827045789852e+00
53 17 2.04501827045789852e+00
54 17 2.02819464681215278e+00
55 17 1.99304461690659918e+00
56 17 1.93842612383761059e+00
57 17 1.86367337523443632e+00
58 17 1.76869480415600933e+00
59 17 1.65403919996375315e+00
60 17 1.52091778466200700e+00
61 17 1.37117478872032383e+00
62 17 1.20720597654187278e+00
63 17 1.03183222735097146e+00
64 17 8.48141961983047921e-01
65 17 6.59320364394154979e-01
66 17 4.68484112735157443e-01
67 17 2.78537787654568103e-01
68 17 9.20631855908179697e-02
69 17 5.00885015822824375e-16
1 18 0.00000000000000000e+00
2 18 -9.00365409157969920e-02
3 18 -2.72406160549558740e-01
4 18 -4.58171077982847619e-01
5 18 -6.44806331482336015e-01
6 18 -8.29471280755981422e-01
7 18 -1.00911785704480184e+00
8 18 -1.18063099384590586e+00
9 18 -1.34099025766973190e+00
10 18 -1.48743686707645817e+00
11 18 -1.61762779712808968e+00
12 18 -1.72975941555767343e+00
13 18 -1.82264716375090607e+00
14 18 -1.89575433319094899e+00
15 18 -1.94917047509833563e+00
16 18 -1.98354672533856724e+00
17 18 -2.00000000000000000e+00
18 18 -2.00000000000000000e+00
19 18 -2.00000000000000000e+00
20 18 -1.98354672533856724e+00
21 18 -1.94917047509833563e+00
22 18 -1.89575433319094899e+00
23 18 -1.82264716375090630e+00
24 18 -1.72975941555767321e+00
25 18 -1.61762779712808946e+00
26 18 -1.48743686707645817e+00
27 18 -1.34099025766973212e+00
28 18 -1.18063099384590608e+00
29 18 -1.00911785704480206e+00
30 18 -8.29471280755981533e-01
31 18 -6.44806331482336126e-01
32 18 -4.58171077982847785e-01
33 18 -2.72406160549559018e-01
34 18 -9.00365409157972418e-02
35 18 -2.44929359829470641e-16
36 18 9.00365409157967839e-02
37 18 2.72406160549558685e-01
38 18 4.58171077982847619e-01
39 18 6.44806331482336015e-01
40 18 8.29471280755981422e-01
41 18 1.00911785704480184e+00
42 18 1.18063099384590586e+00
43 18 1.34099025766973190e+00
44 18 1.48743686707645817e+00
45 18 1.61762779712808968e+00
46 18 1.72975941555767343e+00
47 18 1.82264716375090607e+00
48 18 1.89575433319094899e+00
49 18 1.94917047509833563e+00
50 18 1.98354672533856724e+00
51 18 2.00000000000000000e+00
52 18 2.00000000000000000e+00
53 18 2.00000000000000000e+00
54 18 1.98354672533856724e+00
55 18 1.94917047509833563e+00
56 18 1.89575433319094899e+00
57 18 1.82264716375090630e+00
58 18 1.72975941555767321e+00
59 18 1.61762779712808946e+00
60 18 1.48743686707645817e+00
61 18 1.34099025766973212e+00
62 18 1.18063099384590631e+00
63 18 1.00911785704480250e+00
64 18 8.29471280755981755e-01
65 18 6.44806331482336348e-01
66 18 4.58171077982848063e-01
67 18 2.72406160549559240e-01
68 18 9.00365409157974639e-02
69 18 4.89858719658941283e-16
1 19 0.00000000000000000e+00
2 19 -8.80098962407765001e-02
3 19 -2.66274533444549877e-01
4 19 -4.47858043230538239e-01
5 19 -6.30292298570517384e-01
6 19 -8.10800599528915145e-01
7 19 -9.86403486738632873e-01
8 19 -1.15405601114993983e+00
9 19 -1.31080572661914041e+00
10 19 -1.45395594949090978e+00
11 19 -1.58121639429242600e+00
12 19 -1.69082402695933776e+00
13 19 -1.78162095226737627e+00
14 19 -1.85308254254428717e+00
15 19 -1.90529633329007186e+00
16 19 -1.93889880386498192e+00
17 19 -1.95498172954210170e+00
18 19 -1.95498172954210170e+00
19 19 -1.95498172954210170e+00
20 19 -1.93889880386498215e+00
21 19 -1.90529633329007186e+00
22 19 -1.85308254254428717e+00
23 19 -1.78162095226737627e+00
24 19 -1.69082402695933731e+00
25 19 -1.58121639429242600e+00
26 19 -1.45395594949090978e+00
27 19 -1.31080572661914085e+00
28 19 -1.15405601114993961e+00
29 19 -9.86403486738633206e-01
30 19 -8.10800599528915589e-01
31 19 -6.30292298570517495e-01
32 19 -4.47858043230538405e-01
33 19 -2.66274533444550099e-01
34 19 -8.80098962407767499e-02
35 19 -2.39416211747529095e-16
36 19 8.80098962407763058e-02
37 19 2.66274533444549821e-01
38 19 4.47858043230538239e-01
39 19 6.30292298570517384e-01
40 19 8.10800599528915145e-01
41 19 9.86403486738632873e-01
42 19 1.15405601114993983e+00
43 19 1.31080572661914041e+00
44 19 1.45395594949090978e+00
45 19 1.58121639429242600e+00
46 19 1.69082402695933776e+00
47 19 1.78162095226737627e+00
48 19 1.85308254254428717e+00
49 19 1.90529633329007186e+00
50 19 1.93889880386498192e+00
51 19 1.95498172954210170e+00
52 19 1.95498172954210170e+00
53 19 1.95498172954210170e+00
54 19 1.93889880386498215e+00
55 19 1.90529633329007186e+00
56 19 1.85308254254428717e+00
57 19 1.78162095226737627e+00
58 19 1.69082402695933731e+00
59 19 1.58121639429242600e+00
60 19 1.45395594949090978e+00
61 19 1.31080572661914085e+00
62 19 1.15405601114993983e+00
63 19 9.86403486738633539e-01
64 19 8.10800599528915811e-01
65 19 6.30292298570517606e-01
66 19 4.47858043230538627e-01
67 19 2.66274533444550321e-01
68 19 8.80098962407769581e-02
69 19 4.78832423495058191e-16
1 20 0.00000000000000000e+00
2 20 -8.39049138107881148e-02
3 20 -2.53854881473220717e-01
4 20 -4.26968921925807599e-01
5 20 -6.00894027218048632e-01
6 20 -7.72983009036765756e-01
7 20 -9.40395376799908700e-01
8 20 -1.10022820483106254e+00
9 20 -1.24966675581318776e+00
10 20 -1.38614012557141786e+00
11 20 -1.50746485277461351e+00
12 20 -1.61196013529104509e+00
13 20 -1.69852208477242450e+00
14 20 -1.76665054337851513e+00
15 20 -1.81642896375381113e+00
16 20 -1.84846413840853496e+00
17 20 -1.86379691972522066e+00
18 20 -1.86379691972522044e+00
19 20 -1.86379691972522066e+00
20 20 -1.84846413840853518e+00
21 20 -1.81642896375381113e+00
22 20 -1.76665054337851490e+00
23 20 -1.69852208477242428e+00
24 20 -1.61196013529104487e+00
25 20 -1.50746485277461351e+00
26 20 -1.38614012557141786e+00
27 20 -1.24966675581318842e+00
28 20 -1.10022820483106276e+00
29 20 -9.40395376799908811e-01
30 20 -7.72983009036766200e-01
31 20 -6.00894027218048632e-01
32 20 -4.26968921925807765e-01
33 20 -2.53854881473220995e-01
34 20 -8.39049138107883508e-02
35 20 -2.28249293200218716e-16
36 20 8.39049138107879205e-02
37 20 2.53854881473220662e-01
38 20 4.26968921925807599e-01
39 20 6.00894027218048632e-01
40 20 7.72983009036765756e-01
41 20 9.40395376799908700e-01
42 20 1.10022820483106254e+00
43 20 1.24966675581318776e+00
44 20 1.38614012557141786e+00
45 20 1.50746485277461351e+00
46 20 1.61196013529104509e+00
47 20 1.69852208477242450e+00
48 20 1.76665054337851513e+00
49 20 1.81642896375381113e+00
50 20 1.84846413840853496e+00
51 20 1.86379691972522066e+00
52 20 1.86379691972522044e+00
53 20 1.86379691972522066e+00
54 20 1.84846413840853518e+00
55 20 1.81642896375381113e+00
56 20 1.76665054337851490e+00
57 20 1.69852208477242428e+00
58 20 1.61196013529104487e+00
59 20 1.50746485277461351e+00
60 20 1.38614012557141786e+00
61 20 1.24966675581318842e+00
62 20 1.10022820483106276e+00
63 20 9.40395376799909144e-01
64 20 7.72983009036766311e-01
65 20 6.00894027218048854e-01
66 20 4.26968921925807932e-01
67 20 2.53854881473221217e-01
68 20 8.39049138107885450e-02
69 20 4.56498586400437432e-16
1 21 0.00000000000000000e+00
2 21 -7.97235061634876396e-02
3 21 -2.41204004492518775e-01
4 21 -4.05690893807856445e-01
5 21 -5.70948428485979154e-01
6 21 -7.34461343041036052e-01
7 21 -8.93530702951312428e-01
8 21 -1.04539825005832077e+00
9 21 -1.18738951968947237e+00
10 21 -1.31706172887149586e+00
11 21 -1.43234022923179061e+00
12 21 -1.53162798153841395e+00
13 21 -1.61387610980137297e+00
14 21 -1.67860938158376061e+00
15 21 -1.72590709066129944e+00
16 21 -1.75634578999413771e+00
17 21 -1.77091446100857608e+00
18 21 -1.77091446100857630e+00
19 21 -1.77091446100857608e+00
20 21 -1.75634578999413771e+00
21 21 -1.72590709066129944e+00
22 21 -1.67860938158376083e+00
23 21 -1.61387610980137297e+00
24 21 -1.53162798153841351e+00
25 21 -1.43234022923179016e+00
26 21 -1.31706172887149586e+00
27 21 -1.18738951968947282e+00
28 21 -1.04539825005832099e+00
29 21 -8.93530702951312539e-01
30 21 -7.34461343041036163e-01
31 21 -5.70948428485979154e-01
32 21 -4.05690893807856612e-01
33 21 -2.41204004492518970e-01
34 21 -7.97235061634878339e-02
35 21 -2.16874472623791253e-16
36 21 7.97235061634874453e-02
37 21 2.41204004492518720e-01
38 21 4.05690893807856445e-01
39 21 5.70948428485979154e-01
40 21 7.34461343041036052e-01
41 21 8.93530702951312428e-01
42 21 1.04539825005832077e+00
43 21 1.18738951968947237e+00
44 21 1.31706172887149586e+00
45 21 1.43234022923179061e+00
46 21 1.53162798153841395e+00
47 21 1.61387610980137297e+00
48 21 1.67860938158376061e+00
49 21 1.72590709066129944e+00
50 21 1.75634578999413771e+00
51 21 1.77091446100857608e+00
52 21 1.77091446100857630e+00
53 21 1.77091446100857608e+00
54 21 1.75634578999413771e+00
55 21 1.72590709066129944e+00
56 21 1.67860938158376083e+00
57 21 1.61387610980137297e+00
58 21 1.53162798153841351e+00
59 21 1.43234022923179016e+00
60 21 1.31706172887149586e+00
61 21 1.18738951968947304e+00
62 21 1.04539825005832099e+00
63 21 8.93530702951313094e-01
64 21 7.34461343041036496e-01
65 21 5.70948428485979376e-01
66 21 4.05690893807856834e-01
67 21 2.41204004492519192e-01
68 21 7.97235061634880421e-02
69 21 4.33748945247582506e-16
1 22 0.00000000000000000e+00
2 22 -7.55225080039784169e-02
3 22 -2.28493856285271496e-01
4 22 -3.84313174986490702e-01
5 22 -5.40862530202408931e-01
6 22 -6.95759197352426639e-01
7 22 -8.46446461186208143e-01
8 22 -9.90311408851874853e-01
9 22 -1.12482050551933876e+00
10 22 -1.24765968968367069e+00
11 22 -1.35686363573558566e+00
12 22 -1.45091945978448011e+00
13 22 -1.52883355593967929e+00
14 22 -1.59015573394679888e+00
15 22 -1.63496110922787485e+00
16 22 -1.66379585351622650e+00
17 22 -1.67759683425883166e+00
18 22 -1.67759683425883166e+00
19 22 -1.67759683425883166e+00
20 22 -1.66379585351622672e+00
21 22 -1.63496110922787485e+00
22 22 -1.59015573394679954e+00
23 22 -1.52883355593967951e+00
24 22 -1.45091945978448011e+00
25 22 -1.35686363573558499e+00
26 22 -1.24765968968367091e+00
27 22 -1.12482050551933921e+00
28 22 -9.90311408851875075e-01
29 22 -8.46446461186208032e-01
30 22 -6.95759197352426750e-01
31 22 -5.40862530202408931e-01
32 22 -3.84313174986490924e-01
33 22 -2.28493856285271607e-01
34 22 -7.55225080039786112e-02
35 22 -2.05446359333481097e-16
36 22 7.55225080039782504e-02
37 22 2.28493856285271413e-01
38 22 3.84313174986490702e-01
39 22 5.40862530202408931e-01
40 22 6.95759197352426639e-01
41 22 8.46446461186208143e-01
42 22 9.90311408851874853e-01
43 22 1.12482050551933876e+00
44 22 1.24765968968367069e+00
45 22 1.35686363573558566e+00
46 22 1.45091945978448011e+00
47 22 1.52883355593967929e+00
48 22 1.59015573394679888e+00
49 22 1.63496110922787485e+00
50 22 1.66379585351622650e+00
51 22 1.67759683425883166e+00
52 22 1.67759683425883166e+00
53 22 1.67759683425883166e+00
54 22 1.66379585351622672e+00
55 22 1.63496110922787485e+00
56 22 1.59015573394679954e+00
57 22 1.52883355593967951e+00
58 22 1.45091945978448011e+00
59 22 1.35686363573558522e+00
60 22 1.24765968968367091e+00
61 22 1.12482050551933943e+00
62 22 9.90311408851875075e-01
63 22 8.46446461186208809e-01
64 22 6.95759197352427194e-01
65 22 5.40862530202409264e-01
66 22 3.84313174986491091e-01
67 22 2.28493856285271801e-01
68 22 7.55225080039788332e-02
69 22 4.10892718666962194e-16
1 23 0.00000000000000000e+00
2 23 -7.13658596887308955e-02
3 23 -2.15917888830343324e-01
4 23 -3.63161140267902249e-01
5 23 -5.11094248078781233e-01
6 23 -6.57465629356239312e-01
7 23 -7.99859286715631224e-01
8 23 -9.35806118204512760e-01
9 23 -1.06291203104208032e+00
10 23 -1.17899032628206446e+00
11 23 -1.28218384696051113e+00
12 23 -1.37106297610208805e+00
13 23 -1.44468879443022558e+00
14 23 -1.50263588950329918e+00
15 23 -1.54497524250044438e+00
16 23 -1.57222296466208844e+00
17 23 -1.58526435962200907e+00
18 23 -1.58526435962200885e+00
19 23 -1.58526435962200907e+00
20 23 -1.57222296466208866e+00
21 23 -1.54497524250044438e+00
22 23 -1.50263588950329963e+00
23 23 -1.44468879443022580e+00
24 23 -1.37106297610208827e+00
25 23 -1.28218384696051046e+00
26 23 -1.17899032628206490e+00
27 23 -1.06291203104208076e+00
28 23 -9.35806118204513093e-01
29 23 -7.99859286715631113e-01
30 23 -6.57465629356239312e-01
31 23 -5.11094248078781344e-01
32 23 -3.63161140267902360e-01
33 23 -2.15917888830343435e-01
34 23 -7.13658596887310759e-02
35 23 -1.94138892381347197e-16
36 23 7.13658596887307289e-02
37 23 2.15917888830343241e-01
38 23 3.63161140267902249e-01
39 23 5.11094248078781122e-01
40 23 6.57465629356239312e-01
41 23 7.99859286715631224e-01
42 23 9.35806118204512760e-01
43 23 1.06291203104208032e+00
44 23 1.17899032628206446e+00
45 23 1.28218384696051113e+00
46 23 1.37106297610208805e+00
47 23 1.44468879443022558e+00
48 23 1.50263588950329918e+00
49 23 1.54497524250044438e+00
50 23 1.57222296466208844e+00
51 23 1.58526435962200907e+00
52 23 1.58526435962200885e+00
53 23 1.58526435962200907e+00
54 23 1.57222296466208866e+00
55 23 1.54497524250044438e+00
56 23 1.50263588950329963e+00
57 23 1.44468879443022602e+00
58 23 1.37106297610208827e+00
59 23 1.28218384696051091e+00
60 23 1.17899032628206490e+00
61 23 1.06291203104208098e+00
62 23 9.35806118204513204e-01
63 23 7.99859286715631668e-01
64 23 6.57465629356239867e-01
65 23 5.11094248078781677e-01
66 23 3.63161140267902582e-01
67 23 2.15917888830343629e-01
68 23 7.13658596887312702e-02
69 23 3.88277784762694394e-16
1 24 0.00000000000000000e+00
2 24 -6.73221706096280847e-02
3 24 -2.03683680304665549e-01
4 24 -3.42583923889358100e-01
5 24 -4.82134935623742211e-01
6 24 -6.20212710426810476e-01
7 24 -7.54538144693128743e-01
8 24 -8.82782039228291571e-01
9 24 -1.00268595388532256e+00
10 24 -1.11218709112805048e+00
11 24 -1.20953352309458917e+00
12 24 -1.29337663690001614e+00
13 24 -1.36283071374263076e+00
14 24 -1.41749444564268678e+00
15 24 -1.45743479188677694e+00
16 24 -1.48313862013309472e+00
17 24 -1.49544107147759897e+00
18 24 -1.49544107147759853e+00
19 24 -1.49544107147759897e+00
20 24 -1.48313862013309516e+00
21 24 -1.45743479188677694e+00
22 24 -1.41749444564268701e+00
23 24 -1.36283071374263076e+00
24 24 -1.29337663690001636e+00
25 24 -1.20953352309458850e+00
26 24 -1.11218709112805092e+00
27 24 -1.00268595388532300e+00
28 24 -8.82782039228292015e-01
29 24 -7.54538144693128632e-01
30 24 -6.20212710426810587e-01
31 24 -4.82134935623742322e-01
32 24 -3.42583923889358155e-01
33 24 -2.03683680304665687e-01
34 24 -6.73221706096282652e-02
35 24 -1.83138712149852934e-16
36 24 6.73221706096279182e-02
37 24 2.03683680304665493e-01
38 24 3.42583923889358044e-01
39 24 4.82134935623742045e-01
40 24 6.20212710426810476e-01
41 24 7.54538144693128743e-01
42 24 8.82782039228291571e-01
43 24 1.00268595388532256e+00
44 24 1.11218709112805048e+00
45 24 1.20953352309458917e+00
46 24 1.29337663690001614e+00
47 24 1.36283071374263076e+00
48 24 1.41749444564268678e+00
49 24 1.45743479188677694e+00
50 24 1.48313862013309472e+00
51 24 1.49544107147759897e+00
52 24 1.49544107147759853e+00
53 24 1.49544107147759897e+00
54 24 1.48313862013309516e+00
55 24 1.45743479188677694e+00
56 24 1.41749444564268701e+00
57 24 1.36283071374263098e+00
58 24 1.29337663690001636e+00
59 24 1.20953352309458895e+00
60 24 1.11218709112805092e+00
61 24 1.00268595388532322e+00
62 24 8.82782039228292126e-01
63 24 7.54538144693129076e-01
64 24 6.20212710426811031e-01
65 24 4.82134935623742600e-01
66 24 3.42583923889358433e-01
67 24 2.03683680304665854e-01
68 24 6.73221706096284456e-02
69 24 3.66277424299705867e-16
1 25 0.00000000000000000e+00
2 25 -6.34615582198307659e-02
3 25 -1.92003371534715583e-01
4 25 -3.22938334195262744e-01
5 25 -4.54486746488305227e-01
6 25 -5.84646405114588541e-01
7 25 -7.11268902427188321e-01
8 25 -8.32158607938512596e-01
9 25 -9.45186592507158529e-01
10 25 -1.04840835041157820e+00
11 25 -1.14017241867906449e+00
12 25 -1.21920752108163111e+00
13 25 -1.28467873065849258e+00
14 25 -1.33620775257022051e+00
15 25 -1.37385770630072379e+00
16 25 -1.39808753991950119e+00
17 25 -1.40968450307704685e+00
18 25 -1.40968450307704662e+00
19 25 -1.40968450307704685e+00
20 25 -1.39808753991950141e+00
21 25 -1.37385770630072379e+00
22 25 -1.33620775257022073e+00
23 25 -1.28467873065849236e+00
24 25 -1.21920752108163133e+00
25 25 -1.14017241867906405e+00
26 25 -1.04840835041157865e+00
27 25 -9.45186592507158974e-01
28 25 -8.32158607938512929e-01
29 25 -7.11268902427188099e-01
30 25 -5.84646405114588763e-01
31 25 -4.54486746488305338e-01
32 25 -3.22938334195262855e-01
33 25 -1.92003371534715694e-01
34 25 -6.34615582198309325e-02
35 25 -1.72636561450093246e-16
36 25 6.34615582198305994e-02
37 25 1.92003371534715556e-01
38 25 3.22938334195262688e-01
39 25 4.54486746488305116e-01
40 25 5.84646405114588541e-01
41 25 7.11268902427188321e-01
42 25 8.32158607938512596e-01
43 25 9.45186592507158529e-01
44 25 1.04840835041157820e+00
45 25 1.14017241867906449e+00
46 25 1.21920752108163111e+00
47 25 1.28467873065849258e+00
48 25 1.33620775257022051e+00
49 25 1.37385770630072379e+00
50 25 1.39808753991950119e+00
51 25 1.40968450307704685e+00
52 25 1.40968450307704662e+00
53 25 1.40968450307704685e+00
54 25 1.39808753991950141e+00
55 25 1.37385770630072379e+00
56 25 1.33620775257022095e+00
57 25 1.28467873065849258e+00
58 25 1.21920752108163133e+00
59 25 1.14017241867906449e+00
60 25 1.04840835041157865e+00
61 25 9.45186592507159307e-01
62 25 8.32158607938513040e-01
63 25 7.11268902427188543e-01
64 25 5.84646405114589207e-01
65 25 4.54486746488305671e-01
66 25 3.22938334195263133e-01
67 25 1.92003371534715889e-01
68 25 6.34615582198310990e-02
69 25 3.45273122900186492e-16
1 26 0.00000000000000000e+00
2 26 -5.98520098652055091e-02
3 26 -1.81082658693015042e-01
4 26 -3.04570340002588202e-01
5 26 -4.28636579331942935e-01
6 26 -5.51393054128329840e-01
7 26 -6.70813553260393047e-01
8 26 -7.84827328683332270e-01
9 26 -8.91426539878448443e-01
10 26 -9.88777280164378602e-01
11 26 -1.07532201800696003e+00
12 26 -1.14986178446384124e+00
13 26 -1.21160914131107278e+00
14 26 -1.26020731025488830e+00
15 26 -1.29571582068724744e+00
16 26 -1.31856751676063766e+00
17 26 -1.32950487116513405e+00
18 26 -1.32950487116513361e+00
19 26 -1.32950487116513405e+00
20 26 -1.31856751676063810e+00
21 26 -1.29571582068724744e+00
22 26 -1.26020731025488852e+00
23 26 -1.21160914131107256e+00
24 26 -1.14986178446384146e+00
25 26 -1.07532201800695959e+00
26 26 -9.88777280164378936e-01
27 26 -8.91426539878448776e-01
28 26 -7.84827328683332492e-01
29 26 -6.70813553260392825e-01
30 26 -5.51393054128330062e-01
31 26 -4.28636579331943046e-01
32 26 -3.04570340002588369e-01
33 26 -1.81082658693015097e-01
34 26 -5.98520098652056617e-02
35 26 -1.62817388492319550e-16
36 26 5.98520098652053564e-02
37 26 1.81082658693014986e-01
38 26 3.04570340002588147e-01
39 26 4.28636579331942880e-01
40 26 5.51393054128329840e-01
41 26 6.70813553260393047e-01
42 26 7.84827328683332270e-01
43 26 8.91426539878448443e-01
44 26 9.88777280164378602e-01
45 26 1.07532201800696003e+00
46 26 1.14986178446384124e+00
47 26 1.21160914131107278e+00
48 26 1.26020731025488830e+00
49 26 1.29571582068724744e+00
50 26 1.31856751676063766e+00
51 26 1.32950487116513405e+00
52 26 1.32950487116513361e+00
53 26 1.32950487116513405e+00
54 26 1.31856751676063810e+00
55 26 1.29571582068724744e+00
56 26 1.26020731025488875e+00
57 26 1.21160914131107278e+00
58 26 1.14986178446384146e+00
59 26 1.07532201800696003e+00
60 26 9.88777280164378936e-01
61 26 8.91426539878448998e-01
62 26 7.84827328683332714e-01
63 26 6.70813553260393269e-01
64 26 5.51393054128330284e-01
65 26 4.28636579331943324e-01
66 26 3.04570340002588535e-01
67 26 1.81082658693015319e-01
68 26 5.98520098652058213e-02
69 26 3.25634776984639099e-16
1 27 0.00000000000000000e+00
2 27 -5.65556233302483974e-02
3 27 -1.71109419044518235e-01
4 27 -2.87795939777885035e-01
5 27 -4.05029154089548538e-01
6 27 -5.21024739961587824e-01
7 27 -6.33868081096394920e-01
8 27 -7.41602477181025677e-01
9 27 -8.42330670757652222e-01
10 27 -9.34319758691900870e-01
11 27 -1.01609799146408997e+00
12 27 -1.08653243408939582e+00
13 27 -1.14487901699204619e+00
14 27 -1.19080061166390738e+00
15 27 -1.22435346887878538e+00
16 27 -1.24594659362922555e+00
17 27 -1.25628156646177103e+00
18 27 -1.25628156646177058e+00
19 27 -1.25628156646177103e+00
20 27 -1.24594659362922622e+00
21 27 -1.22435346887878560e+00
22 27 -1.19080061166390760e+00
23 27 -1.14487901699204619e+00
24 27 -1.08653243408939582e+00
25 27 -1.01609799146408974e+00
26 27 -9.34319758691901092e-01
27 27 -8.42330670757652555e-01
28 27 -7.41602477181026010e-01
29 27 -6.33868081096394587e-01
30 27 -5.21024739961588046e-01
31 27 -4.05029154089548649e-01
32 27 -2.87795939777885090e-01
33 27 -1.71109419044518318e-01
34 27 -5.65556233302485500e-02
35 27 -1.53850119919523076e-16
36 27 5.65556233302482517e-02
37 27 1.71109419044518180e-01
38 27 2.87795939777884979e-01
39 27 4.05029154089548427e-01
40 27 5.21024739961587824e-01
41 27 6.33868081096394920e-01
42 27 7.41602477181025677e-01
43 27 8.42330670757652222e-01
44 27 9.34319758691900870e-01
45 27 1.01609799146408997e+00
46 27 1.08653243408939582e+00
47 27 1.14487901699204619e+00
48 27 1.19080061166390738e+00
49 27 1.22435346887878538e+00
50 27 1.24594659362922555e+00
51 27 1.25628156646177103e+00
52 27 1.25628156646177058e+00
53 27 1.25628156646177103e+00
54 27 1.24594659362922622e+00
55 27 1.22435346887878560e+00
56 27 1.19080061166390783e+00
57 27 1.14487901699204642e+00
58 27 1.08653243408939604e+00
59 27 1.01609799146408997e+00
60 27 9.34319758691901092e-01
61 27 8.42330670757652888e-01
62 27 7.41602477181026121e-01
63 27 6.33868081096395031e-01
64 27 5.21024739961588157e-01
65 27 4.05029154089548871e-01
66 27 2.87795939777885312e-01
67 27 1.71109419044518485e-01
68 27 5.65556233302487027e-02
69 27 3.07700239839046152e-16
1 28 0.00000000000000000e+00
2 28 -5.36251380801335484e-02
3 28 -1.62243216196082951e-01
4 28 -2.72883510086548653e-01
5 28 -3.84042170089832102e-01
6 28 -4.94027330588403091e-01
7 28 -6.01023583011301987e-01
8 28 -7.03175615396880782e-01
9 28 -7.98684478548602472e-01
10 28 -8.85907061412458896e-01
11 28 -9.63447874617720634e-01
12 28 -1.03023268732014084e+00
13 28 -1.08555598464087155e+00
14 28 -1.12909810671702249e+00
15 28 -1.16091238963322740e+00
16 28 -1.18138664538605154e+00
17 28 -1.19118610143595527e+00
18 28 -1.19118610143595505e+00
19 28 -1.19118610143595527e+00
20 28 -1.18138664538605220e+00
21 28 -1.16091238963322740e+00
22 28 -1.12909810671702271e+00
23 28 -1.08555598464087155e+00
24 28 -1.03023268732014084e+00
25 28 -9.63447874617720523e-01
26 28 -8.85907061412458896e-01
27 28 -7.98684478548602694e-01
28 28 -7.03175615396881004e-01
29 28 -6.01023583011301654e-01
30 28 -4.94027330588403202e-01
31 28 -3.84042170089832213e-01
32 28 -2.72883510086548708e-01
33 28 -1.62243216196083034e-01
34 28 -5.36251380801337010e-02
35 28 -1.45878224631235719e-16
36 28 5.36251380801334235e-02
37 28 1.62243216196082923e-01
38 28 2.72883510086548653e-01
39 28 3.84042170089831991e-01
40 28 4.94027330588403091e-01
41 28 6.01023583011301987e-01
42 28 7.03175615396880782e-01
43 28 7.98684478548602472e-01
44 28 8.85907061412458896e-01
45 28 9.63447874617720634e-01
46 28 1.03023268732014084e+00
47 28 1.08555598464087155e+00
48 28 1.12909810671702249e+00
49 28 1.16091238963322740e+00
50 28 1.18138664538605154e+00
51 28 1.19118610143595527e+00
52 28 1.19118610143595505e+00
53 28 1.19118610143595527e+00
54 28 1.18138664538605220e+00
55 28 1.16091238963322740e+00
56 28 1.12909810671702293e+00
57 28 1.08555598464087177e+00
58 28 1.03023268732014106e+00
59 28 9.63447874617720745e-01
60 28 8.85907061412458896e-01
61 28 7.98684478548603027e-01
62 28 7.03175615396881115e-01
63 28 6.01023583011302098e-01
64 28 4.94027330588403424e-01
65 28 3.84042170089832435e-01
66 28 2.72883510086548930e-01
67 28 1.62243216196083201e-01
68 28 5.36251380801338468e-02
69 28 2.91756449262471437e-16
1 29 0.00000000000000000e+00
2 29 -5.11011523174611099e-02
3 29 -1.54606880282930181e-01
4 29 -2.60039643963587697e-01
5 29 -3.65966375709142810e-01
6 29 -4.70774841300396096e-01
7 29 -5.72735078387145102e-01
8 29 -6.70079099369863540e-01
9 29 -7.61092626575899600e-01
10 29 -8.44209885608180555e-01
11 29 -9.18101068890556760e-01
12 29 -9.81742506630067457e-01
13 29 -1.03446189056650151e+00
14 29 -1.07595460633562312e+00
15 29 -1.10627147964124317e+00
16 29 -1.12578206925032309e+00
17 29 -1.13512029222116340e+00
18 29 -1.13512029222116317e+00
19 29 -1.13512029222116340e+00
20 29 -1.12578206925032331e+00
21 29 -1.10627147964124317e+00
22 29 -1.07595460633562334e+00
23 29 -1.03446189056650151e+00
24 29 -9.81742506630067457e-01
25 29 -9.18101068890556871e-01
26 29 -8.44209885608180666e-01
27 29 -7.61092626575899822e-01
28 29 -6.70079099369863651e-01
29 29 -5.72735078387144880e-01
30 29 -4.70774841300396207e-01
31 29 -3.65966375709142866e-01
32 29 -2.60039643963587752e-01
33 29 -1.54606880282930265e-01
34 29 -5.11011523174612486e-02
35 29 -1.39012143251585599e-16
36 29 5.11011523174609919e-02
37 29 1.54606880282930154e-01
38 29 2.60039643963587697e-01
39 29 3.65966375709142755e-01
40 29 4.70774841300396096e-01
41 29 5.72735078387145102e-01
42 29 6.70079099369863540e-01
43 29 7.61092626575899600e-01
44 29 8.44209885608180555e-01
45 29 9.18101068890556760e-01
46 29 9.81742506630067457e-01
47 29 1.03446189056650151e+00
48 29 1.07595460633562312e+00
49 29 1.10627147964124317e+00
50 29 1.12578206925032309e+00
51 29 1.13512029222116340e+00
52 29 1.13512029222116317e+00
53 29 1.13512029222116340e+00
54 29 1.12578206925032331e+00
55 29 1.10627147964124317e+00
56 29 1.07595460633562356e+00
57 29 1.03446189056650173e+00
58 29 9.81742506630067679e-01
59 29 9.18101068890556982e-01
60 29 8.44209885608180666e-01
61 29 7.61092626575900044e-01
62 29 6.70079099369863762e-01
63 29 5.72735078387145324e-01
64 29 4.70774841300396429e-01
65 29 3.65966375709143088e-01
66 29 2.60039643963587974e-01
67 29 1.54606880282930431e-01
68 29 5.11011523174613944e-02
69 29 2.78024286503171198e-16
1 30 0.00000000000000000e+00
2 30 -4.90103294322670330e-02
3 30 -1.48281081571076945e-01
4 30 -2.49400024033314516e-01
5 30 -3.50992723671109397e-01
6 30 -4.51512911435301145e-01
7 30 -5.49301407036526967e-01
8 30 -6.42662560753492373e-01
9 30 -7.29952235229898494e-01
10 30 -8.09668720317598067e-01
11 30 -8.80536618018054607e-01
12 30 -9.41574142373268752e-01
13 30 -9.92136492868600395e-01
14 30 -1.03193151855120524e+00
15 30 -1.06100796557208854e+00
16 30 -1.07972027206213284e+00
17 30 -1.08867641812454696e+00
18 30 -1.08867641812454652e+00
19 30 -1.08867641812454696e+00
20 30 -1.07972027206213306e+00
21 30 -1.06100796557208854e+00
22 30 -1.03193151855120546e+00
23 30 -9.92136492868600395e-01
24 30 -9.41574142373268752e-01
25 30 -8.80536618018054940e-01
26 30 -8.09668720317598289e-01
27 30 -7.29952235229898605e-01
28 30 -6.42662560753492484e-01
29 30 -5.49301407036526856e-01
30 30 -4.51512911435301145e-01
31 30 -3.50992723671109452e-01
32 30 -2.49400024033314516e-01
33 30 -1.48281081571077084e-01
34 30 -4.90103294322671718e-02
35 30 -1.33324409076343187e-16
36 30 4.90103294322669289e-02
37 30 1.48281081571076917e-01
38 30 2.49400024033314516e-01
39 30 3.50992723671109397e-01
40 30 4.51512911435301145e-01
41 30 5.49301407036526967e-01
42 30 6.42662560753492373e-01
43 30 7.29952235229898494e-01
44 30 8.09668720317598067e-01
45 30 8.80536618018054607e-01
46 30 9.41574142373268752e-01
47 30 9.92136492868600395e-01
48 30 1.03193151855120524e+00
49 30 1.06100796557208854e+00
50 30 1.07972027206213284e+00
51 30 1.08867641812454696e+00
52 30 1.08867641812454652e+00
53 30 1.08867641812454696e+00
54 30 1.07972027206213306e+00
55 30 1.06100796557208854e+00
56 30 1.03193151855120591e+00
57 30 9.92136492868600728e-01
58 30 9.41574142373268974e-01
59 30 8.80536618018055051e-01
60 30 8.09668720317598289e-01
61 30 7.29952235229898827e-01
62 30 6.42662560753492595e-01
63 30 5.49301407036527189e-01
64 30 4.51512911435301423e-01
65 30 3.50992723671109674e-01
66 30 2.49400024033314710e-01
67 30 1.48281081571077222e-01
68 30 4.90103294322673175e-02
69 30 2.66648818152686375e-16
1 31 0.00000000000000000e+00
2 31 -4.73647502691354125e-02
3 31 -1.43302370737124929e-01
4 31 -2.41026126375659761e-01
5 31 -3.39207732238186621e-01
6 31 -4.36352837068332000e-01
7 31 -5.30857969496540183e-01
8 31 -6.21084413225177712e-01
9 31 -7.05443234733671654e-01
10 31 -7.82483145549416781e-01
11 31 -8.50971570654163179e-01
12 31 -9.09959688702347780e-01
13 31 -9.58824349111162655e-01
14 31 -9.97283210237883910e-01
15 31 -1.02538338152445307e+00
16 31 -1.04346740042674080e+00
17 31 -1.05212283340452561e+00
18 31 -1.05212283340452517e+00
19 31 -1.05212283340452561e+00
20 31 -1.04346740042674102e+00
21 31 -1.02538338152445285e+00
22 31 -9.97283210237884132e-01
23 31 -9.58824349111162655e-01
24 31 -9.09959688702347891e-01
25 31 -8.50971570654163401e-01
26 31 -7.82483145549417003e-01
27 31 -7.05443234733671654e-01
28 31 -6.21084413225177823e-01
29 31 -5.30857969496540183e-01
30 31 -4.36352837068331945e-01
31 31 -3.39207732238186566e-01
32 31 -2.41026126375659788e-01
33 31 -1.43302370737125095e-01
34 31 -4.73647502691355513e-02
35 31 -1.28847886023869619e-16
36 31 4.73647502691353084e-02
37 31 1.43302370737124901e-01
38 31 2.41026126375659733e-01
39 31 3.39207732238186621e-01
40 31 4.36352837068332000e-01
41 31 5.30857969496540183e-01
42 31 6.21084413225177712e-01
43 31 7.05443234733671654e-01
44 31 7.82483145549416781e-01
45 31 8.50971570654163179e-01
46 31 9.09959688702347780e-01
47 31 9.58824349111162655e-01
48 31 9.97283210237883910e-01
49 31 1.02538338152445307e+00
50 31 1.04346740042674080e+00
51 31 1.05212283340452561e+00
52 31 1.05212283340452517e+00
53 31 1.05212283340452561e+00
54 31 1.04346740042674102e+00
55 31 1.02538338152445285e+00
56 31 9.97283210237884354e-01
57 31 9.58824349111162988e-01
58 31 9.09959688702347891e-01
59 31 8.50971570654163401e-01
60 31 7.82483145549417114e-01
61 31 7.05443234733671765e-01
62 31 6.21084413225177934e-01
63 31 5.30857969496540405e-01
64 31 4.36352837068332222e-01
65 31 3.39207732238186788e-01
66 31 2.41026126375659955e-01
67 31 1.43302370737125206e-01
68 31 4.73647502691356900e-02
69 31 2.57695772047739238e-16
1 32 0.00000000000000000e+00
2 32 -4.61623991075333015e-02
3 32 -1.39664649205034547e-01
4 32 -2.34907693545811730e-01
5 32 -3.30596965611876126e-01
6 32 -4.25276048158091169e-01
7 32 -5.17382173833244363e-01
8 32 -6.05318225048294800e-01
9 32 -6.87535603258644268e-01
10 32 -7.62619860856908138e-01
11 32 -8.29369711662981457e-01
12 32 -8.86860420100580971e-01
13 32 -9.34484654224659206e-01
14 32 -9.71967239617066214e-01
15 32 -9.99354089849567750e-01
16 32 -1.01697904708658649e+00
17 32 -1.02541476245083230e+00
18 32 -1.02541476245083207e+00
19 32 -1.02541476245083230e+00
20 32 -1.01697904708658671e+00
21 32 -9.99354089849567639e-01
22 32 -9.71967239617066325e-01
23 32 -9.34484654224659206e-01
24 32 -8.86860420100581082e-01
25 32 -8.29369711662981568e-01
26 32 -7.62619860856908249e-01
27 32 -6.87535603258644268e-01
28 32 -6.05318225048294800e-01
29 32 -5.17382173833244363e-01
30 32 -4.25276048158091113e-01
31 32 -3.30596965611876126e-01
32 32 -2.34907693545811785e-01
33 32 -1.39664649205034685e-01
34 32 -4.61623991075334403e-02
35 32 -1.25577090663385521e-16
36 32 4.61623991075332044e-02
37 32 1.39664649205034491e-01
38 32 2.34907693545811702e-01
39 32 3.30596965611876126e-01
40 32 4.25276048158091169e-01
41 32 5.17382173833244363e-01
42 32 6.05318225048294800e-01
43 32 6.87535603258644268e-01
44 32 7.62619860856908138e-01
45 32 8.29369711662981457e-01
46 32 8.86860420100580971e-01
47 32 9.34484654224659206e-01
48 32 9.71967239617066214e-01
49 32 9.99354089849567750e-01
50 32 1.01697904708658649e+00
51 32 1.02541476245083230e+00
52 32 1.02541476245083207e+00
53 32 1.02541476245083230e+00
54 32 1.01697904708658671e+00
55 32 9.99354089849567639e-01
56 32 9.71967239617066547e-01
57 32 9.34484654224659317e-01
58 32 8.86860420100581082e-01
59 32 8.29369711662981568e-01
60 32 7.62619860856908249e-01
61 32 6.87535603258644379e-01
62 32 6.05318225048295022e-01
63 32 5.17382173833244585e-01
64 32 4.25276048158091391e-01
65 32 3.30596965611876348e-01
66 32 2.34907693545811924e-01
67 32 1.39664649205034797e-01
68 32 4.61623991075335652e-02
69 32 2.51154181326771041e-16
1 33 0.00000000000000000e+00
2 33 -4.53886194422117306e-02
3 33 -1.37323573619526462e-01
4 33 -2.30970142638417975e-01
5 33 -3.25055459659995494e-01
6 33 -4.18147520079502955e-01
7 33 -5.08709751839329649e-01
8 33 -5.95171808426839699e-01
9 33 -6.76011049091802430e-01
10 33 -7.49836735367116591e-01
11 33 -8.15467717175574092e-01
12 33 -8.71994759469429170e-01
13 33 -9.18820710474471780e-01
14 33 -9.55675008279122551e-01
15 33 -9.82602796846354876e-01
16 33 -9.99932322438228938e-01
17 33 -1.00822663733071649e+00
18 33 -1.00822663733071649e+00
19 33 -1.00822663733071649e+00
20 33 -9.99932322438228938e-01
21 33 -9.82602796846354876e-01
22 33 -9.55675008279122662e-01
23 33 -9.18820710474471891e-01
24 33 -8.71994759469429059e-01
25 33 -8.15467717175574092e-01
26 33 -7.49836735367116591e-01
27 33 -6.76011049091802541e-01
28 33 -5.95171808426839810e-01
29 33 -5.08709751839329649e-01
30 33 -4.18147520079502899e-01
31 33 -3.25055459659995494e-01
32 33 -2.30970142638418030e-01
33 33 -1.37323573619526601e-01
34 33 -4.53886194422118625e-02
35 33 -1.23472152422216140e-16
36 33 4.53886194422116335e-02
37 33 1.37323573619526407e-01
38 33 2.30970142638417947e-01
39 33 3.25055459659995494e-01
40 33 4.18147520079502955e-01
41 33 5.08709751839329649e-01
42 33 5.95171808426839699e-01
43 33 6.76011049091802430e-01
44 33 7.49836735367116591e-01
45 33 8.15467717175574092e-01
46 33 8.71994759469429170e-01
47 33 9.18820710474471780e-01
48 33 9.55675008279122551e-01
49 33 9.82602796846354876e-01
50 33 9.99932322438228938e-01
51 33 1.00822663733071649e+00
52 33 1.00822663733071649e+00
53 33 1.00822663733071649e+00
54 33 9.99932322438228938e-01
55 33 9.82602796846354876e-01
56 33 9.55675008279122662e-01
57 33 9.18820710474471891e-01
58 33 8.71994759469429059e-01
59 33 8.15467717175574092e-01
60 33 7.49836735367116591e-01
61 33 6.76011049091802541e-01
62 33 5.95171808426839921e-01
63 33 5.08709751839329982e-01
64 33 4.18147520079503121e-01
65 33 3.25055459659995771e-01
66 33 2.30970142638418197e-01
67 33 1.37323573619526712e-01
68 33 4.53886194422119874e-02
69 33 2.46944304844432280e-16
1 34 0.00000000000000000e+00
2 34 -4.50182704578984891e-02
3 34 -1.36203080274779398e-01
4 34 -2.29085538991423809e-01
5 34 -3.22403165741168007e-01
6 34 -4.14735640377990766e-01
7 34 -5.04558928522400918e-01
8 34 -5.90315496922953042e-01
9 34 -6.70495128834865950e-01
10 34 -7.43718433538229085e-01
11 34 -8.08813898564044842e-01
12 34 -8.64879707778836715e-01
13 34 -9.11323581875453037e-01
14 34 -9.47877166595474496e-01
15 34 -9.74585237549167704e-01
16 34 -9.91773362669283620e-01
17 34 -1.00000000000000000e+00
18 34 -1.00000000000000000e+00
19 34 -1.00000000000000000e+00
20 34 -9.91773362669283620e-01
21 34 -9.74585237549167704e-01
22 34 -9.47877166595474496e-01
23 34 -9.11323581875453148e-01
24 34 -8.64879707778836604e-01
25 34 -8.08813898564044731e-01
26 34 -7.43718433538229085e-01
27 34 -6.70495128834866061e-01
28 34 -5.90315496922953042e-01
29 34 -5.04558928522401029e-01
30 34 -4.14735640377990766e-01
31 34 -3.22403165741168063e-01
32 34 -2.29085538991423893e-01
33 34 -1.36203080274779537e-01
34 34 -4.50182704578986209e-02
35 34 -1.22464679914735345e-16
36 34 4.50182704578983989e-02
37 34 1.36203080274779342e-01
38 34 2.29085538991423809e-01
39 34 3.22403165741168007e-01
40 34 4.14735640377990766e-01
41 34 5.04558928522400918e-01
42 34 5.90315496922953042e-01
43 34 6.70495128834865950e-01
44 34 7.43718433538229085e-01
45 34 8.08813898564044842e-01
46 34 8.64879707778836715e-01
47 34 9.11323581875453037e-01
48 34 9.47877166595474496e-01
49 34 9.74585237549167704e-01
50 34 9.91773362669283620e-01
51 34 1.00000000000000000e+00
52 34 1.00000000000000000e+00
53 34 1.00000000000000000e+00
54 34 9.91773362669283620e-01
55 34 9.74585237549167704e-01
56 34 9.47877166595474496e-01
57 34 9.11323581875453259e-01
58 34 8.64879707778836604e-01
59 34 8.08813898564044842e-01
60 34 7.43718433538229085e-01
61 34 6.70495128834866061e-01
62 34 5.90315496922953153e-01
63 34 5.04558928522401251e-01
64 34 4.14735640377990933e-01
65 34 3.22403165741168285e-01
66 34 2.29085538991424059e-01
67 34 1.36203080274779648e-01
68 34 4.50182704578987458e-02
69 34 2.44929359829470691e-16
1 35 0.00000000000000000e+00
2 35 -4.50182704578984960e-02
3 35 -1.36203080274779370e-01
4 35 -2.29085538991423809e-01
5 35 -3.22403165741168007e-01
6 35 -4.14735640377990711e-01
7 35 -5.04558928522400918e-01
8 35 -5.90315496922952931e-01
9 35 -6.70495128834865950e-01
10 35 -7.43718433538229085e-01
11 35 -8.08813898564044842e-01
12 35 -8.64879707778836715e-01
13 35 -9.11323581875453037e-01
14 35 -9.47877166595474496e-01
15 35 -9.74585237549167815e-01
16 35 -9.91773362669283620e-01
17 35 -1.00000000000000000e+00
18 35 -1.00000000000000000e+00
19 35 -1.00000000000000000e+00
20 35 -9.91773362669283620e-01
21 35 -9.74585237549167815e-01
22 35 -9.47877166595474496e-01
23 35 -9.11323581875453148e-01
24 35 -8.64879707778836604e-01
25 35 -8.08813898564044731e-01
26 35 -7.43718433538229085e-01
27 35 -6.70495128834866061e-01
28 35 -5.90315496922953042e-01
29 35 -5.04558928522401029e-01
30 35 -4.14735640377990766e-01
31 35 -3.22403165741168063e-01
32 35 -2.29085538991423893e-01
33 35 -1.36203080274779509e-01
34 35 -4.50182704578986209e-02
35 35 -1.22464679914735321e-16
36 35 4.50182704578983919e-02
37 35 1.36203080274779342e-01
38 35 2.29085538991423809e-01
39 35 3.22403165741168007e-01
40 35 4.14735640377990711e-01
41 35 5.04558928522400918e-01
42 35 5.90315496922952931e-01
43 35 6.70495128834865950e-01
44 35 7.43718433538229085e-01
45 35 8.08813898564044842e-01
46 35 8.64879707778836715e-01
47 35 9.11323581875453037e-01
48 35 9.47877166595474496e-01
49 35 9.74585237549167815e-01
50 35 9.91773362669283620e-01
51 35 1.00000000000000000e+00
52 35 1.00000000000000000e+00
53 35 1.00000000000000000e+00
54 35 9.91773362669283620e-01
55 35 9.74585237549167815e-01
56 35 9.47877166595474496e-01
57 35 9.11323581875453148e-01
58 35 8.64879707778836604e-01
59 35 8.08813898564044731e-01
60 35 7.43718433538229085e-01
61 35 6.70495128834866061e-01
62 35 5.90315496922953153e-01
63 35 5.04558928522401251e-01
64 35 4.14735640377990877e-01
65 35 3.22403165741168229e-01
66 35 2.29085538991424087e-01
67 35 1.36203080274779648e-01
68 35 4.50182704578987389e-02
69 35 2.44929359829470641e-16
1 36 0.00000000000000000e+00
2 36 -4.50182704578985030e-02
3 36 -1.36203080274779398e-01
4 36 -2.29085538991423809e-01
5 36 -3.22403165741168007e-01
6 36 -4.14735640377990655e-01
7 36 -5.04558928522401029e-01
8 36 -5.90315496922953042e-01
9 36 -6.70495128834865950e-01
10 36 -7.43718433538229085e-01
11 36 -8.08813898564044731e-01
12 36 -8.64879707778836604e-01
13 36 -9.11323581875453148e-01
14 36 -9.47877166595474385e-01
15 36 -9.74585237549167926e-01
16 36 -9.91773362669283509e-01
17 36 -1.00000000000000000e+00
18 36 -1.00000000000000000e+00
19 36 -1.00000000000000000e+00
20 36 -9.91773362669283620e-01
21 36 -9.74585237549167926e-01
22 36 -9.47877166595474496e-01
23 36 -9.11323581875453037e-01
24 36 -8.64879707778836715e-01
25 36 -8.08813898564044842e-01
26 36 -7.43718433538229085e-01
27 36 -6.70495128834866061e-01
28 36 -5.90315496922953042e-01
29 36 -5.04558928522401029e-01
30 36 -4.14735640377990766e-01
31 36 -3.22403165741168007e-01
32 36 -2.29085538991423920e-01
33 36 -1.36203080274779481e-01
34 36 -4.50182704578986279e-02
35 36 -1.22464679914735321e-16
36 36 4.50182704578983989e-02
37 36 1.36203080274779370e-01
38 36 2.29085538991423809e-01
39 36 3.22403165741168007e-01
40 36 4.14735640377990655e-01
41 36 5.04558928522401029e-01
42 36 5.90315496922953042e-01
43 36 6.70495128834865950e-01
44 36 7.43718433538229085e-01
45 36 8.08813898564044731e-01
46 36 8.64879707778836604e-01
47 36 9.11323581875453148e-01
48 36 9.47877166595474385e-01
49 36 9.74585237549167926e-01
50 36 9.91773362669283509e-01
51 36 1.00000000000000000e+00
52 36 1.00000000000000000e+00
53 36 1.00000000000000000e+00
54 36 9.91773362669283620e-01
55 36 9.74585237549167926e-01
56 36 9.47877166595474496e-01
57 36 9.11323581875453037e-01
58 36 8.64879707778836715e-01
59 36 8.08813898564044842e-01
60 36 7.43718433538229085e-01
61 36 6.70495128834866061e-01
62 36 5.90315496922953153e-01
63 36 5.04558928522401362e-01
64 36 4.14735640377990933e-01
65 36 3.22403165741168174e-01
66 36 2.29085538991424059e-01
67 36 1.36203080274779648e-01
68 36 4.50182704578987458e-02
69 36 2.44929359829470641e-16
1 37 0.00000000000000000e+00
2 37 -4.53886194422117376e-02
3 37 -1.37323573619526462e-01
4 37 -2.30970142638417947e-01
5 37 -3.25055459659995438e-01
6 37 -4.18147520079502788e-01
7 37 -5.08709751839329760e-01
8 37 -5.95171808426839699e-01
9 37 -6.76011049091802319e-01
10 37 -7.49836735367116591e-01
11 37 -8.15467717175573981e-01
12 37 -8.71994759469428948e-01
13 37 -9.18820710474471891e-01
14 37 -9.55675008279122440e-01
15 37 -9.82602796846354876e-01
16 37 -9.99932322438228827e-01
17 37 -1.00822663733071627e+00
18 37 -1.00822663733071627e+00
19 37 -1.00822663733071627e+00
20 37 -9.99932322438228827e-01
21 37 -9.82602796846354987e-01
22 37 -9.55675008279122551e-01
23 37 -9.18820710474471780e-01
24 37 -8.71994759469429281e-01
25 37 -8.15467717175573981e-01
26 37 -7.49836735367116591e-01
27 37 -6.76011049091802541e-01
28 37 -5.95171808426839921e-01
29 37 -5.08709751839329649e-01
30 37 -4.18147520079503010e-01
31 37 -3.25055459659995494e-01
32 37 -2.30970142638418086e-01
33 37 -1.37323573619526573e-01
34 37 -4.53886194422118555e-02
35 37 -1.23472152422216091e-16
36 37 4.53886194422116335e-02
37 37 1.37323573619526407e-01
38 37 2.30970142638417947e-01
39 37 3.25055459659995438e-01
40 37 4.18147520079502788e-01
41 37 5.08709751839329760e-01
42 37 5.95171808426839699e-01
43 37 6.76011049091802319e-01
44 37 7.49836735367116591e-01
45 37 8.15467717175573981e-01
46 37 8.71994759469428948e-01
47 37 9.18820710474471891e-01
48 37 9.55675008279122440e-01
49 37 9.82602796846354876e-01
50 37 9.99932322438228827e-01
51 37 1.00822663733071627e+00
52 37 1.00822663733071627e+00
53 37 1.00822663733071627e+00
54 37 9.99932322438228827e-01
55 37 9.82602796846354987e-01
56 37 9.55675008279122551e-01
57 37 9.18820710474471780e-01
58 37 8.71994759469429281e-01
59 37 8.15467717175573981e-01
60 37 7.49836735367116591e-01
61 37 6.76011049091802541e-01
62 37 5.95171808426839921e-01
63 37 5.08709751839329871e-01
64 37 4.18147520079503010e-01
65 37 3.25055459659995605e-01
66 37 2.30970142638418197e-01
67 37 1.37323573619526740e-01
68 37 4.53886194422119735e-02
69 37 2.46944304844432182e-16
1 38 0.00000000000000000e+00
2 38 -4.61623991075333084e-02
3 38 -1.39664649205034574e-01
4 38 -2.34907693545811702e-01
5 38 -3.30596965611876070e-01
6 38 -4.25276048158091113e-01
7 38 -5.17382173833244363e-01
8 38 -6.05318225048294578e-01
9 38 -6.87535603258644046e-01
10 38 -7.62619860856908249e-01
11 38 -8.29369711662981457e-01
12 38 -8.86860420100580860e-01
13 38 -9.34484654224658984e-01
14 38 -9.71967239617066325e-01
15 38 -9.99354089849567750e-01
16 38 -1.01697904708658649e+00
17 38 -1.02541476245083207e+00
18 38 -1.02541476245083207e+00
19 38 -1.02541476245083207e+00
20 38 -1.01697904708658671e+00
21 38 -9.99354089849567750e-01
22 38 -9.71967239617066547e-01
23 38 -9.34484654224659428e-01
24 38 -8.86860420100581082e-01
25 38 -8.29369711662981457e-01
26 38 -7.62619860856908249e-01
27 38 -6.87535603258644379e-01
28 38 -6.05318225048294911e-01
29 38 -5.17382173833244363e-01
30 38 -4.25276048158091224e-01
31 38 -3.30596965611876126e-01
32 38 -2.34907693545811841e-01
33 38 -1.39664649205034685e-01
34 38 -4.61623991075334333e-02
35 38 -1.25577090663385521e-16
36 38 4.61623991075331974e-02
37 38 1.39664649205034491e-01
38 38 2.34907693545811674e-01
39 38 3.30596965611876070e-01
40 38 4.25276048158091113e-01
41 38 5.17382173833244363e-01
42 38 6.05318225048294578e-01
43 38 6.87535603258644046e-01
44 38 7.62619860856908249e-01
45 38 8.29369711662981457e-01
46 38 8.86860420100580860e-01
47 38 9.34484654224658984e-01
48 38 9.71967239617066325e-01
49 38 9.99354089849567750e-01
50 38 1.01697904708658649e+00
51 38 1.02541476245083207e+00
52 38 1.02541476245083207e+00
53 38 1.02541476245083207e+00
54 38 1.01697904708658671e+00
55 38 9.99354089849567750e-01
56 38 9.71967239617066547e-01
57 38 9.34484654224659428e-01
58 38 8.86860420100581082e-01
59 38 8.29369711662981457e-01
60 38 7.62619860856908249e-01
61 38 6.87535603258644490e-01
62 38 6.05318225048294911e-01
63 38 5.17382173833244474e-01
64 38 4.25276048158091224e-01
65 38 3.30596965611876237e-01
66 38 2.34907693545811952e-01
67 38 1.39664649205034797e-01
68 38 4.61623991075335444e-02
69 38 2.51154181326771041e-16
1 39 0.00000000000000000e+00
2 39 -4.73647502691354125e-02
3 39 -1.43302370737124957e-01
4 39 -2.41026126375659705e-01
5 39 -3.39207732238186566e-01
6 39 -4.36352837068332000e-01
7 39 -5.30857969496540183e-01
8 39 -6.21084413225177601e-01
9 39 -7.05443234733671432e-01
10 39 -7.82483145549416892e-01
11 39 -8.50971570654163179e-01
12 39 -9.09959688702347558e-01
13 39 -9.58824349111162544e-01
14 39 -9.97283210237884243e-01
15 39 -1.02538338152445285e+00
16 39 -1.04346740042674058e+00
17 39 -1.05212283340452539e+00
18 39 -1.05212283340452561e+00
19 39 -1.05212283340452539e+00
20 39 -1.04346740042674102e+00
21 39 -1.02538338152445285e+00
22 39 -9.97283210237884354e-01
23 39 -9.58824349111163099e-01
24 39 -9.09959688702347780e-01
25 39 -8.50971570654163179e-01
26 39 -7.82483145549417114e-01
27 39 -7.05443234733671765e-01
28 39 -6.21084413225177823e-01
29 39 -5.30857969496540183e-01
30 39 -4.36352837068332000e-01
31 39 -3.39207732238186621e-01
32 39 -2.41026126375659844e-01
33 39 -1.43302370737125068e-01
34 39 -4.73647502691355513e-02
35 39 -1.28847886023869594e-16
36 39 4.73647502691353084e-02
37 39 1.43302370737124901e-01
38 39 2.41026126375659677e-01
39 39 3.39207732238186566e-01
40 39 4.36352837068332000e-01
41 39 5.30857969496540183e-01
42 39 6.21084413225177601e-01
43 39 7.05443234733671432e-01
44 39 7.82483145549416892e-01
45 39 8.50971570654163179e-01
46 39 9.09959688702347558e-01
47 39 9.58824349111162544e-01
48 39 9.97283210237884243e-01
49 39 1.02538338152445285e+00
50 39 1.04346740042674058e+00
51 39 1.05212283340452539e+00
52 39 1.05212283340452561e+00
53 39 1.05212283340452539e+00
54 39 1.04346740042674102e+00
55 39 1.02538338152445285e+00
56 39 9.97283210237884354e-01
57 39 9.58824349111163099e-01
58 39 9.09959688702347780e-01
59 39 8.50971570654163179e-01
60 39 7.82483145549417114e-01
61 39 7.05443234733671876e-01
62 39 6.21084413225177823e-01
63 39 5.30857969496540294e-01
64 39 4.36352837068332056e-01
65 39 3.39207732238186732e-01
66 39 2.41026126375659955e-01
67 39 1.43302370737125206e-01
68 39 4.73647502691356623e-02
69 39 2.57695772047739188e-16
1 40 0.00000000000000000e+00
2 40 -4.90103294322670469e-02
3 40 -1.48281081571076973e-01
4 40 -2.49400024033314460e-01
5 40 -3.50992723671109397e-01
6 40 -4.51512911435301090e-01
7 40 -5.49301407036526967e-01
8 40 -6.42662560753492262e-01
9 40 -7.29952235229898494e-01
10 40 -8.09668720317598178e-01
11 40 -8.80536618018054607e-01
12 40 -9.41574142373268419e-01
13 40 -9.92136492868600062e-01
14 40 -1.03193151855120591e+00
15 40 -1.06100796557208832e+00
16 40 -1.07972027206213284e+00
17 40 -1.08867641812454696e+00
18 40 -1.08867641812454696e+00
19 40 -1.08867641812454696e+00
20 40 -1.07972027206213306e+00
21 40 -1.06100796557208832e+00
22 40 -1.03193151855120591e+00
23 40 -9.92136492868600728e-01
24 40 -9.41574142373268752e-01
25 40 -8.80536618018054607e-01
26 40 -8.09668720317598289e-01
27 40 -7.29952235229898716e-01
28 40 -6.42662560753492484e-01
29 40 -5.49301407036526856e-01
30 40 -4.51512911435301145e-01
31 40 -3.50992723671109508e-01
32 40 -2.49400024033314599e-01
33 40 -1.48281081571077111e-01
34 40 -4.90103294322671856e-02
35 40 -1.33324409076343163e-16
36 40 4.90103294322669428e-02
37 40 1.48281081571076945e-01
38 40 2.49400024033314432e-01
39 40 3.50992723671109397e-01
40 40 4.51512911435301090e-01
41 40 5.49301407036526967e-01
42 40 6.42662560753492262e-01
43 40 7.29952235229898494e-01
44 40 8.09668720317598178e-01
45 40 8.80536618018054607e-01
46 40 9.41574142373268419e-01
47 40 9.92136492868600062e-01
48 40 1.03193151855120591e+00
49 40 1.06100796557208832e+00
50 40 1.07972027206213284e+00
51 40 1.08867641812454696e+00
52 40 1.08867641812454696e+00
53 40 1.08867641812454696e+00
54 40 1.07972027206213306e+00
55 40 1.06100796557208832e+00
56 40 1.03193151855120591e+00
57 40 9.92136492868600728e-01
58 40 9.41574142373268752e-01
59 40 8.80536618018054607e-01
60 40 8.09668720317598289e-01
61 40 7.29952235229898716e-01
62 40 6.42662560753492595e-01
63 40 5.49301407036527078e-01
64 40 4.51512911435301201e-01
65 40 3.50992723671109674e-01
66 40 2.49400024033314738e-01
67 40 1.48281081571077250e-01
68 40 4.90103294322673036e-02
69 40 2.66648818152686326e-16
1 41 0.00000000000000000e+00
2 41 -5.11011523174611168e-02
3 41 -1.54606880282930209e-01
4 41 -2.60039643963587697e-01
5 41 -3.65966375709142810e-01
6 41 -4.70774841300395985e-01
7 41 -5.72735078387144991e-01
8 41 -6.70079099369863429e-01
9 41 -7.61092626575899600e-01
10 41 -8.44209885608180555e-01
11 41 -9.18101068890556649e-01
12 41 -9.81742506630067235e-01
13 41 -1.03446189056650129e+00
14 41 -1.07595460633562356e+00
15 41 -1.10627147964124295e+00
16 41 -1.12578206925032309e+00
17 41 -1.13512029222116340e+00
18 41 -1.13512029222116340e+00
19 41 -1.13512029222116340e+00
20 41 -1.12578206925032331e+00
21 41 -1.10627147964124295e+00
22 41 -1.07595460633562356e+00
23 41 -1.03446189056650195e+00
24 41 -9.81742506630067568e-01
25 41 -9.18101068890556649e-01
26 41 -8.44209885608180666e-01
27 41 -7.61092626575899933e-01
28 41 -6.70079099369863762e-01
29 41 -5.72735078387144991e-01
30 41 -4.70774841300396152e-01
31 41 -3.65966375709142977e-01
32 41 -2.60039643963587808e-01
33 41 -1.54606880282930320e-01
34 41 -5.11011523174612625e-02
35 41 -1.39012143251585550e-16
36 41 5.11011523174610127e-02
37 41 1.54606880282930154e-01
38 41 2.60039643963587641e-01
39 41 3.65966375709142810e-01
40 41 4.70774841300395985e-01
41 41 5.72735078387144991e-01
42 41 6.70079099369863429e-01
43 41 7.61092626575899600e-01
44 41 8.44209885608180555e-01
45 41 9.18101068890556649e-01
46 41 9.81742506630067235e-01
47 41 1.03446189056650129e+00
48 41 1.07595460633562356e+00
49 41 1.10627147964124295e+00
50 41 1.12578206925032309e+00
51 41 1.13512029222116340e+00
52 41 1.13512029222116340e+00
53 41 1.13512029222116340e+00
54 41 1.12578206925032331e+00
55 41 1.10627147964124295e+00
56 41 1.07595460633562356e+00
57 41 1.03446189056650195e+00
58 41 9.81742506630067568e-01
59 41 9.18101068890556649e-01
60 41 8.44209885608180666e-01
61 41 7.61092626575899933e-01
62 41 6.70079099369863873e-01
63 41 5.72735078387145213e-01
64 41 4.70774841300396263e-01
65 41 3.65966375709143144e-01
66 41 2.60039643963587974e-01
67 41 1.54606880282930459e-01
68 41 5.11011523174613944e-02
69 41 2.78024286503171099e-16
1 42 0.00000000000000000e+00
2 42 -5.36251380801335553e-02
3 42 -1.62243216196082979e-01
4 42 -2.72883510086548653e-01
5 42 -3.84042170089832158e-01
6 42 -4.94027330588402924e-01
7 42 -6.01023583011301765e-01
8 42 -7.03175615396880782e-01
9 42 -7.98684478548602583e-01
10 42 -8.85907061412459007e-01
11 42 -9.63447874617720301e-01
12 42 -1.03023268732014039e+00
13 42 -1.08555598464087155e+00
14 42 -1.12909810671702315e+00
15 42 -1.16091238963322740e+00
16 42 -1.18138664538605176e+00
17 42 -1.19118610143595527e+00
18 42 -1.19118610143595527e+00
19 42 -1.19118610143595527e+00
20 42 -1.18138664538605220e+00
21 42 -1.16091238963322740e+00
22 42 -1.12909810671702293e+00
23 42 -1.08555598464087200e+00
24 42 -1.03023268732014084e+00
25 42 -9.63447874617720301e-01
26 42 -8.85907061412459007e-01
27 42 -7.98684478548602916e-01
28 42 -7.03175615396881115e-01
29 42 -6.01023583011301765e-01
30 42 -4.94027330588403146e-01
31 42 -3.84042170089832269e-01
32 42 -2.72883510086548764e-01
33 42 -1.62243216196083118e-01
34 42 -5.36251380801337080e-02
35 42 -1.45878224631235669e-16
36 42 5.36251380801334512e-02
37 42 1.62243216196082923e-01
38 42 2.72883510086548597e-01
39 42 3.84042170089832158e-01
40 42 4.94027330588402924e-01
41 42 6.01023583011301765e-01
42 42 7.03175615396880782e-01
43 42 7.98684478548602583e-01
44 42 8.85907061412459007e-01
45 42 9.63447874617720301e-01
46 42 1.03023268732014039e+00
47 42 1.08555598464087155e+00
48 42 1.12909810671702315e+00
49 42 1.16091238963322740e+00
50 42 1.18138664538605176e+00
51 42 1.19118610143595527e+00
52 42 1.19118610143595527e+00
53 42 1.19118610143595527e+00
54 42 1.18138664538605220e+00
55 42 1.16091238963322740e+00
56 42 1.12909810671702293e+00
57 42 1.08555598464087200e+00
58 42 1.03023268732014084e+00
59 42 9.63447874617720301e-01
60 42 8.85907061412459007e-01
61 42 7.98684478548603027e-01
62 42 7.03175615396881226e-01
63 42 6.01023583011301987e-01
64 42 4.94027330588403313e-01
65 42 3.84042170089832435e-01
66 42 2.72883510086548930e-01
67 42 1.62243216196083256e-01
68 42 5.36251380801338468e-02
69 42 2.91756449262471339e-16
1 43 0.00000000000000000e+00
2 43 -5.65556233302483974e-02
3 43 -1.71109419044518235e-01
4 43 -2.87795939777885035e-01
5 43 -4.05029154089548649e-01
6 43 -5.21024739961587602e-01
7 43 -6.33868081096394809e-01
8 43 -7.41602477181025899e-01
9 43 -8.42330670757652333e-01
10 43 -9.34319758691901203e-01
11 43 -1.01609799146408974e+00
12 43 -1.08653243408939559e+00
13 43 -1.14487901699204642e+00
14 43 -1.19080061166390805e+00
15 43 -1.22435346887878560e+00
16 43 -1.24594659362922555e+00
17 43 -1.25628156646177103e+00
18 43 -1.25628156646177103e+00
19 43 -1.25628156646177103e+00
20 43 -1.24594659362922622e+00
21 43 -1.22435346887878560e+00
22 43 -1.19080061166390783e+00
23 43 -1.14487901699204664e+00
24 43 -1.08653243408939582e+00
25 43 -1.01609799146408974e+00
26 43 -9.34319758691901203e-01
27 43 -8.42330670757652666e-01
28 43 -7.41602477181026121e-01
29 43 -6.33868081096394698e-01
30 43 -5.21024739961587935e-01
31 43 -4.05029154089548760e-01
32 43 -2.87795939777885146e-01
33 43 -1.71109419044518374e-01
34 43 -5.65556233302485500e-02
35 43 -1.53850119919523027e-16
36 43 5.65556233302482864e-02
37 43 1.71109419044518180e-01
38 43 2.87795939777884979e-01
39 43 4.05029154089548649e-01
40 43 5.21024739961587602e-01
41 43 6.33868081096394809e-01
42 43 7.41602477181025899e-01
43 43 8.42330670757652333e-01
44 43 9.34319758691901203e-01
45 43 1.01609799146408974e+00
46 43 1.08653243408939559e+00
47 43 1.14487901699204642e+00
48 43 1.19080061166390805e+00
49 43 1.22435346887878560e+00
50 43 1.24594659362922555e+00
51 43 1.25628156646177103e+00
52 43 1.25628156646177103e+00
53 43 1.25628156646177103e+00
54 43 1.24594659362922622e+00
55 43 1.22435346887878560e+00
56 43 1.19080061166390783e+00
57 43 1.14487901699204664e+00
58 43 1.08653243408939582e+00
59 43 1.01609799146408974e+00
60 43 9.34319758691901314e-01
61 43 8.42330670757652777e-01
62 43 7.41602477181026343e-01
63 43 6.33868081096395142e-01
64 43 5.21024739961588046e-01
65 43 4.05029154089548926e-01
66 43 2.87795939777885312e-01
67 43 1.71109419044518540e-01
68 43 5.65556233302487027e-02
69 43 3.07700239839046054e-16
1 44 0.00000000000000000e+00
2 44 -5.98520098652055091e-02
3 44 -1.81082658693015014e-01
4 44 -3.04570340002588202e-01
5 44 -4.28636579331943102e-01
6 44 -5.51393054128329729e-01
7 44 -6.70813553260392936e-01
8 44 -7.84827328683332492e-01
9 44 -8.91426539878448443e-01
10 44 -9.88777280164378825e-01
11 44 -1.07532201800695981e+00
12 44 -1.14986178446384102e+00
13 44 -1.21160914131107300e+00
14 44 -1.26020731025488919e+00
15 44 -1.29571582068724767e+00
16 44 -1.31856751676063766e+00
17 44 -1.32950487116513427e+00
18 44 -1.32950487116513405e+00
19 44 -1.32950487116513427e+00
20 44 -1.31856751676063810e+00
21 44 -1.29571582068724789e+00
22 44 -1.26020731025488875e+00
23 44 -1.21160914131107322e+00
24 44 -1.14986178446384124e+00
25 44 -1.07532201800695981e+00
26 44 -9.88777280164378825e-01
27 44 -8.91426539878448887e-01
28 44 -7.84827328683332825e-01
29 44 -6.70813553260392825e-01
30 44 -5.51393054128329951e-01
31 44 -4.28636579331943157e-01
32 44 -3.04570340002588313e-01
33 44 -1.81082658693015180e-01
34 44 -5.98520098652056826e-02
35 44 -1.62817388492319550e-16
36 44 5.98520098652053981e-02
37 44 1.81082658693014931e-01
38 44 3.04570340002588202e-01
39 44 4.28636579331943102e-01
40 44 5.51393054128329729e-01
41 44 6.70813553260392936e-01
42 44 7.84827328683332492e-01
43 44 8.91426539878448443e-01
44 44 9.88777280164378825e-01
45 44 1.07532201800695981e+00
46 44 1.14986178446384102e+00
47 44 1.21160914131107300e+00
48 44 1.26020731025488919e+00
49 44 1.29571582068724767e+00
50 44 1.31856751676063766e+00
51 44 1.32950487116513427e+00
52 44 1.32950487116513405e+00
53 44 1.32950487116513427e+00
54 44 1.31856751676063810e+00
55 44 1.29571582068724789e+00
56 44 1.26020731025488875e+00
57 44 1.21160914131107322e+00
58 44 1.14986178446384124e+00
59 44 1.07532201800695981e+00
60 44 9.88777280164378936e-01
61 44 8.91426539878448887e-01
62 44 7.84827328683332825e-01
63 44 6.70813553260393269e-01
64 44 5.51393054128330062e-01
65 44 4.28636579331943435e-01
66 44 3.04570340002588480e-01
67 44 1.81082658693015347e-01
68 44 5.98520098652058283e-02
69 44 3.25634776984639099e-16
1 45 0.00000000000000000e+00
2 45 -6.34615582198307521e-02
3 45 -1.92003371534715556e-01
4 45 -3.22938334195262744e-01
5 45 -4.54486746488305393e-01
6 45 -5.84646405114588541e-01
7 45 -7.11268902427188210e-01
8 45 -8.32158607938512929e-01
9 45 -9.45186592507158529e-01
10 45 -1.04840835041157865e+00
11 45 -1.14017241867906427e+00
12 45 -1.21920752108163111e+00
13 45 -1.28467873065849303e+00
14 45 -1.33620775257022140e+00
15 45 -1.37385770630072424e+00
16 45 -1.39808753991950097e+00
17 45 -1.40968450307704751e+00
18 45 -1.40968450307704685e+00
19 45 -1.40968450307704751e+00
20 45 -1.39808753991950141e+00
21 45 -1.37385770630072424e+00
22 45 -1.33620775257022073e+00
23 45 -1.28467873065849347e+00
24 45 -1.21920752108163133e+00
25 45 -1.14017241867906427e+00
26 45 -1.04840835041157865e+00
27 45 -9.45186592507159196e-01
28 45 -8.32158607938513262e-01
29 45 -7.11268902427188210e-01
30 45 -5.84646405114588763e-01
31 45 -4.54486746488305504e-01
32 45 -3.22938334195262911e-01
33 45 -1.92003371534715722e-01
34 45 -6.34615582198309464e-02
35 45 -1.72636561450093246e-16
36 45 6.34615582198306410e-02
37 45 1.92003371534715472e-01
38 45 3.22938334195262744e-01
39 45 4.54486746488305393e-01
40 45 5.84646405114588541e-01
41 45 7.11268902427188210e-01
42 45 8.32158607938512929e-01
43 45 9.45186592507158529e-01
44 45 1.04840835041157865e+00
45 45 1.14017241867906427e+00
46 45 1.21920752108163111e+00
47 45 1.28467873065849303e+00
48 45 1.33620775257022140e+00
49 45 1.37385770630072424e+00
50 45 1.39808753991950097e+00
51 45 1.40968450307704751e+00
52 45 1.40968450307704685e+00
53 45 1.40968450307704751e+00
54 45 1.39808753991950141e+00
55 45 1.37385770630072424e+00
56 45 1.33620775257022073e+00
57 45 1.28467873065849347e+00
58 45 1.21920752108163133e+00
59 45 1.14017241867906427e+00
60 45 1.04840835041157865e+00
61 45 9.45186592507159196e-01
62 45 8.32158607938513262e-01
63 45 7.11268902427188654e-01
64 45 5.84646405114588985e-01
65 45 4.54486746488305782e-01
66 45 3.22938334195263022e-01
67 45 1.92003371534715916e-01
68 45 6.34615582198310990e-02
69 45 3.45273122900186492e-16
1 46 0.00000000000000000e+00
2 46 -6.73221706096280709e-02
3 46 -2.03683680304665521e-01
4 46 -3.42583923889358044e-01
5 46 -4.82134935623742378e-01
6 46 -6.20212710426810365e-01
7 46 -7.54538144693128632e-01
8 46 -8.82782039228292015e-01
9 46 -1.00268595388532278e+00
10 46 -1.11218709112805114e+00
11 46 -1.20953352309458895e+00
12 46 -1.29337663690001636e+00
13 46 -1.36283071374263121e+00
14 46 -1.41749444564268745e+00
15 46 -1.45743479188677760e+00
16 46 -1.48313862013309472e+00
17 46 -1.49544107147759919e+00
18 46 -1.49544107147759875e+00
19 46 -1.49544107147759919e+00
20 46 -1.48313862013309516e+00
21 46 -1.45743479188677760e+00
22 46 -1.41749444564268678e+00
23 46 -1.36283071374263165e+00
24 46 -1.29337663690001659e+00
25 46 -1.20953352309458895e+00
26 46 -1.11218709112805114e+00
27 46 -1.00268595388532322e+00
28 46 -8.82782039228292348e-01
29 46 -7.54538144693128743e-01
30 46 -6.20212710426810698e-01
31 46 -4.82134935623742489e-01
32 46 -3.42583923889358266e-01
33 46 -2.03683680304665715e-01
34 46 -6.73221706096282652e-02
35 46 -1.83138712149852958e-16
36 46 6.73221706096279460e-02
37 46 2.03683680304665493e-01
38 46 3.42583923889358044e-01
39 46 4.82134935623742378e-01
40 46 6.20212710426810365e-01
41 46 7.54538144693128632e-01
42 46 8.82782039228292015e-01
43 46 1.00268595388532278e+00
44 46 1.11218709112805114e+00
45 46 1.20953352309458895e+00
46 46 1.29337663690001636e+00
47 46 1.36283071374263121e+00
48 46 1.41749444564268745e+00
49 46 1.45743479188677760e+00
50 46 1.48313862013309472e+00
51 46 1.49544107147759919e+00
52 46 1.49544107147759875e+00
53 46 1.49544107147759919e+00
54 46 1.48313862013309516e+00
55 46 1.45743479188677760e+00
56 46 1.41749444564268678e+00
57 46 1.36283071374263165e+00
58 46 1.29337663690001659e+00
59 46 1.20953352309458895e+00
60 46 1.11218709112805114e+00
61 46 1.00268595388532322e+00
62 46 8.82782039228292348e-01
63 46 7.54538144693129187e-01
64 46 6.20212710426810809e-01
65 46 4.82134935623742711e-01
66 46 3.42583923889358322e-01
67 46 2.03683680304665937e-01
68 46 6.73221706096284317e-02
69 46 3.66277424299705917e-16
1 47 0.00000000000000000e+00
2 47 -7.13658596887308677e-02
3 47 -2.15917888830343269e-01
4 47 -3.63161140267902249e-01
5 47 -5.11094248078781344e-01
6 47 -6.57465629356239201e-01
7 47 -7.99859286715631113e-01
8 47 -9.35806118204513204e-01
9 47 -1.06291203104208032e+00
10 47 -1.17899032628206490e+00
11 47 -1.28218384696051091e+00
12 47 -1.37106297610208827e+00
13 47 -1.44468879443022602e+00
14 47 -1.50263588950329963e+00
15 47 -1.54497524250044505e+00
16 47 -1.57222296466208844e+00
17 47 -1.58526435962200951e+00
18 47 -1.58526435962200907e+00
19 47 -1.58526435962200951e+00
20 47 -1.57222296466208866e+00
21 47 -1.54497524250044505e+00
22 47 -1.50263588950329940e+00
23 47 -1.44468879443022646e+00
24 47 -1.37106297610208827e+00
25 47 -1.28218384696051091e+00
26 47 -1.17899032628206490e+00
27 47 -1.06291203104208076e+00
28 47 -9.35806118204513537e-01
29 47 -7.99859286715631446e-01
30 47 -6.57465629356239423e-01
31 47 -5.11094248078781455e-01
32 47 -3.63161140267902416e-01
33 47 -2.15917888830343463e-01
34 47 -7.13658596887310759e-02
35 47 -1.94138892381347197e-16
36 47 7.13658596887307428e-02
37 47 2.15917888830343241e-01
38 47 3.63161140267902249e-01
39 47 5.11094248078781344e-01
40 47 6.57465629356239201e-01
41 47 7.99859286715631113e-01
42 47 9.35806118204513204e-01
43 47 1.06291203104208032e+00
44 47 1.17899032628206490e+00
45 47 1.28218384696051091e+00
46 47 1.37106297610208827e+00
47 47 1.44468879443022602e+00
48 47 1.50263588950329963e+00
49 47 1.54497524250044505e+00
50 47 1.57222296466208844e+00
51 47 1.58526435962200951e+00
52 47 1.58526435962200907e+00
53 47 1.58526435962200951e+00
54 47 1.57222296466208866e+00
55 47 1.54497524250044505e+00
56 47 1.50263588950329940e+00
57 47 1.44468879443022646e+00
58 47 1.37106297610208827e+00
59 47 1.28218384696051113e+00
60 47 1.17899032628206490e+00
61 47 1.06291203104208098e+00
62 47 9.35806118204513537e-01
63 47 7.99859286715631890e-01
64 47 6.57465629356239534e-01
65 47 5.11094248078781677e-01
66 47 3.63161140267902527e-01
67 47 2.15917888830343685e-01
68 47 7.13658596887312563e-02
69 47 3.88277784762694394e-16
1 48 0.00000000000000000e+00
2 48 -7.55225080039784169e-02
3 48 -2.28493856285271468e-01
4 48 -3.84313174986490758e-01
5 48 -5.40862530202409153e-01
6 48 -6.95759197352426528e-01
7 48 -8.46446461186208143e-01
8 48 -9.90311408851875075e-01
9 48 -1.12482050551933876e+00
10 48 -1.24765968968367091e+00
11 48 -1.35686363573558522e+00
12 48 -1.45091945978448034e+00
13 48 -1.52883355593967973e+00
14 48 -1.59015573394679954e+00
15 48 -1.63496110922787552e+00
16 48 -1.66379585351622672e+00
17 48 -1.67759683425883233e+00
18 48 -1.67759683425883188e+00
19 48 -1.67759683425883233e+00
20 48 -1.66379585351622672e+00
21 48 -1.63496110922787552e+00
22 48 -1.59015573394679954e+00
23 48 -1.52883355593967996e+00
24 48 -1.45091945978448011e+00
25 48 -1.35686363573558522e+00
26 48 -1.24765968968367091e+00
27 48 -1.12482050551933921e+00
28 48 -9.90311408851875519e-01
29 48 -8.46446461186208476e-01
30 48 -6.95759197352426750e-01
31 48 -5.40862530202409153e-01
32 48 -3.84313174986490980e-01
33 48 -2.28493856285271690e-01
34 48 -7.55225080039786251e-02
35 48 -2.05446359333481097e-16
36 48 7.55225080039782642e-02
37 48 2.28493856285271413e-01
38 48 3.84313174986490758e-01
39 48 5.40862530202409153e-01
40 48 6.95759197352426528e-01
41 48 8.46446461186208143e-01
42 48 9.90311408851875075e-01
43 48 1.12482050551933876e+00
44 48 1.24765968968367091e+00
45 48 1.35686363573558522e+00
46 48 1.45091945978448034e+00
47 48 1.52883355593967973e+00
48 48 1.59015573394679954e+00
49 48 1.63496110922787552e+00
50 48 1.66379585351622672e+00
51 48 1.67759683425883233e+00
52 48 1.67759683425883188e+00
53 48 1.67759683425883233e+00
54 48 1.66379585351622672e+00
55 48 1.63496110922787552e+00
56 48 1.59015573394679954e+00
57 48 1.52883355593967996e+00
58 48 1.45091945978448011e+00
59 48 1.35686363573558522e+00
60 48 1.24765968968367091e+00
61 48 1.12482050551933943e+00
62 48 9.90311408851875519e-01
63 48 8.46446461186208921e-01
64 48 6.95759197352426861e-01
65 48 5.40862530202409375e-01
66 48 3.84313174986491091e-01
67 48 2.28493856285271885e-01
68 48 7.55225080039788194e-02
69 48 4.10892718666962194e-16
1 49 0.00000000000000000e+00
2 49 -7.97235061634876258e-02
3 49 -2.41204004492518748e-01
4 49 -4.05690893807856390e-01
5 49 -5.70948428485979376e-01
6 49 -7.34461343041036052e-01
7 49 -8.93530702951312428e-01
8 49 -1.04539825005832099e+00
9 49 -1.18738951968947237e+00
10 49 -1.31706172887149564e+00
11 49 -1.43234022923179039e+00
12 49 -1.53162798153841351e+00
13 49 -1.61387610980137319e+00
14 49 -1.67860938158376127e+00
15 49 -1.72590709066129966e+00
16 49 -1.75634578999413771e+00
17 49 -1.77091446100857652e+00
18 49 -1.77091446100857608e+00
19 49 -1.77091446100857652e+00
20 49 -1.75634578999413771e+00
21 49 -1.72590709066129966e+00
22 49 -1.67860938158376105e+00
23 49 -1.61387610980137342e+00
24 49 -1.53162798153841373e+00
25 49 -1.43234022923179039e+00
26 49 -1.31706172887149564e+00
27 49 -1.18738951968947282e+00
28 49 -1.04539825005832143e+00
29 49 -8.93530702951312761e-01
30 49 -7.34461343041036274e-01
31 49 -5.70948428485979376e-01
32 49 -4.05690893807856612e-01
33 49 -2.41204004492519025e-01
34 49 -7.97235061634878478e-02
35 49 -2.16874472623791278e-16
36 49 7.97235061634874592e-02
37 49 2.41204004492518720e-01
38 49 4.05690893807856390e-01
39 49 5.70948428485979376e-01
40 49 7.34461343041036052e-01
41 49 8.93530702951312428e-01
42 49 1.04539825005832099e+00
43 49 1.18738951968947237e+00
44 49 1.31706172887149564e+00
45 49 1.43234022923179039e+00
46 49 1.53162798153841351e+00
47 49 1.61387610980137319e+00
48 49 1.67860938158376127e+00
49 49 1.72590709066129966e+00
50 49 1.75634578999413771e+00
51 49 1.77091446100857652e+00
52 49 1.77091446100857608e+00
53 49 1.77091446100857652e+00
54 49 1.75634578999413771e+00
55 49 1.72590709066129966e+00
56 49 1.67860938158376105e+00
57 49 1.61387610980137342e+00
58 49 1.53162798153841373e+00
59 49 1.43234022923179039e+00
60 49 1.31706172887149564e+00
61 49 1.18738951968947304e+00
62 49 1.04539825005832143e+00
63 49 8.93530702951313094e-01
64 49 7.34461343041036385e-01
65 49 5.70948428485979598e-01
66 49 4.05690893807856834e-01
67 49 2.41204004492519219e-01
68 49 7.97235061634880421e-02
69 49 4.33748945247582556e-16
1 50 0.00000000000000000e+00
2 50 -8.39049138107881148e-02
3 50 -2.53854881473220773e-01
4 50 -4.26968921925807599e-01
5 50 -6.00894027218048854e-01
6 50 -7.72983009036765978e-01
7 50 -9.40395376799908589e-01
8 50 -1.10022820483106276e+00
9 50 -1.24966675581318820e+00
10 50 -1.38614012557141764e+00
11 50 -1.50746485277461351e+00
12 50 -1.61196013529104487e+00
13 50 -1.69852208477242428e+00
14 50 -1.76665054337851535e+00
15 50 -1.81642896375381135e+00
16 50 -1.84846413840853496e+00
17 50 -1.86379691972522088e+00
18 50 -1.86379691972522044e+00
19 50 -1.86379691972522088e+00
20 50 -1.84846413840853496e+00
21 50 -1.81642896375381135e+00
22 50 -1.76665054337851513e+00
23 50 -1.69852208477242450e+00
24 50 -1.61196013529104509e+00
25 50 -1.50746485277461351e+00
26 50 -1.38614012557141764e+00
27 50 -1.24966675581318865e+00
28 50 -1.10022820483106298e+00
29 50 -9.40395376799909033e-01
30 50 -7.72983009036766089e-01
31 50 -6.00894027218048965e-01
32 50 -4.26968921925807821e-01
33 50 -2.53854881473221050e-01
34 50 -8.39049138107883508e-02
35 50 -2.28249293200218765e-16
36 50 8.39049138107879344e-02
37 50 2.53854881473220717e-01
38 50 4.26968921925807599e-01
39 50 6.00894027218048854e-01
40 50 7.72983009036765978e-01
41 50 9.40395376799908589e-01
42 50 1.10022820483106276e+00
43 50 1.24966675581318820e+00
44 50 1.38614012557141764e+00
45 50 1.50746485277461351e+00
46 50 1.61196013529104487e+00
47 50 1.69852208477242428e+00
48 50 1.76665054337851535e+00
49 50 1.81642896375381135e+00
50 50 1.84846413840853496e+00
51 50 1.86379691972522088e+00
52 50 1.86379691972522044e+00
53 50 1.86379691972522088e+00
54 50 1.84846413840853496e+00
55 50 1.81642896375381135e+00
56 50 1.76665054337851513e+00
57 50 1.69852208477242450e+00
58 50 1.61196013529104509e+00
59 50 1.50746485277461351e+00
60 50 1.38614012557141764e+00
61 50 1.24966675581318865e+00
62 50 1.10022820483106298e+00
63 50 9.40395376799909255e-01
64 50 7.72983009036766311e-01
65 50 6.00894027218049076e-01
66 50 4.26968921925808043e-01
67 50 2.53854881473221272e-01
68 50 8.39049138107885589e-02
69 50 4.56498586400437531e-16
1 51 0.00000000000000000e+00
2 51 -8.80098962407764862e-02
3 51 -2.66274533444549877e-01
4 51 -4.47858043230538239e-01
5 51 -6.30292298570517495e-01
6 51 -8.10800599528915367e-01
7 51 -9.86403486738632873e-01
8 51 -1.15405601114993983e+00
9 51 -1.31080572661914063e+00
10 51 -1.45395594949090978e+00
11 51 -1.58121639429242622e+00
12 51 -1.69082402695933753e+00
13 51 -1.78162095226737627e+00
14 51 -1.85308254254428739e+00
15 51 -1.90529633329007186e+00
16 51 -1.93889880386498192e+00
17 51 -1.95498172954210170e+00
18 51 -1.95498172954210148e+00
19 51 -1.95498172954210170e+00
20 51 -1.93889880386498192e+00
21 51 -1.90529633329007186e+00
22 51 -1.85308254254428739e+00
23 51 -1.78162095226737649e+00
24 51 -1.69082402695933753e+00
25 51 -1.58121639429242600e+00
26 51 -1.45395594949090978e+00
27 51 -1.31080572661914085e+00
28 51 -1.15405601114993983e+00
29 51 -9.86403486738633206e-01
30 51 -8.10800599528915478e-01
31 51 -6.30292298570517606e-01
32 51 -4.47858043230538405e-01
33 51 -2.66274533444550154e-01
34 51 -8.80098962407767360e-02
35 51 -2.39416211747529095e-16
36 51 8.80098962407763058e-02
37 51 2.66274533444549821e-01
38 51 4.47858043230538239e-01
39 51 6.30292298570517495e-01
40 51 8.10800599528915367e-01
41 51 9.86403486738632873e-01
42 51 1.15405601114993983e+00
43 51 1.31080572661914063e+00
44 51 1.45395594949090978e+00
45 51 1.58121639429242622e+00
46 51 1.69082402695933753e+00
47 51 1.78162095226737627e+00
48 51 1.85308254254428739e+00
49 51 1.90529633329007186e+00
50 51 1.93889880386498192e+00
51 51 1.95498172954210170e+00
52 51 1.95498172954210148e+00
53 51 1.95498172954210170e+00
54 51 1.93889880386498192e+00
55 51 1.90529633329007186e+00
56 51 1.85308254254428739e+00
57 51 1.78162095226737649e+00
58 51 1.69082402695933753e+00
59 51 1.58121639429242600e+00
60 51 1.45395594949090978e+00
61 51 1.31080572661914085e+00
62 51 1.15405601114994005e+00
63 51 9.86403486738633539e-01
64 51 8.10800599528915700e-01
65 51 6.30292298570517828e-01
66 51 4.47858043230538683e-01
67 51 2.66274533444550376e-01
68 51 8.80098962407769581e-02
69 51 4.78832423495058191e-16
1 52 0.00000000000000000e+00
2 52 -9.00365409157969920e-02
3 52 -2.72406160549558740e-01
4 52 -4.58171077982847619e-01
5 52 -6.44806331482336015e-01
6 52 -8.29471280755981422e-01
7 52 -1.00911785704480184e+00
8 52 -1.18063099384590586e+00
9 52 -1.34099025766973190e+00
10 52 -1.48743686707645817e+00
11 52 -1.61762779712808968e+00
12 52 -1.72975941555767343e+00
13 52 -1.82264716375090607e+00
14 52 -1.89575433319094899e+00
15 52 -1.94917047509833563e+00
16 52 -1.98354672533856724e+00
17 52 -2.00000000000000000e+00
18 52 -2.00000000000000000e+00
19 52 -2.00000000000000000e+00
20 52 -1.98354672533856724e+00
21 52 -1.94917047509833563e+00
22 52 -1.89575433319094899e+00
23 52 -1.82264716375090630e+00
24 52 -1.72975941555767321e+00
25 52 -1.61762779712808946e+00
26 52 -1.48743686707645817e+00
27 52 -1.34099025766973212e+00
28 52 -1.18063099384590608e+00
29 52 -1.00911785704480206e+00
30 52 -8.29471280755981533e-01
31 52 -6.44806331482336126e-01
32 52 -4.58171077982847785e-01
33 52 -2.72406160549559018e-01
34 52 -9.00365409157972418e-02
35 52 -2.44929359829470641e-16
36 52 9.00365409157967839e-02
37 52 2.72406160549558685e-01
38 52 4.58171077982847619e-01
39 52 6.44806331482336015e-01
40 52 8.29471280755981422e-01
41 52 1.00911785704480184e+00
42 52 1.18063099384590586e+00
43 52 1.34099025766973190e+00
44 52 1.48743686707645817e+00
45 52 1.61762779712808968e+00
46 52 1.72975941555767343e+00
47 52 1.82264716375090607e+00
48 52 1.89575433319094899e+00
49 52 1.94917047509833563e+00
50 52 1.98354672533856724e+00
51 52 2.00000000000000000e+00
52 52 2.00000000000000000e+00
53 52 2.00000000000000000e+00
54 52 1.98354672533856724e+00
55 52 1.94917047509833563e+00
56 52 1.89575433319094899e+00
57 52 1.82264716375090630e+00
58 52 1.72975941555767321e+00
59 52 1.61762779712808946e+00
60 52 1.48743686707645817e+00
61 52 1.34099025766973212e+00
62 52 1.18063099384590631e+00
63 52 1.00911785704480250e+00
64 52 8.29471280755981755e-01
65 52 6.44806331482336348e-01
66 52 4.58171077982848063e-01
67 52 2.72406160549559240e-01
68 52 9.00365409157974639e-02
69 52 4.89858719658941283e-16
1 53 0.00000000000000000e+00
2 53 -9.20631855908174979e-02
3 53 -2.78537787654567659e-01
4 53 -4.68484112735156943e-01
5 53 -6.59320364394154756e-01
6 53 -8.48141961983047366e-01
7 53 -1.03183222735097080e+00
8 53 -1.20720597654187212e+00
9 53 -1.37117478872032361e+00
10 53 -1.52091778466200700e+00
11 53 -1.65403919996375315e+00
12 53 -1.76869480415600933e+00
13 53 -1.86367337523443610e+00
14 53 -1.93842612383761037e+00
15 53 -1.99304461690659940e+00
16 53 -2.02819464681215234e+00
17 53 -2.04501827045789852e+00
18 53 -2.04501827045789852e+00
19 53 -2.04501827045789852e+00
20 53 -2.02819464681215278e+00
21 53 -1.99304461690659940e+00
22 53 -1.93842612383761059e+00
23 53 -1.86367337523443588e+00
24 53 -1.76869480415600910e+00
25 53 -1.65403919996375315e+00
26 53 -1.52091778466200700e+00
27 53 -1.37117478872032383e+00
28 53 -1.20720597654187256e+00
29 53 -1.03183222735097102e+00
30 53 -8.48141961983047810e-01
31 53 -6.59320364394154756e-01
32 53 -4.68484112735157221e-01
33 53 -2.78537787654567937e-01
34 53 -9.20631855908177615e-02
35 53 -2.50442507911412187e-16
36 53 9.20631855908172897e-02
37 53 2.78537787654567603e-01
38 53 4.68484112735156943e-01
39 53 6.59320364394154756e-01
40 53 8.48141961983047366e-01
41 53 1.03183222735097080e+00
42 53 1.20720597654187212e+00
43 53 1.37117478872032361e+00
44 53 1.52091778466200700e+00
45 53 1.65403919996375315e+00
46 53 1.76869480415600933e+00
47 53 1.86367337523443610e+00
48 53 1.93842612383761037e+00
49 53 1.99304461690659940e+00
50 53 2.02819464681215234e+00
51 53 2.04501827045789852e+00
52 53 2.04501827045789852e+00
53 53 2.04501827045789852e+00
54 53 2.02819464681215278e+00
55 53 1.99304461690659940e+00
56 53 1.93842612383761059e+00
57 53 1.86367337523443588e+00
58 53 1.76869480415600910e+00
59 53 1.65403919996375315e+00
60 53 1.52091778466200700e+00
61 53 1.37117478872032383e+00
62 53 1.20720597654187256e+00
63 53 1.03183222735097146e+00
64 53 8.48141961983047921e-01
65 53 6.59320364394154868e-01
66 53 4.68484112735157443e-01
67 53 2.78537787654568159e-01
68 53 9.20631855908179836e-02
69 53 5.00885015822824375e-16
1 54 0.00000000000000000e+00
2 54 -9.61681680208058970e-02
3 54 -2.90957439625896763e-01
4 54 -4.89373234039887584e-01
5 54 -6.88718635746623620e-01
6 54 -8.85959552475196865e-01
7 54 -1.07784033728969519e+00
8 54 -1.26103378286074941e+00
9 54 -1.43231375952627582e+00
10 54 -1.58873360858149870e+00
11 54 -1.72779074148156542e+00
12 54 -1.84755869582430243e+00
13 54 -1.94677224272938787e+00
14 54 -2.02485812300338264e+00
15 54 -2.08191198644285969e+00
16 54 -2.11862931226859974e+00
17 54 -2.13620308027477934e+00
18 54 -2.13620308027477890e+00
19 54 -2.13620308027477934e+00
20 54 -2.11862931226859974e+00
21 54 -2.08191198644285969e+00
22 54 -2.02485812300338308e+00
23 54 -1.94677224272938787e+00
24 54 -1.84755869582430199e+00
25 54 -1.72779074148156542e+00
26 54 -1.58873360858149870e+00
27 54 -1.43231375952627626e+00
28 54 -1.26103378286074963e+00
29 54 -1.07784033728969564e+00
30 54 -8.85959552475197309e-01
31 54 -6.88718635746623620e-01
32 54 -4.89373234039887917e-01
33 54 -2.90957439625897096e-01
34 54 -9.61681680208061329e-02
35 54 -2.61609426458722518e-16
36 54 9.61681680208056749e-02
37 54 2.90957439625896763e-01
38 54 4.89373234039887528e-01
39 54 6.88718635746623620e-01
40 54 8.85959552475196865e-01
41 54 1.07784033728969519e+00
42 54 1.26103378286074941e+00
43 54 1.43231375952627582e+00
44 54 1.58873360858149870e+00
45 54 1.72779074148156542e+00
46 54 1.84755869582430243e+00
47 54 1.94677224272938787e+00
48 54 2.02485812300338264e+00
49 54 2.08191198644285969e+00
50 54 2.11862931226859974e+00
51 54 2.13620308027477934e+00
52 54 2.13620308027477890e+00
53 54 2.13620308027477934e+00
54 54 2.11862931226859974e+00
55 54 2.08191198644285969e+00
56 54 2.02485812300338308e+00
57 54 1.94677224272938787e+00
58 54 1.84755869582430199e+00
59 54 1.72779074148156542e+00
60 54 1.58873360858149870e+00
61 54 1.43231375952627626e+00
62 54 1.26103378286074963e+00
63 54 1.07784033728969586e+00
64 54 8.85959552475197420e-01
65 54 6.88718635746623620e-01
66 54 4.89373234039888139e-01
67 54 2.90957439625897263e-01
68 54 9.61681680208063966e-02
69 54 5.23218852917445035e-16
1 55 0.00000000000000000e+00
2 55 -1.00349575668106386e-01
3 55 -3.03608316606598816e-01
4 55 -5.10651262157838737e-01
5 55 -7.18664234478693098e-01
6 55 -9.24481218470926902e-01
7 55 -1.12470501113829169e+00
8 55 -1.31586373763349118e+00
9 55 -1.49459099564999165e+00
10 55 -1.65781200528142070e+00
11 55 -1.80291536502438832e+00
12 55 -1.92789084957693380e+00
13 55 -2.03141821770043940e+00
14 55 -2.11289928479813671e+00
15 55 -2.17243385953537116e+00
16 55 -2.21074766068299722e+00
17 55 -2.22908553899142392e+00
18 55 -2.22908553899142348e+00
19 55 -2.22908553899142392e+00
20 55 -2.21074766068299722e+00
21 55 -2.17243385953537116e+00
22 55 -2.11289928479813716e+00
23 55 -2.03141821770043940e+00
24 55 -1.92789084957693335e+00
25 55 -1.80291536502438832e+00
26 55 -1.65781200528142070e+00
27 55 -1.49459099564999165e+00
28 55 -1.31586373763349163e+00
29 55 -1.12470501113829213e+00
30 55 -9.24481218470927013e-01
31 55 -7.18664234478693209e-01
32 55 -5.10651262157839070e-01
33 55 -3.03608316606599149e-01
34 55 -1.00349575668106636e-01
35 55 -2.72984247035149980e-16
36 55 1.00349575668106150e-01
37 55 3.03608316606598816e-01
38 55 5.10651262157838626e-01
39 55 7.18664234478693098e-01
40 55 9.24481218470926902e-01
41 55 1.12470501113829169e+00
42 55 1.31586373763349118e+00
43 55 1.49459099564999165e+00
44 55 1.65781200528142070e+00
45 55 1.80291536502438832e+00
46 55 1.92789084957693380e+00
47 55 2.03141821770043896e+00
48 55 2.11289928479813671e+00
49 55 2.17243385953537116e+00
50 55 2.21074766068299722e+00
51 55 2.22908553899142392e+00
52 55 2.22908553899142348e+00
53 55 2.22908553899142392e+00
54 55 2.21074766068299722e+00
55 55 2.17243385953537116e+00
56 55 2.11289928479813716e+00
57 55 2.03141821770043940e+00
58 55 1.92789084957693335e+00
59 55 1.80291536502438832e+00
60 55 1.65781200528142070e+00
61 55 1.49459099564999165e+00
62 55 1.31586373763349163e+00
63 55 1.12470501113829213e+00
64 55 9.24481218470927013e-01
65 55 7.18664234478693209e-01
66 55 5.10651262157839403e-01
67 55 3.03608316606599316e-01
68 55 1.00349575668106913e-01
69 55 5.45968494070299961e-16
1 56 0.00000000000000000e+00
2 56 -1.04550573827615609e-01
3 56 -3.16318464813846179e-01
4 56 -5.32028980979204369e-01
5 56 -7.48750132762263432e-01
6 56 -9.63183364159536537e-01
7 56 -1.17178925290339619e+00
8 56 -1.37095057883993698e+00
9 56 -1.55716000982012526e+00
10 56 -1.72721404446924587e+00
11 56 -1.87839195852059304e+00
12 56 -2.00859937133086630e+00
13 56 -2.11646077156213330e+00
14 56 -2.20135293243509844e+00
15 56 -2.26337984096879463e+00
16 56 -2.30329759716090798e+00
17 56 -2.32240316574116834e+00
18 56 -2.32240316574116790e+00
19 56 -2.32240316574116834e+00
20 56 -2.30329759716090843e+00
21 56 -2.26337984096879463e+00
22 56 -2.20135293243509889e+00
23 56 -2.11646077156213330e+00
24 56 -2.00859937133086675e+00
25 56 -1.87839195852059304e+00
26 56 -1.72721404446924587e+00
27 56 -1.55716000982012526e+00
28 56 -1.37095057883993765e+00
29 56 -1.17178925290339642e+00
30 56 -9.63183364159536648e-01
31 56 -7.48750132762263321e-01
32 56 -5.32028980979204591e-01
33 56 -3.16318464813846401e-01
34 56 -1.04550573827615859e-01
35 56 -2.84412360325460136e-16
36 56 1.04550573827615345e-01
37 56 3.16318464813846123e-01
38 56 5.32028980979204258e-01
39 56 7.48750132762263432e-01
40 56 9.63183364159536537e-01
41 56 1.17178925290339619e+00
42 56 1.37095057883993698e+00
43 56 1.55716000982012526e+00
44 56 1.72721404446924587e+00
45 56 1.87839195852059304e+00
46 56 2.00859937133086630e+00
47 56 2.11646077156213241e+00
48 56 2.20135293243509844e+00
49 56 2.26337984096879463e+00
50 56 2.30329759716090798e+00
51 56 2.32240316574116834e+00
52 56 2.32240316574116790e+00
53 56 2.32240316574116834e+00
54 56 2.30329759716090843e+00
55 56 2.26337984096879463e+00
56 56 2.20135293243509889e+00
57 56 2.11646077156213330e+00
58 56 2.00859937133086675e+00
59 56 1.87839195852059304e+00
60 56 1.72721404446924587e+00
61 56 1.55716000982012526e+00
62 56 1.37095057883993765e+00
63 56 1.17178925290339642e+00
64 56 9.63183364159536648e-01
65 56 7.48750132762263432e-01
66 56 5.32028980979205035e-01
67 56 3.16318464813846567e-01
68 56 1.04550573827616136e-01
69 56 5.68824720650920273e-16
1 57 0.00000000000000000e+00
2 57 -1.08707222142863144e-01
3 57 -3.28894432268774461e-01
4 57 -5.53181015697792877e-01
5 57 -7.78518414885891130e-01
6 57 -1.00147693215572375e+00
7 57 -1.21837642737397345e+00
8 57 -1.42545586948729897e+00
9 57 -1.61906848429738393e+00
10 57 -1.79588340787085232e+00
11 57 -1.95307174729566735e+00
12 57 -2.08845585501325814e+00
13 57 -2.20060553307158635e+00
14 57 -2.28887277687859880e+00
15 57 -2.35336570769622488e+00
16 57 -2.39487048601504604e+00
17 57 -2.41473564037799093e+00
18 57 -2.41473564037799093e+00
19 57 -2.41473564037799093e+00
20 57 -2.39487048601504648e+00
21 57 -2.35336570769622488e+00
22 57 -2.28887277687859880e+00
23 57 -2.20060553307158679e+00
24 57 -2.08845585501325903e+00
25 57 -1.95307174729566735e+00
26 57 -1.79588340787085232e+00
27 57 -1.61906848429738393e+00
28 57 -1.42545586948729963e+00
29 57 -1.21837642737397323e+00
30 57 -1.00147693215572375e+00
31 57 -7.78518414885891130e-01
32 57 -5.53181015697793099e-01
33 57 -3.28894432268774628e-01
34 57 -1.08707222142863408e-01
35 57 -2.95719827277594061e-16
36 57 1.08707222142862880e-01
37 57 3.28894432268774350e-01
38 57 5.53181015697792766e-01
39 57 7.78518414885891019e-01
40 57 1.00147693215572375e+00
41 57 1.21837642737397345e+00
42 57 1.42545586948729897e+00
43 57 1.61906848429738393e+00
44 57 1.79588340787085232e+00
45 57 1.95307174729566735e+00
46 57 2.08845585501325814e+00
47 57 2.20060553307158591e+00
48 57 2.28887277687859880e+00
49 57 2.35336570769622488e+00
50 57 2.39487048601504604e+00
51 57 2.41473564037799093e+00
52 57 2.41473564037799093e+00
53 57 2.41473564037799093e+00
54 57 2.39487048601504648e+00
55 57 2.35336570769622488e+00
56 57 2.28887277687859880e+00
57 57 2.20060553307158679e+00
58 57 2.08845585501325903e+00
59 57 1.95307174729566735e+00
60 57 1.79588340787085232e+00
61 57 1.61906848429738393e+00
62 57 1.42545586948729963e+00
63 57 1.21837642737397367e+00
64 57 1.00147693215572398e+00
65 57 7.78518414885891241e-01
66 57 5.53181015697793543e-01
67 57 3.28894432268774795e-01
68 57 1.08707222142863699e-01
69 57 5.91439654555188123e-16
1 58 0.00000000000000000e+00
2 58 -1.12750911221965969e-01
3 58 -3.41128640794452320e-01
4 58 -5.73758232076337249e-01
5 58 -8.07477727340930151e-01
6 58 -1.03872985108515259e+00
7 58 -1.26369756939647582e+00
8 58 -1.47847994846352027e+00
9 58 -1.67929456145414147e+00
10 58 -1.86268664302486608e+00
11 58 -2.02572207116158953e+00
12 58 -2.16614219421533027e+00
13 58 -2.28246361375918161e+00
14 58 -2.37401422073921164e+00
15 58 -2.44090615830989233e+00
16 58 -2.48395483054404043e+00
17 58 -2.50455892852240147e+00
18 58 -2.50455892852240147e+00
19 58 -2.50455892852240147e+00
20 58 -2.48395483054404043e+00
21 58 -2.44090615830989233e+00
22 58 -2.37401422073921120e+00
23 58 -2.28246361375918161e+00
24 58 -2.16614219421533072e+00
25 58 -2.02572207116158953e+00
26 58 -1.86268664302486608e+00
27 58 -1.67929456145414169e+00
28 58 -1.47847994846352093e+00
29 58 -1.26369756939647582e+00
30 58 -1.03872985108515237e+00
31 58 -8.07477727340930151e-01
32 58 -5.73758232076337360e-01
33 58 -3.41128640794452376e-01
34 58 -1.12750911221966232e-01
35 58 -3.06720007509088251e-16
36 58 1.12750911221965677e-01
37 58 3.41128640794452098e-01
38 58 5.73758232076337027e-01
39 58 8.07477727340930040e-01
40 58 1.03872985108515259e+00
41 58 1.26369756939647582e+00
42 58 1.47847994846352027e+00
43 58 1.67929456145414147e+00
44 58 1.86268664302486608e+00
45 58 2.02572207116158953e+00
46 58 2.16614219421533027e+00
47 58 2.28246361375918072e+00
48 58 2.37401422073921164e+00
49 58 2.44090615830989233e+00
50 58 2.48395483054403998e+00
51 58 2.50455892852240147e+00
52 58 2.50455892852240147e+00
53 58 2.50455892852240147e+00
54 58 2.48395483054404043e+00
55 58 2.44090615830989233e+00
56 58 2.37401422073921120e+00
57 58 2.28246361375918161e+00
58 58 2.16614219421533072e+00
59 58 2.02572207116158953e+00
60 58 1.86268664302486608e+00
61 58 1.67929456145414169e+00
62 58 1.47847994846352093e+00
63 58 1.26369756939647626e+00
64 58 1.03872985108515281e+00
65 58 8.07477727340930374e-01
66 58 5.73758232076337804e-01
67 58 3.41128640794452653e-01
68 58 1.12750911221966510e-01
69 58 6.13440015018176501e-16
1 59 0.00000000000000000e+00
2 59 -1.16611523611763274e-01
3 59 -3.52808949564402341e-01
4 59 -5.93403821770432605e-01
5 59 -8.35125916476367136e-01
6 59 -1.07429615639737430e+00
7 59 -1.30696681166241646e+00
8 59 -1.52910337975329913e+00
9 59 -1.73679392283230571e+00
10 59 -1.92646538374133880e+00
11 59 -2.09508317557711354e+00
12 59 -2.24031131003371531e+00
13 59 -2.36061559684332023e+00
14 59 -2.45530091381167770e+00
15 59 -2.52448324389594614e+00
16 59 -2.56900591075763485e+00
17 59 -2.59031549692295293e+00
18 59 -2.59031549692295382e+00
19 59 -2.59031549692295293e+00
20 59 -2.56900591075763485e+00
21 59 -2.52448324389594614e+00
22 59 -2.45530091381167725e+00
23 59 -2.36061559684331979e+00
24 59 -2.24031131003371575e+00
25 59 -2.09508317557711354e+00
26 59 -1.92646538374133880e+00
27 59 -1.73679392283230616e+00
28 59 -1.52910337975329980e+00
29 59 -1.30696681166241624e+00
30 59 -1.07429615639737430e+00
31 59 -8.35125916476367136e-01
32 59 -5.93403821770432716e-01
33 59 -3.52808949564402397e-01
34 59 -1.16611523611763565e-01
35 59 -3.17222158208847988e-16
36 59 1.16611523611762982e-01
37 59 3.52808949564402063e-01
38 59 5.93403821770432383e-01
39 59 8.35125916476366914e-01
40 59 1.07429615639737430e+00
41 59 1.30696681166241646e+00
42 59 1.52910337975329913e+00
43 59 1.73679392283230571e+00
44 59 1.92646538374133880e+00
45 59 2.09508317557711354e+00
46 59 2.24031131003371531e+00
47 59 2.36061559684331934e+00
48 59 2.45530091381167770e+00
49 59 2.52448324389594614e+00
50 59 2.56900591075763396e+00
51 59 2.59031549692295293e+00
52 59 2.59031549692295382e+00
53 59 2.59031549692295293e+00
54 59 2.56900591075763485e+00
55 59 2.52448324389594614e+00
56 59 2.45530091381167725e+00
57 59 2.36061559684331979e+00
58 59 2.24031131003371575e+00
59 59 2.09508317557711354e+00
60 59 1.92646538374133880e+00
61 59 1.73679392283230616e+00
62 59 1.52910337975329980e+00
63 59 1.30696681166241668e+00
64 59 1.07429615639737475e+00
65 59 8.35125916476367469e-01
66 59 5.93403821770433160e-01
67 59 3.52808949564402674e-01
68 59 1.16611523611763843e-01
69 59 6.34444316417695975e-16
1 60 0.00000000000000000e+00
2 60 -1.20221071966388524e-01
3 60 -3.63729662406102883e-01
4 60 -6.11771815963107146e-01
5 60 -8.60976083632729483e-01
6 60 -1.10754950738363300e+00
7 60 -1.34742216082921185e+00
8 60 -1.57643465900847946e+00
9 60 -1.79055397546101580e+00
10 60 -1.98609645398853840e+00
11 60 -2.15993357624921778e+00
12 60 -2.30965704665150540e+00
13 60 -2.43368518619074026e+00
14 60 -2.53130135612700968e+00
15 60 -2.60262512950942249e+00
16 60 -2.64852593391649771e+00
17 60 -2.67049512883486573e+00
18 60 -2.67049512883486617e+00
19 60 -2.67049512883486573e+00
20 60 -2.64852593391649771e+00
21 60 -2.60262512950942249e+00
22 60 -2.53130135612700968e+00
23 60 -2.43368518619073937e+00
24 60 -2.30965704665150628e+00
25 60 -2.15993357624921778e+00
26 60 -1.98609645398853840e+00
27 60 -1.79055397546101669e+00
28 60 -1.57643465900848012e+00
29 60 -1.34742216082921162e+00
30 60 -1.10754950738363322e+00
31 60 -8.60976083632729483e-01
32 60 -6.11771815963107368e-01
33 60 -3.63729662406102938e-01
34 60 -1.20221071966388829e-01
35 60 -3.27041331166621684e-16
36 60 1.20221071966388218e-01
37 60 3.63729662406102494e-01
38 60 6.11771815963106924e-01
39 60 8.60976083632729150e-01
40 60 1.10754950738363300e+00
41 60 1.34742216082921185e+00
42 60 1.57643465900847946e+00
43 60 1.79055397546101580e+00
44 60 1.98609645398853840e+00
45 60 2.15993357624921778e+00
46 60 2.30965704665150540e+00
47 60 2.43368518619073937e+00
48 60 2.53130135612700968e+00
49 60 2.60262512950942249e+00
50 60 2.64852593391649727e+00
51 60 2.67049512883486573e+00
52 60 2.67049512883486617e+00
53 60 2.67049512883486573e+00
54 60 2.64852593391649771e+00
55 60 2.60262512950942249e+00
56 60 2.53130135612700968e+00
57 60 2.43368518619073937e+00
58 60 2.30965704665150628e+00
59 60 2.15993357624921778e+00
60 60 1.98609645398853840e+00
61 60 1.79055397546101669e+00
62 60 1.57643465900848012e+00
63 60 1.34742216082921207e+00
64 60 1.10754950738363367e+00
65 60 8.60976083632729927e-01
66 60 6.11771815963107701e-01
67 60 3.63729662406103216e-01
68 60 1.20221071966389120e-01
69 60 6.54082662333243368e-16
1 61 0.00000000000000000e+00
2 61 -1.23517458501345642e-01
3 61 -3.73702902054599662e-01
4 61 -6.28546216187810369e-01
5 61 -8.84583508875124047e-01
6 61 -1.13791782155037513e+00
7 61 -1.38436763299320997e+00
8 61 -1.61965951051078605e+00
9 61 -1.83964984458181191e+00
10 61 -2.04055397546101602e+00
11 61 -2.21915760279208829e+00
12 61 -2.37298639702595082e+00
13 61 -2.50041531050976662e+00
14 61 -2.60070805471799060e+00
15 61 -2.67398748131788455e+00
16 61 -2.72114685704791004e+00
17 61 -2.74371843353822920e+00
18 61 -2.74371843353822964e+00
19 61 -2.74371843353822920e+00
20 61 -2.72114685704791004e+00
21 61 -2.67398748131788500e+00
22 61 -2.60070805471799060e+00
23 61 -2.50041531050976618e+00
24 61 -2.37298639702595127e+00
25 61 -2.21915760279208829e+00
26 61 -2.04055397546101602e+00
27 61 -1.83964984458181258e+00
28 61 -1.61965951051078672e+00
29 61 -1.38436763299320975e+00
30 61 -1.13791782155037513e+00
31 61 -8.84583508875123936e-01
32 61 -6.28546216187810480e-01
33 61 -3.73702902054599662e-01
34 61 -1.23517458501345961e-01
35 61 -3.36008599739418207e-16
36 61 1.23517458501345323e-01
37 61 3.73702902054599273e-01
38 61 6.28546216187810147e-01
39 61 8.84583508875123714e-01
40 61 1.13791782155037513e+00
41 61 1.38436763299320997e+00
42 61 1.61965951051078605e+00
43 61 1.83964984458181191e+00
44 61 2.04055397546101602e+00
45 61 2.21915760279208829e+00
46 61 2.37298639702595082e+00
47 61 2.50041531050976573e+00
48 61 2.60070805471799060e+00
49 61 2.67398748131788455e+00
50 61 2.72114685704790915e+00
51 61 2.74371843353822920e+00
52 61 2.74371843353822964e+00
53 61 2.74371843353822920e+00
54 61 2.72114685704791004e+00
55 61 2.67398748131788500e+00
56 61 2.60070805471799060e+00
57 61 2.50041531050976618e+00
58 61 2.37298639702595127e+00
59 61 2.21915760279208829e+00
60 61 2.04055397546101602e+00
61 61 1.83964984458181258e+00
62 61 1.61965951051078672e+00
63 61 1.38436763299320997e+00
64 61 1.13791782155037557e+00
65 61 8.84583508875124380e-01
66 61 6.28546216187810924e-01
67 61 3.73702902054599995e-01
68 61 1.23517458501346253e-01
69 61 6.72017199478836413e-16
1 62 0.00000000000000000e+00
2 62 -1.26447943751460484e-01
3 62 -3.82569104903034918e-01
4 62 -6.43458645879146807e-01
5 62 -9.05570492874840371e-01
6 62 -1.16491523092355997e+00
7 62 -1.41721213107830302e+00
8 62 -1.65808637229493128e+00
9 62 -1.88329603679086155e+00
10 62 -2.08896667274045811e+00
11 62 -2.27180771963845807e+00
12 62 -2.42928614379520580e+00
13 62 -2.55973834286094082e+00
14 62 -2.66241055966487572e+00
15 62 -2.73742856056344275e+00
16 62 -2.78570680529108383e+00
17 62 -2.80881389856404518e+00
18 62 -2.80881389856404518e+00
19 62 -2.80881389856404518e+00
20 62 -2.78570680529108383e+00
21 62 -2.73742856056344364e+00
22 62 -2.66241055966487528e+00
23 62 -2.55973834286094082e+00
24 62 -2.42928614379520624e+00
25 62 -2.27180771963845807e+00
26 62 -2.08896667274045855e+00
27 62 -1.88329603679086244e+00
28 62 -1.65808637229493194e+00
29 62 -1.41721213107830279e+00
30 62 -1.16491523092355997e+00
31 62 -9.05570492874840371e-01
32 62 -6.43458645879146807e-01
33 62 -3.82569104903034918e-01
34 62 -1.26447943751460817e-01
35 62 -3.43980495027705613e-16
36 62 1.26447943751460151e-01
37 62 3.82569104903034474e-01
38 62 6.43458645879146585e-01
39 62 9.05570492874840149e-01
40 62 1.16491523092355997e+00
41 62 1.41721213107830302e+00
42 62 1.65808637229493128e+00
43 62 1.88329603679086155e+00
44 62 2.08896667274045811e+00
45 62 2.27180771963845807e+00
46 62 2.42928614379520580e+00
47 62 2.55973834286094037e+00
48 62 2.66241055966487572e+00
49 62 2.73742856056344275e+00
50 62 2.78570680529108339e+00
51 62 2.80881389856404518e+00
52 62 2.80881389856404518e+00
53 62 2.80881389856404518e+00
54 62 2.78570680529108383e+00
55 62 2.73742856056344364e+00
56 62 2.66241055966487528e+00
57 62 2.55973834286094082e+00
58 62 2.42928614379520624e+00
59 62 2.27180771963845807e+00
60 62 2.08896667274045855e+00
61 62 1.88329603679086244e+00
62 62 1.65808637229493194e+00
63 62 1.41721213107830302e+00
64 62 1.16491523092356064e+00
65 62 9.05570492874840816e-01
66 62 6.43458645879147251e-01
67 62 3.82569104903035251e-01
68 62 1.26447943751461123e-01
69 62 6.87960990055411227e-16
1 63 0.00000000000000000e+00
2 63 -1.28971929514132916e-01
3 63 -3.90205440816187632e-01
4 63 -6.56302512002107763e-01
5 63 -9.23646287255529663e-01
6 63 -1.18816772021156680e+00
7 63 -1.44550063570245979e+00
8 63 -1.69118288832194885e+00
9 63 -1.92088788876356475e+00
10 63 -2.13066384854473645e+00
11 63 -2.31715452536562161e+00
12 63 -2.47777632448527907e+00
13 63 -2.61083243693531042e+00
14 63 -2.71555406004627509e+00
15 63 -2.79206947055542720e+00
16 63 -2.84131138142681294e+00
17 63 -2.86487970777883705e+00
18 63 -2.86487970777883705e+00
19 63 -2.86487970777883705e+00
20 63 -2.84131138142681294e+00
21 63 -2.79206947055542809e+00
22 63 -2.71555406004627464e+00
23 63 -2.61083243693531086e+00
24 63 -2.47777632448527951e+00
25 63 -2.31715452536562205e+00
26 63 -2.13066384854473689e+00
27 63 -1.92088788876356542e+00
28 63 -1.69118288832194952e+00
29 63 -1.44550063570245957e+00
30 63 -1.18816772021156702e+00
31 63 -9.23646287255529663e-01
32 63 -6.56302512002107763e-01
33 63 -3.90205440816187688e-01
34 63 -1.28971929514133249e-01
35 63 -3.50846576407355709e-16
36 63 1.28971929514132555e-01
37 63 3.90205440816187243e-01
38 63 6.56302512002107541e-01
39 63 9.23646287255529219e-01
40 63 1.18816772021156680e+00
41 63 1.44550063570245979e+00
42 63 1.69118288832194885e+00
43 63 1.92088788876356475e+00
44 63 2.13066384854473645e+00
45 63 2.31715452536562161e+00
46 63 2.47777632448527907e+00
47 63 2.61083243693531042e+00
48 63 2.71555406004627509e+00
49 63 2.79206947055542720e+00
50 63 2.84131138142681205e+00
51 63 2.86487970777883705e+00
52 63 2.86487970777883705e+00
53 63 2.86487970777883705e+00
54 63 2.84131138142681294e+00
55 63 2.79206947055542809e+00
56 63 2.71555406004627464e+00
57 63 2.61083243693531086e+00
58 63 2.47777632448527951e+00
59 63 2.31715452536562205e+00
60 63 2.13066384854473689e+00
61 63 1.92088788876356542e+00
62 63 1.69118288832194952e+00
63 63 1.44550063570245979e+00
64 63 1.18816772021156769e+00
65 63 9.23646287255530107e-01
66 63 6.56302512002108207e-01
67 63 3.90205440816188021e-01
68 63 1.28971929514133582e-01
69 63 7.01693152814711417e-16
1 64 0.00000000000000000e+00
2 64 -1.31062752399326965e-01
3 64 -3.96531239528040758e-01
4 64 -6.66942131932380944e-01
5 64 -9.38619939293563021e-01
6 64 -1.20742965007666170e+00
7 64 -1.46893430705307781e+00
8 64 -1.71859942693832002e+00
9 64 -1.95202828010956586e+00
10 64 -2.16520501383531849e+00
11 64 -2.35471897623812376e+00
12 64 -2.51794468874207844e+00
13 64 -2.65315783463321164e+00
14 64 -2.75957714783069319e+00
15 64 -2.83733298462458183e+00
16 64 -2.88737317861500298e+00
17 64 -2.91132358187545348e+00
18 64 -2.91132358187545348e+00
19 64 -2.91132358187545393e+00
20 64 -2.88737317861500298e+00
21 64 -2.83733298462458228e+00
22 64 -2.75957714783069274e+00
23 64 -2.65315783463321209e+00
24 64 -2.51794468874207844e+00
25 64 -2.35471897623812421e+00
26 64 -2.16520501383531938e+00
27 64 -1.95202828010956653e+00
28 64 -1.71859942693832068e+00
29 64 -1.46893430705307804e+00
30 64 -1.20742965007666192e+00
31 64 -9.38619939293563021e-01
32 64 -6.66942131932381055e-01
33 64 -3.96531239528040869e-01
34 64 -1.31062752399327298e-01
35 64 -3.56534310582598046e-16
36 64 1.31062752399326604e-01
37 64 3.96531239528040369e-01
38 64 6.66942131932380722e-01
39 64 9.38619939293562577e-01
40 64 1.20742965007666170e+00
41 64 1.46893430705307781e+00
42 64 1.71859942693832002e+00
43 64 1.95202828010956586e+00
44 64 2.16520501383531849e+00
45 64 2.35471897623812376e+00
46 64 2.51794468874207844e+00
47 64 2.65315783463321164e+00
48 64 2.75957714783069319e+00
49 64 2.83733298462458183e+00
50 64 2.88737317861500165e+00
51 64 2.91132358187545348e+00
52 64 2.91132358187545348e+00
53 64 2.91132358187545393e+00
54 64 2.88737317861500298e+00
55 64 2.83733298462458228e+00
56 64 2.75957714783069274e+00
57 64 2.65315783463321209e+00
58 64 2.51794468874207844e+00
59 64 2.35471897623812421e+00
60 64 2.16520501383531938e+00
61 64 1.95202828010956653e+00
62 64 1.71859942693832068e+00
63 64 1.46893430705307804e+00
64 64 1.20742965007666281e+00
65 64 9.38619939293563355e-01
66 64 6.66942131932381499e-01
67 64 3.96531239528041257e-01
68 64 1.31062752399327659e-01
69 64 7.13068621165196092e-16
1 65 0.00000000000000000e+00
2 65 -1.32708331562458592e-01
3 65 -4.01509950361992773e-01
4 65 -6.75316029590035671e-01
5 65 -9.50404930726485797e-01
6 65 -1.22258972444363079e+00
7 65 -1.48737774459306471e+00
8 65 -1.74017757446663457e+00
9 65 -1.97653728060579259e+00
10 65 -2.19239058860349978e+00
11 65 -2.38428402360201552e+00
12 65 -2.54955914241299952e+00
13 65 -2.68646997839064916e+00
14 65 -2.79422545614401452e+00
15 65 -2.87295756867221819e+00
16 65 -2.92362605025039501e+00
17 65 -2.94787716659547483e+00
18 65 -2.94787716659547439e+00
19 65 -2.94787716659547527e+00
20 65 -2.92362605025039501e+00
21 65 -2.87295756867221819e+00
22 65 -2.79422545614401407e+00
23 65 -2.68646997839064960e+00
24 65 -2.54955914241299997e+00
25 65 -2.38428402360201597e+00
26 65 -2.19239058860350067e+00
27 65 -1.97653728060579326e+00
28 65 -1.74017757446663501e+00
29 65 -1.48737774459306471e+00
30 65 -1.22258972444363123e+00
31 65 -9.50404930726485797e-01
32 65 -6.75316029590035782e-01
33 65 -4.01509950361992884e-01
34 65 -1.32708331562458925e-01
35 65 -3.61010833635071565e-16
36 65 1.32708331562458232e-01
37 65 4.01509950361992440e-01
38 65 6.75316029590035338e-01
39 65 9.50404930726485353e-01
40 65 1.22258972444363079e+00
41 65 1.48737774459306471e+00
42 65 1.74017757446663457e+00
43 65 1.97653728060579259e+00
44 65 2.19239058860349978e+00
45 65 2.38428402360201552e+00
46 65 2.54955914241299952e+00
47 65 2.68646997839064916e+00
48 65 2.79422545614401452e+00
49 65 2.87295756867221819e+00
50 65 2.92362605025039368e+00
51 65 2.94787716659547483e+00
52 65 2.94787716659547439e+00
53 65 2.94787716659547527e+00
54 65 2.92362605025039501e+00
55 65 2.87295756867221819e+00
56 65 2.79422545614401407e+00
57 65 2.68646997839064960e+00
58 65 2.54955914241299997e+00
59 65 2.38428402360201597e+00
60 65 2.19239058860350067e+00
61 65 1.97653728060579326e+00
62 65 1.74017757446663501e+00
63 65 1.48737774459306471e+00
64 65 1.22258972444363190e+00
65 65 9.50404930726486241e-01
66 65 6.75316029590036226e-01
67 65 4.01509950361993273e-01
68 65 1.32708331562459286e-01
69 65 7.22021667270143131e-16
1 66 0.00000000000000000e+00
2 66 -1.33910682724060703e-01
3 66 -4.05147671894083183e-01
4 66 -6.81434462419883702e-01
5 66 -9.59015697352796237e-01
6 66 -1.23366651335387179e+00
7 66 -1.50085354025636053e+00
8 66 -1.75594376264351770e+00
9 66 -1.99444491208081964e+00
10 66 -2.21225387329600842e+00
11 66 -2.40588588259319769e+00
12 66 -2.57265841101476589e+00
13 66 -2.71080967327715339e+00
14 66 -2.81954142676483155e+00
15 66 -2.89898686034710362e+00
16 66 -2.95011440359054911e+00
17 66 -2.97458523754916815e+00
18 66 -2.97458523754916815e+00
19 66 -2.97458523754916815e+00
20 66 -2.95011440359054911e+00
21 66 -2.89898686034710362e+00
22 66 -2.81954142676483199e+00
23 66 -2.71080967327715339e+00
24 66 -2.57265841101476678e+00
25 66 -2.40588588259319813e+00
26 66 -2.21225387329600931e+00
27 66 -1.99444491208082053e+00
28 66 -1.75594376264351837e+00
29 66 -1.50085354025636053e+00
30 66 -1.23366651335387223e+00
31 66 -9.59015697352796237e-01
32 66 -6.81434462419883813e-01
33 66 -4.05147671894083294e-01
34 66 -1.33910682724061036e-01
35 66 -3.64281628995555664e-16
36 66 1.33910682724060343e-01
37 66 4.05147671894082795e-01
38 66 6.81434462419883369e-01
39 66 9.59015697352795793e-01
40 66 1.23366651335387179e+00
41 66 1.50085354025636053e+00
42 66 1.75594376264351770e+00
43 66 1.99444491208081964e+00
44 66 2.21225387329600842e+00
45 66 2.40588588259319769e+00
46 66 2.57265841101476589e+00
47 66 2.71080967327715339e+00
48 66 2.81954142676483155e+00
49 66 2.89898686034710362e+00
50 66 2.95011440359054822e+00
51 66 2.97458523754916815e+00
52 66 2.97458523754916815e+00
53 66 2.97458523754916815e+00
54 66 2.95011440359054911e+00
55 66 2.89898686034710362e+00
56 66 2.81954142676483199e+00
57 66 2.71080967327715339e+00
58 66 2.57265841101476678e+00
59 66 2.40588588259319813e+00
60 66 2.21225387329600931e+00
61 66 1.99444491208082053e+00
62 66 1.75594376264351837e+00
63 66 1.50085354025636053e+00
64 66 1.23366651335387267e+00
65 66 9.59015697352796681e-01
66 66 6.81434462419884257e-01
67 66 4.05147671894083683e-01
68 66 1.33910682724061397e-01
69 66 7.28563257991111327e-16
1 67 0.00000000000000000e+00
2 67 -1.34684462389382281e-01
3 67 -4.07488747479591296e-01
4 67 -6.85372013327277374e-01
5 67 -9.64557203304676869e-01
6 67 -1.24079504143245978e+00
7 67 -1.50952596225027480e+00
8 67 -1.76609017926497280e+00
9 67 -2.00596946624766170e+00
10 67 -2.22503699878580008e+00
11 67 -2.41978787708060539e+00
12 67 -2.58752407164591780e+00
13 67 -2.72647361702734115e+00
14 67 -2.83583365810277543e+00
15 67 -2.91573815335031661e+00
16 67 -2.96716112823890654e+00
17 67 -2.99177336266928373e+00
18 67 -2.99177336266928418e+00
19 67 -2.99177336266928373e+00
20 67 -2.96716112823890654e+00
21 67 -2.91573815335031705e+00
22 67 -2.83583365810277632e+00
23 67 -2.72647361702734070e+00
24 67 -2.58752407164591869e+00
25 67 -2.41978787708060583e+00
26 67 -2.22503699878580097e+00
27 67 -2.00596946624766259e+00
28 67 -1.76609017926497347e+00
29 67 -1.50952596225027502e+00
30 67 -1.24079504143246067e+00
31 67 -9.64557203304676980e-01
32 67 -6.85372013327277596e-01
33 67 -4.07488747479591462e-01
34 67 -1.34684462389382614e-01
35 67 -3.66386567236725069e-16
36 67 1.34684462389381893e-01
37 67 4.07488747479590852e-01
38 67 6.85372013327277041e-01
39 67 9.64557203304676425e-01
40 67 1.24079504143245978e+00
41 67 1.50952596225027480e+00
42 67 1.76609017926497280e+00
43 67 2.00596946624766170e+00
44 67 2.22503699878580008e+00
45 67 2.41978787708060539e+00
46 67 2.58752407164591736e+00
47 67 2.72647361702734070e+00
48 67 2.83583365810277543e+00
49 67 2.91573815335031661e+00
50 67 2.96716112823890610e+00
51 67 2.99177336266928373e+00
52 67 2.99177336266928418e+00
53 67 2.99177336266928373e+00
54 67 2.96716112823890654e+00
55 67 2.91573815335031705e+00
56 67 2.83583365810277632e+00
57 67 2.72647361702734070e+00
58 67 2.58752407164591869e+00
59 67 2.41978787708060583e+00
60 67 2.22503699878580097e+00
61 67 2.00596946624766259e+00
62 67 1.76609017926497347e+00
63 67 1.50952596225027502e+00
64 67 1.24079504143246067e+00
65 67 9.64557203304677313e-01
66 67 6.85372013327278040e-01
67 67 4.07488747479591795e-01
68 67 1.34684462389382975e-01
69 67 7.32773134473450138e-16
1 68 0.00000000000000000e+00
2 68 -1.35054811373695516e-01
3 68 -4.08609240824338305e-01
4 68 -6.87256616974271428e-01
5 68 -9.67209497223504133e-01
6 68 -1.24420692113397213e+00
7 68 -1.51367678556720331e+00
8 68 -1.77094649076885924e+00
9 68 -2.01148538650459807e+00
10 68 -2.23115530061468759e+00
11 68 -2.42644169569213464e+00
12 68 -2.59463912333651026e+00
13 68 -2.73397074562636000e+00
14 68 -2.84363149978642360e+00
15 68 -2.92375571264750400e+00
16 68 -2.97532008800785164e+00
17 68 -3.00000000000000044e+00
18 68 -3.00000000000000000e+00
19 68 -3.00000000000000044e+00
20 68 -2.97532008800785164e+00
21 68 -2.92375571264750356e+00
22 68 -2.84363149978642404e+00
23 68 -2.73397074562636000e+00
24 68 -2.59463912333651114e+00
25 68 -2.42644169569213508e+00
26 68 -2.23115530061468847e+00
27 68 -2.01148538650459896e+00
28 68 -1.77094649076886013e+00
29 68 -1.51367678556720353e+00
30 68 -1.24420692113397258e+00
31 68 -9.67209497223504355e-01
32 68 -6.87256616974271650e-01
33 68 -4.08609240824338527e-01
34 68 -1.35054811373695849e-01
35 68 -3.67394039744205839e-16
36 68 1.35054811373695099e-01
37 68 4.08609240824337860e-01
38 68 6.87256616974271095e-01
39 68 9.67209497223503800e-01
40 68 1.24420692113397213e+00
41 68 1.51367678556720331e+00
42 68 1.77094649076885924e+00
43 68 2.01148538650459807e+00
44 68 2.23115530061468759e+00
45 68 2.42644169569213464e+00
46 68 2.59463912333650981e+00
47 68 2.73397074562635956e+00
48 68 2.84363149978642360e+00
49 68 2.92375571264750356e+00
50 68 2.97532008800785119e+00
51 68 3.00000000000000044e+00
52 68 3.00000000000000000e+00
53 68 3.00000000000000044e+00
54 68 2.97532008800785164e+00
55 68 2.92375571264750356e+00
56 68 2.84363149978642404e+00
57 68 2.73397074562636000e+00
58 68 2.59463912333651114e+00
59 68 2.42644169569213508e+00
60 68 2.23115530061468847e+00
61 68 2.01148538650459896e+00
62 68 1.77094649076886013e+00
63 68 1.51367678556720353e+00
64 68 1.24420692113397280e+00
65 68 9.67209497223504577e-01
66 68 6.87256616974272205e-01
67 68 4.08609240824338860e-01
68 68 1.35054811373696210e-01
69 68 7.34788079488411678e-16
1 69 0.00000000000000000e+00
2 69 -1.35054811373695516e-01
3 69 -4.08609240824338249e-01
4 69 -6.87256616974271428e-01
5 69 -9.67209497223504022e-01
6 69 -1.24420692113397213e+00
7 69 -1.51367678556720309e+00
8 69 -1.77094649076885902e+00
9 69 -2.01148538650459807e+00
10 69 -2.23115530061468759e+00
11 69 -2.42644169569213464e+00
12 69 -2.59463912333651070e+00
13 69 -2.73397074562636000e+00
14 69 -2.84363149978642404e+00
15 69 -2.92375571264750400e+00
16 69 -2.97532008800785119e+00
17 69 -3.00000000000000000e+00
18 69 -3.00000000000000000e+00
19 69 -3.00000000000000000e+00
20 69 -2.97532008800785119e+00
21 69 -2.92375571264750400e+00
22 69 -2.84363149978642404e+00
23 69 -2.73397074562636044e+00
24 69 -2.59463912333651114e+00
25 69 -2.42644169569213508e+00
26 69 -2.23115530061468803e+00
27 69 -2.01148538650459896e+00
28 69 -1.77094649076885990e+00
29 69 -1.51367678556720375e+00
30 69 -1.24420692113397258e+00
31 69 -9.67209497223504355e-01
32 69 -6.87256616974271761e-01
33 69 -4.08609240824338527e-01
34 69 -1.35054811373695849e-01
35 69 -3.67394039744205888e-16
36 69 1.35054811373695099e-01
37 69 4.08609240824337805e-01
38 69 6.87256616974271206e-01
39 69 9.67209497223503800e-01
40 69 1.24420692113397213e+00
41 69 1.51367678556720309e+00
42 69 1.77094649076885902e+00
43 69 2.01148538650459807e+00
44 69 2.23115530061468759e+00
45 69 2.42644169569213464e+00
46 69 2.59463912333651026e+00
47 69 2.73397074562635956e+00
48 69 2.84363149978642360e+00
49 69 2.92375571264750356e+00
50 69 2.97532008800785075e+00
51 69 3.00000000000000000e+00
52 69 3.00000000000000000e+00
53 69 3.00000000000000000e+00
54 69 2.97532008800785119e+00
55 69 2.92375571264750400e+00
56 69 2.84363149978642404e+00
57 69 2.73397074562636044e+00
58 69 2.59463912333651114e+00
59 69 2.42644169569213508e+00
60 69 2.23115530061468803e+00
61 69 2.01148538650459896e+00
62 69 1.77094649076885990e+00
63 69 1.51367678556720375e+00
64 69 1.24420692113397280e+00
65 69 9.67209497223504577e-01
66 69 6.87256616974272094e-01
67 69 4.08609240824338860e-01
68 69 1.35054811373696210e-01
69 69 7.34788079488411776e-16
