%%MatrixMarket matrix coordinate  real general
69 69 4761
1 1 1.00000000000000000e+00
2 1 9.81694173824159244e-01
3 1 9.49658978016437949e-01
4 1 9.22200238752676649e-01
5 1 8.99317956032875676e-01
6 1 8.81012129857034920e-01
7 1 8.67282760225154270e-01
8 1 8.58129847137233837e-01
9 1 8.53553390593273731e-01
10 1 8.53553390593273731e-01
11 1 8.58129847137233948e-01
12 1 8.67282760225154492e-01
13 1 8.81012129857035142e-01
14 1 8.99317956032875898e-01
15 1 9.22200238752676760e-01
16 1 9.49658978016437838e-01
17 1 9.81694173824159244e-01
18 1 1.00000000000000000e+00
19 1 9.81694173824159244e-01
20 1 9.49658978016437949e-01
21 1 9.22200238752676649e-01
22 1 8.99317956032875676e-01
23 1 8.81012129857034920e-01
24 1 8.67282760225154270e-01
25 1 8.58129847137233837e-01
26 1 8.53553390593273731e-01
27 1 8.53553390593273731e-01
28 1 8.58129847137233948e-01
29 1 8.67282760225154492e-01
30 1 8.81012129857035142e-01
31 1 8.99317956032875898e-01
32 1 9.22200238752676760e-01
33 1 9.49658978016437838e-01
34 1 9.81694173824159244e-01
35 1 1.00000000000000000e+00
36 1 9.81694173824159244e-01
37 1 9.49658978016437949e-01
38 1 9.22200238752676649e-01
39 1 8.99317956032875676e-01
40 1 8.81012129857034920e-01
41 1 8.67282760225154270e-01
42 1 8.58129847137233837e-01
43 1 8.53553390593273731e-01
44 1 8.53553390593273731e-01
45 1 8.58129847137233948e-01
46 1 8.67282760225154492e-01
47 1 8.81012129857035142e-01
48 1 8.99317956032875898e-01
49 1 9.22200238752676760e-01
50 1 9.49658978016437838e-01
51 1 9.81694173824159244e-01
52 1 1.00000000000000000e+00
53 1 9.81694173824159244e-01
54 1 9.49658978016437949e-01
55 1 9.22200238752676649e-01
56 1 8.99317956032875676e-01
57 1 8.81012129857034920e-01
58 1 8.67282760225154270e-01
59 1 8.58129847137233837e-01
60 1 8.53553390593273731e-01
61 1 8.53553390593273731e-01
62 1 8.58129847137233948e-01
63 1 8.67282760225154492e-01
64 1 8.81012129857035142e-01
65 1 8.99317956032875898e-01
66 1 9.22200238752676760e-01
67 1 9.49658978016437838e-01
68 1 9.81694173824159244e-01
69 1 1.00000000000000000e+00
1 2 9.81694173824159244e-01
2 2 9.63723450920298541e-01
3 2 9.32274685838542450e-01
4 2 9.05318601482751339e-01
5 2 8.82855197852925544e-01
6 2 8.64884474949064952e-01
7 2 8.51406432771169230e-01
8 2 8.42421071319238823e-01
9 2 8.37928390593273731e-01
10 2 8.37928390593273731e-01
11 2 8.42421071319238934e-01
12 2 8.51406432771169452e-01
13 2 8.64884474949064952e-01
14 2 8.82855197852925766e-01
15 2 9.05318601482751451e-01
16 2 9.32274685838542450e-01
17 2 9.63723450920298541e-01
18 2 9.81694173824159244e-01
19 2 9.63723450920298541e-01
20 2 9.32274685838542450e-01
21 2 9.05318601482751339e-01
22 2 8.82855197852925544e-01
23 2 8.64884474949064952e-01
24 2 8.51406432771169230e-01
25 2 8.42421071319238823e-01
26 2 8.37928390593273731e-01
27 2 8.37928390593273731e-01
28 2 8.42421071319238934e-01
29 2 8.51406432771169452e-01
30 2 8.64884474949064952e-01
31 2 8.82855197852925766e-01
32 2 9.05318601482751451e-01
33 2 9.32274685838542450e-01
34 2 9.63723450920298541e-01
35 2 9.81694173824159244e-01
36 2 9.63723450920298541e-01
37 2 9.32274685838542450e-01
38 2 9.05318601482751339e-01
39 2 8.82855197852925544e-01
40 2 8.64884474949064952e-01
41 2 8.51406432771169230e-01
42 2 8.42421071319238823e-01
43 2 8.37928390593273731e-01
44 2 8.37928390593273731e-01
45 2 8.42421071319238934e-01
46 2 8.51406432771169452e-01
47 2 8.64884474949064952e-01
48 2 8.82855197852925766e-01
49 2 9.05318601482751451e-01
50 2 9.32274685838542450e-01
51 2 9.63723450920298541e-01
52 2 9.81694173824159244e-01
53 2 9.63723450920298541e-01
54 2 9.32274685838542450e-01
55 2 9.05318601482751339e-01
56 2 8.82855197852925544e-01
57 2 8.64884474949064952e-01
58 2 8.51406432771169230e-01
59 2 8.42421071319238823e-01
60 2 8.37928390593273731e-01
61 2 8.37928390593273731e-01
62 2 8.42421071319238934e-01
63 2 8.51406432771169452e-01
64 2 8.64884474949064952e-01
65 2 8.82855197852925766e-01
66 2 9.05318601482751451e-01
67 2 9.32274685838542450e-01
68 2 9.63723450920298541e-01
69 2 9.81694173824159244e-01
1 3 9.49658978016437949e-01
2 3 9.32274685838542450e-01
3 3 9.01852174527225436e-01
4 3 8.75775736260382076e-01
5 3 8.54045371038012702e-01
6 3 8.36661078860117202e-01
7 3 8.23622859726695244e-01
8 3 8.14930713637747717e-01
9 3 8.10584640593273842e-01
10 3 8.10584640593273842e-01
11 3 8.14930713637747717e-01
12 3 8.23622859726695689e-01
13 3 8.36661078860117202e-01
14 3 8.54045371038012813e-01
15 3 8.75775736260382076e-01
16 3 9.01852174527225214e-01
17 3 9.32274685838542450e-01
18 3 9.49658978016437949e-01
19 3 9.32274685838542450e-01
20 3 9.01852174527225436e-01
21 3 8.75775736260382076e-01
22 3 8.54045371038012702e-01
23 3 8.36661078860117202e-01
24 3 8.23622859726695244e-01
25 3 8.14930713637747717e-01
26 3 8.10584640593273842e-01
27 3 8.10584640593273842e-01
28 3 8.14930713637747717e-01
29 3 8.23622859726695689e-01
30 3 8.36661078860117202e-01
31 3 8.54045371038012813e-01
32 3 8.75775736260382076e-01
33 3 9.01852174527225214e-01
34 3 9.32274685838542450e-01
35 3 9.49658978016437949e-01
36 3 9.32274685838542450e-01
37 3 9.01852174527225436e-01
38 3 8.75775736260382076e-01
39 3 8.54045371038012702e-01
40 3 8.36661078860117202e-01
41 3 8.23622859726695244e-01
42 3 8.14930713637747717e-01
43 3 8.10584640593273842e-01
44 3 8.10584640593273842e-01
45 3 8.14930713637747717e-01
46 3 8.23622859726695689e-01
47 3 8.36661078860117202e-01
48 3 8.54045371038012813e-01
49 3 8.75775736260382076e-01
50 3 9.01852174527225214e-01
51 3 9.32274685838542450e-01
52 3 9.49658978016437949e-01
53 3 9.32274685838542450e-01
54 3 9.01852174527225436e-01
55 3 8.75775736260382076e-01
56 3 8.54045371038012702e-01
57 3 8.36661078860117202e-01
58 3 8.23622859726695244e-01
59 3 8.14930713637747717e-01
60 3 8.10584640593273842e-01
61 3 8.10584640593273842e-01
62 3 8.14930713637747717e-01
63 3 8.23622859726695689e-01
64 3 8.36661078860117202e-01
65 3 8.54045371038012813e-01
66 3 8.75775736260382076e-01
67 3 9.01852174527225214e-01
68 3 9.32274685838542450e-01
69 3 9.49658978016437949e-01
1 4 9.22200238752676649e-01
2 4 9.05318601482751451e-01
3 4 8.75775736260382076e-01
4 4 8.50453280355494057e-01
5 4 8.29351233768087281e-01
6 4 8.12469596498161861e-01
7 4 7.99808368545717685e-01
8 4 7.91367549910755086e-01
9 4 7.87147140593273731e-01
10 4 7.87147140593273731e-01
11 4 7.91367549910755086e-01
12 4 7.99808368545718018e-01
13 4 8.12469596498162083e-01
14 4 8.29351233768087504e-01
15 4 8.50453280355494057e-01
16 4 8.75775736260381965e-01
17 4 9.05318601482751451e-01
18 4 9.22200238752676649e-01
19 4 9.05318601482751451e-01
20 4 8.75775736260382076e-01
21 4 8.50453280355494057e-01
22 4 8.29351233768087281e-01
23 4 8.12469596498161861e-01
24 4 7.99808368545717685e-01
25 4 7.91367549910755086e-01
26 4 7.87147140593273731e-01
27 4 7.87147140593273731e-01
28 4 7.91367549910755086e-01
29 4 7.99808368545718018e-01
30 4 8.12469596498162083e-01
31 4 8.29351233768087504e-01
32 4 8.50453280355494057e-01
33 4 8.75775736260381965e-01
34 4 9.05318601482751451e-01
35 4 9.22200238752676649e-01
36 4 9.05318601482751451e-01
37 4 8.75775736260382076e-01
38 4 8.50453280355494057e-01
39 4 8.29351233768087281e-01
40 4 8.12469596498161861e-01
41 4 7.99808368545717685e-01
42 4 7.91367549910755086e-01
43 4 7.87147140593273731e-01
44 4 7.87147140593273731e-01
45 4 7.91367549910755086e-01
46 4 7.99808368545718018e-01
47 4 8.12469596498162083e-01
48 4 8.29351233768087504e-01
49 4 8.50453280355494057e-01
50 4 8.75775736260381965e-01
51 4 9.05318601482751451e-01
52 4 9.22200238752676649e-01
53 4 9.05318601482751451e-01
54 4 8.75775736260382076e-01
55 4 8.50453280355494057e-01
56 4 8.29351233768087281e-01
57 4 8.12469596498161861e-01
58 4 7.99808368545717685e-01
59 4 7.91367549910755086e-01
60 4 7.87147140593273731e-01
61 4 7.87147140593273731e-01
62 4 7.91367549910755086e-01
63 4 7.99808368545718018e-01
64 4 8.12469596498162083e-01
65 4 8.29351233768087504e-01
66 4 8.50453280355494057e-01
67 4 8.75775736260381965e-01
68 4 9.05318601482751451e-01
69 4 9.22200238752676649e-01
1 5 8.99317956032875676e-01
2 5 8.82855197852925544e-01
3 5 8.54045371038012702e-01
4 5 8.29351233768087504e-01
5 5 8.08772786043149505e-01
6 5 7.92310027863199151e-01
7 5 7.79962959228236330e-01
8 5 7.71731580138261375e-01
9 5 7.67615890593273731e-01
10 5 7.67615890593273731e-01
11 5 7.71731580138261375e-01
12 5 7.79962959228236774e-01
13 5 7.92310027863199373e-01
14 5 8.08772786043149727e-01
15 5 8.29351233768087504e-01
16 5 8.54045371038012702e-01
17 5 8.82855197852925544e-01
18 5 8.99317956032875676e-01
19 5 8.82855197852925544e-01
20 5 8.54045371038012702e-01
21 5 8.29351233768087504e-01
22 5 8.08772786043149505e-01
23 5 7.92310027863199151e-01
24 5 7.79962959228236330e-01
25 5 7.71731580138261375e-01
26 5 7.67615890593273731e-01
27 5 7.67615890593273731e-01
28 5 7.71731580138261375e-01
29 5 7.79962959228236774e-01
30 5 7.92310027863199373e-01
31 5 8.08772786043149727e-01
32 5 8.29351233768087504e-01
33 5 8.54045371038012702e-01
34 5 8.82855197852925544e-01
35 5 8.99317956032875676e-01
36 5 8.82855197852925544e-01
37 5 8.54045371038012702e-01
38 5 8.29351233768087504e-01
39 5 8.08772786043149505e-01
40 5 7.92310027863199151e-01
41 5 7.79962959228236330e-01
42 5 7.71731580138261375e-01
43 5 7.67615890593273731e-01
44 5 7.67615890593273731e-01
45 5 7.71731580138261375e-01
46 5 7.79962959228236774e-01
47 5 7.92310027863199373e-01
48 5 8.08772786043149727e-01
49 5 8.29351233768087504e-01
50 5 8.54045371038012702e-01
51 5 8.82855197852925544e-01
52 5 8.99317956032875676e-01
53 5 8.82855197852925544e-01
54 5 8.54045371038012702e-01
55 5 8.29351233768087504e-01
56 5 8.08772786043149505e-01
57 5 7.92310027863199151e-01
58 5 7.79962959228236330e-01
59 5 7.71731580138261375e-01
60 5 7.67615890593273731e-01
61 5 7.67615890593273731e-01
62 5 7.71731580138261375e-01
63 5 7.79962959228236774e-01
64 5 7.92310027863199373e-01
65 5 8.08772786043149727e-01
66 5 8.29351233768087504e-01
67 5 8.54045371038012702e-01
68 5 8.82855197852925544e-01
69 5 8.99317956032875676e-01
1 6 8.81012129857034920e-01
2 6 8.64884474949064841e-01
3 6 8.36661078860117202e-01
4 6 8.12469596498162083e-01
5 6 7.92310027863199373e-01
6 6 7.76182372955229072e-01
7 6 7.64086631774251179e-01
8 6 7.56022804320266362e-01
9 6 7.51990890593273731e-01
10 6 7.51990890593273731e-01
11 6 7.56022804320266362e-01
12 6 7.64086631774251734e-01
13 6 7.76182372955229294e-01
14 6 7.92310027863199373e-01
15 6 8.12469596498162083e-01
16 6 8.36661078860117202e-01
17 6 8.64884474949064841e-01
18 6 8.81012129857034920e-01
19 6 8.64884474949064841e-01
20 6 8.36661078860117202e-01
21 6 8.12469596498162083e-01
22 6 7.92310027863199373e-01
23 6 7.76182372955229072e-01
24 6 7.64086631774251179e-01
25 6 7.56022804320266362e-01
26 6 7.51990890593273731e-01
27 6 7.51990890593273731e-01
28 6 7.56022804320266362e-01
29 6 7.64086631774251734e-01
30 6 7.76182372955229294e-01
31 6 7.92310027863199373e-01
32 6 8.12469596498162083e-01
33 6 8.36661078860117202e-01
34 6 8.64884474949064841e-01
35 6 8.81012129857034920e-01
36 6 8.64884474949064841e-01
37 6 8.36661078860117202e-01
38 6 8.12469596498162083e-01
39 6 7.92310027863199373e-01
40 6 7.76182372955229072e-01
41 6 7.64086631774251179e-01
42 6 7.56022804320266362e-01
43 6 7.51990890593273731e-01
44 6 7.51990890593273731e-01
45 6 7.56022804320266362e-01
46 6 7.64086631774251734e-01
47 6 7.76182372955229294e-01
48 6 7.92310027863199373e-01
49 6 8.12469596498162083e-01
50 6 8.36661078860117202e-01
51 6 8.64884474949064841e-01
52 6 8.81012129857034920e-01
53 6 8.64884474949064841e-01
54 6 8.36661078860117202e-01
55 6 8.12469596498162083e-01
56 6 7.92310027863199373e-01
57 6 7.76182372955229072e-01
58 6 7.64086631774251179e-01
59 6 7.56022804320266362e-01
60 6 7.51990890593273731e-01
61 6 7.51990890593273731e-01
62 6 7.56022804320266362e-01
63 6 7.64086631774251734e-01
64 6 7.76182372955229294e-01
65 6 7.92310027863199373e-01
66 6 8.12469596498162083e-01
67 6 8.36661078860117202e-01
68 6 8.64884474949064841e-01
69 6 8.81012129857034920e-01
1 7 8.67282760225154270e-01
2 7 8.51406432771169341e-01
3 7 8.23622859726695467e-01
4 7 7.99808368545718018e-01
5 7 7.79962959228236552e-01
6 7 7.64086631774251512e-01
7 7 7.52179386183762344e-01
8 7 7.44241222456770046e-01
9 7 7.40272140593273731e-01
10 7 7.40272140593273731e-01
11 7 7.44241222456770046e-01
12 7 7.52179386183762788e-01
13 7 7.64086631774251623e-01
14 7 7.79962959228236552e-01
15 7 7.99808368545718018e-01
16 7 8.23622859726695467e-01
17 7 8.51406432771169341e-01
18 7 8.67282760225154270e-01
19 7 8.51406432771169341e-01
20 7 8.23622859726695467e-01
21 7 7.99808368545718018e-01
22 7 7.79962959228236552e-01
23 7 7.64086631774251512e-01
24 7 7.52179386183762344e-01
25 7 7.44241222456770046e-01
26 7 7.40272140593273731e-01
27 7 7.40272140593273731e-01
28 7 7.44241222456770046e-01
29 7 7.52179386183762788e-01
30 7 7.64086631774251623e-01
31 7 7.79962959228236552e-01
32 7 7.99808368545718018e-01
33 7 8.23622859726695467e-01
34 7 8.51406432771169341e-01
35 7 8.67282760225154270e-01
36 7 8.51406432771169341e-01
37 7 8.23622859726695467e-01
38 7 7.99808368545718018e-01
39 7 7.79962959228236552e-01
40 7 7.64086631774251512e-01
41 7 7.52179386183762344e-01
42 7 7.44241222456770046e-01
43 7 7.40272140593273731e-01
44 7 7.40272140593273731e-01
45 7 7.44241222456770046e-01
46 7 7.52179386183762788e-01
47 7 7.64086631774251623e-01
48 7 7.79962959228236552e-01
49 7 7.99808368545718018e-01
50 7 8.23622859726695467e-01
51 7 8.51406432771169341e-01
52 7 8.67282760225154270e-01
53 7 8.51406432771169341e-01
54 7 8.23622859726695467e-01
55 7 7.99808368545718018e-01
56 7 7.79962959228236552e-01
57 7 7.64086631774251512e-01
58 7 7.52179386183762344e-01
59 7 7.44241222456770046e-01
60 7 7.40272140593273731e-01
61 7 7.40272140593273731e-01
62 7 7.44241222456770046e-01
63 7 7.52179386183762788e-01
64 7 7.64086631774251623e-01
65 7 7.79962959228236552e-01
66 7 7.99808368545718018e-01
67 7 8.23622859726695467e-01
68 7 8.51406432771169341e-01
69 7 8.67282760225154270e-01
1 8 8.58129847137233837e-01
2 8 8.42421071319239045e-01
3 8 8.14930713637747717e-01
4 8 7.91367549910755308e-01
5 8 7.71731580138261375e-01
6 8 7.56022804320266473e-01
7 8 7.44241222456769824e-01
8 8 7.36386834547772651e-01
9 8 7.32459640593273620e-01
10 8 7.32459640593273620e-01
11 8 7.36386834547772651e-01
12 8 7.44241222456770268e-01
13 8 7.56022804320266473e-01
14 8 7.71731580138261486e-01
15 8 7.91367549910755308e-01
16 8 8.14930713637747717e-01
17 8 8.42421071319239045e-01
18 8 8.58129847137233837e-01
19 8 8.42421071319239045e-01
20 8 8.14930713637747717e-01
21 8 7.91367549910755308e-01
22 8 7.71731580138261375e-01
23 8 7.56022804320266473e-01
24 8 7.44241222456769824e-01
25 8 7.36386834547772651e-01
26 8 7.32459640593273620e-01
27 8 7.32459640593273620e-01
28 8 7.36386834547772651e-01
29 8 7.44241222456770268e-01
30 8 7.56022804320266473e-01
31 8 7.71731580138261486e-01
32 8 7.91367549910755308e-01
33 8 8.14930713637747717e-01
34 8 8.42421071319239045e-01
35 8 8.58129847137233837e-01
36 8 8.42421071319239045e-01
37 8 8.14930713637747717e-01
38 8 7.91367549910755308e-01
39 8 7.71731580138261375e-01
40 8 7.56022804320266473e-01
41 8 7.44241222456769824e-01
42 8 7.36386834547772651e-01
43 8 7.32459640593273620e-01
44 8 7.32459640593273620e-01
45 8 7.36386834547772651e-01
46 8 7.44241222456770268e-01
47 8 7.56022804320266473e-01
48 8 7.71731580138261486e-01
49 8 7.91367549910755308e-01
50 8 8.14930713637747717e-01
51 8 8.42421071319239045e-01
52 8 8.58129847137233837e-01
53 8 8.42421071319239045e-01
54 8 8.14930713637747717e-01
55 8 7.91367549910755308e-01
56 8 7.71731580138261375e-01
57 8 7.56022804320266473e-01
58 8 7.44241222456769824e-01
59 8 7.36386834547772651e-01
60 8 7.32459640593273620e-01
61 8 7.32459640593273620e-01
62 8 7.36386834547772651e-01
63 8 7.44241222456770268e-01
64 8 7.56022804320266473e-01
65 8 7.71731580138261486e-01
66 8 7.91367549910755308e-01
67 8 8.14930713637747717e-01
68 8 8.42421071319239045e-01
69 8 8.58129847137233837e-01
1 9 8.53553390593273731e-01
2 9 8.37928390593273953e-01
3 9 8.10584640593273953e-01
4 9 7.87147140593273953e-01
5 9 7.67615890593273842e-01
6 9 7.51990890593273953e-01
7 9 7.40272140593273509e-01
8 9 7.32459640593273953e-01
9 9 7.28553390593273731e-01
10 9 7.28553390593273731e-01
11 9 7.32459640593273953e-01
12 9 7.40272140593273953e-01
13 9 7.51990890593273953e-01
14 9 7.67615890593273953e-01
15 9 7.87147140593273953e-01
16 9 8.10584640593273953e-01
17 9 8.37928390593273953e-01
18 9 8.53553390593273731e-01
19 9 8.37928390593273953e-01
20 9 8.10584640593273953e-01
21 9 7.87147140593273953e-01
22 9 7.67615890593273842e-01
23 9 7.51990890593273953e-01
24 9 7.40272140593273509e-01
25 9 7.32459640593273953e-01
26 9 7.28553390593273731e-01
27 9 7.28553390593273731e-01
28 9 7.32459640593273953e-01
29 9 7.40272140593273953e-01
30 9 7.51990890593273953e-01
31 9 7.67615890593273953e-01
32 9 7.87147140593273953e-01
33 9 8.10584640593273953e-01
34 9 8.37928390593273953e-01
35 9 8.53553390593273731e-01
36 9 8.37928390593273953e-01
37 9 8.10584640593273953e-01
38 9 7.87147140593273953e-01
39 9 7.67615890593273842e-01
40 9 7.51990890593273953e-01
41 9 7.40272140593273509e-01
42 9 7.32459640593273953e-01
43 9 7.28553390593273731e-01
44 9 7.28553390593273731e-01
45 9 7.32459640593273953e-01
46 9 7.40272140593273953e-01
47 9 7.51990890593273953e-01
48 9 7.67615890593273953e-01
49 9 7.87147140593273953e-01
50 9 8.10584640593273953e-01
51 9 8.37928390593273953e-01
52 9 8.53553390593273731e-01
53 9 8.37928390593273953e-01
54 9 8.10584640593273953e-01
55 9 7.87147140593273953e-01
56 9 7.67615890593273842e-01
57 9 7.51990890593273953e-01
58 9 7.40272140593273509e-01
59 9 7.32459640593273953e-01
60 9 7.28553390593273731e-01
61 9 7.28553390593273731e-01
62 9 7.32459640593273953e-01
63 9 7.40272140593273953e-01
64 9 7.51990890593273953e-01
65 9 7.67615890593273953e-01
66 9 7.87147140593273953e-01
67 9 8.10584640593273953e-01
68 9 8.37928390593273953e-01
69 9 8.53553390593273731e-01
1 10 8.53553390593273731e-01
2 10 8.37928390593273953e-01
3 10 8.10584640593273953e-01
4 10 7.87147140593273953e-01
5 10 7.67615890593273731e-01
6 10 7.51990890593273953e-01
7 10 7.40272140593273620e-01
8 10 7.32459640593273953e-01
9 10 7.28553390593273842e-01
10 10 7.28553390593273842e-01
11 10 7.32459640593273953e-01
12 10 7.40272140593273953e-01
13 10 7.51990890593274064e-01
14 10 7.67615890593273953e-01
15 10 7.87147140593274064e-01
16 10 8.10584640593273953e-01
17 10 8.37928390593273953e-01
18 10 8.53553390593273731e-01
19 10 8.37928390593273953e-01
20 10 8.10584640593273953e-01
21 10 7.87147140593273953e-01
22 10 7.67615890593273731e-01
23 10 7.51990890593273953e-01
24 10 7.40272140593273620e-01
25 10 7.32459640593273953e-01
26 10 7.28553390593273842e-01
27 10 7.28553390593273842e-01
28 10 7.32459640593273953e-01
29 10 7.40272140593273953e-01
30 10 7.51990890593274064e-01
31 10 7.67615890593273953e-01
32 10 7.87147140593274064e-01
33 10 8.10584640593273953e-01
34 10 8.37928390593273953e-01
35 10 8.53553390593273731e-01
36 10 8.37928390593273953e-01
37 10 8.10584640593273953e-01
38 10 7.87147140593273953e-01
39 10 7.67615890593273731e-01
40 10 7.51990890593273953e-01
41 10 7.40272140593273620e-01
42 10 7.32459640593273953e-01
43 10 7.28553390593273842e-01
44 10 7.28553390593273842e-01
45 10 7.32459640593273953e-01
46 10 7.40272140593273953e-01
47 10 7.51990890593274064e-01
48 10 7.67615890593273953e-01
49 10 7.87147140593274064e-01
50 10 8.10584640593273953e-01
51 10 8.37928390593273953e-01
52 10 8.53553390593273731e-01
53 10 8.37928390593273953e-01
54 10 8.10584640593273953e-01
55 10 7.87147140593273953e-01
56 10 7.67615890593273731e-01
57 10 7.51990890593273953e-01
58 10 7.40272140593273620e-01
59 10 7.32459640593273953e-01
60 10 7.28553390593273842e-01
61 10 7.28553390593273842e-01
62 10 7.32459640593273953e-01
63 10 7.40272140593273953e-01
64 10 7.51990890593274064e-01
65 10 7.67615890593273953e-01
66 10 7.87147140593274064e-01
67 10 8.10584640593273953e-01
68 10 8.37928390593273953e-01
69 10 8.53553390593273731e-01
1 11 8.58129847137233948e-01
2 11 8.42421071319239045e-01
3 11 8.14930713637747828e-01
4 11 7.91367549910755197e-01
5 11 7.71731580138261264e-01
6 11 7.56022804320266362e-01
7 11 7.44241222456769824e-01
8 11 7.36386834547772651e-01
9 11 7.32459640593273842e-01
10 11 7.32459640593273842e-01
11 11 7.36386834547772651e-01
12 11 7.44241222456770157e-01
13 11 7.56022804320266473e-01
14 11 7.71731580138261486e-01
15 11 7.91367549910755419e-01
16 11 8.14930713637747828e-01
17 11 8.42421071319239045e-01
18 11 8.58129847137233948e-01
19 11 8.42421071319239045e-01
20 11 8.14930713637747828e-01
21 11 7.91367549910755197e-01
22 11 7.71731580138261264e-01
23 11 7.56022804320266362e-01
24 11 7.44241222456769824e-01
25 11 7.36386834547772651e-01
26 11 7.32459640593273842e-01
27 11 7.32459640593273842e-01
28 11 7.36386834547772651e-01
29 11 7.44241222456770157e-01
30 11 7.56022804320266473e-01
31 11 7.71731580138261486e-01
32 11 7.91367549910755419e-01
33 11 8.14930713637747828e-01
34 11 8.42421071319239045e-01
35 11 8.58129847137233948e-01
36 11 8.42421071319239045e-01
37 11 8.14930713637747828e-01
38 11 7.91367549910755197e-01
39 11 7.71731580138261264e-01
40 11 7.56022804320266362e-01
41 11 7.44241222456769824e-01
42 11 7.36386834547772651e-01
43 11 7.32459640593273842e-01
44 11 7.32459640593273842e-01
45 11 7.36386834547772651e-01
46 11 7.44241222456770157e-01
47 11 7.56022804320266473e-01
48 11 7.71731580138261486e-01
49 11 7.91367549910755419e-01
50 11 8.14930713637747828e-01
51 11 8.42421071319239045e-01
52 11 8.58129847137233948e-01
53 11 8.42421071319239045e-01
54 11 8.14930713637747828e-01
55 11 7.91367549910755197e-01
56 11 7.71731580138261264e-01
57 11 7.56022804320266362e-01
58 11 7.44241222456769824e-01
59 11 7.36386834547772651e-01
60 11 7.32459640593273842e-01
61 11 7.32459640593273842e-01
62 11 7.36386834547772651e-01
63 11 7.44241222456770157e-01
64 11 7.56022804320266473e-01
65 11 7.71731580138261486e-01
66 11 7.91367549910755419e-01
67 11 8.14930713637747828e-01
68 11 8.42421071319239045e-01
69 11 8.58129847137233948e-01
1 12 8.67282760225154492e-01
2 12 8.51406432771169452e-01
3 12 8.23622859726695578e-01
4 12 7.99808368545717907e-01
5 12 7.79962959228236441e-01
6 12 7.64086631774251512e-01
7 12 7.52179386183762455e-01
8 12 7.44241222456770157e-01
9 12 7.40272140593273842e-01
10 12 7.40272140593273842e-01
11 12 7.44241222456770157e-01
12 12 7.52179386183762677e-01
13 12 7.64086631774251623e-01
14 12 7.79962959228236663e-01
15 12 7.99808368545718129e-01
16 12 8.23622859726695578e-01
17 12 8.51406432771169452e-01
18 12 8.67282760225154492e-01
19 12 8.51406432771169452e-01
20 12 8.23622859726695578e-01
21 12 7.99808368545717907e-01
22 12 7.79962959228236441e-01
23 12 7.64086631774251512e-01
24 12 7.52179386183762455e-01
25 12 7.44241222456770157e-01
26 12 7.40272140593273842e-01
27 12 7.40272140593273842e-01
28 12 7.44241222456770157e-01
29 12 7.52179386183762677e-01
30 12 7.64086631774251623e-01
31 12 7.79962959228236663e-01
32 12 7.99808368545718129e-01
33 12 8.23622859726695578e-01
34 12 8.51406432771169452e-01
35 12 8.67282760225154492e-01
36 12 8.51406432771169452e-01
37 12 8.23622859726695578e-01
38 12 7.99808368545717907e-01
39 12 7.79962959228236441e-01
40 12 7.64086631774251512e-01
41 12 7.52179386183762455e-01
42 12 7.44241222456770157e-01
43 12 7.40272140593273842e-01
44 12 7.40272140593273842e-01
45 12 7.44241222456770157e-01
46 12 7.52179386183762677e-01
47 12 7.64086631774251623e-01
48 12 7.79962959228236663e-01
49 12 7.99808368545718129e-01
50 12 8.23622859726695578e-01
51 12 8.51406432771169452e-01
52 12 8.67282760225154492e-01
53 12 8.51406432771169452e-01
54 12 8.23622859726695578e-01
55 12 7.99808368545717907e-01
56 12 7.79962959228236441e-01
57 12 7.64086631774251512e-01
58 12 7.52179386183762455e-01
59 12 7.44241222456770157e-01
60 12 7.40272140593273842e-01
61 12 7.40272140593273842e-01
62 12 7.44241222456770157e-01
63 12 7.52179386183762677e-01
64 12 7.64086631774251623e-01
65 12 7.79962959228236663e-01
66 12 7.99808368545718129e-01
67 12 8.23622859726695578e-01
68 12 8.51406432771169452e-01
69 12 8.67282760225154492e-01
1 13 8.81012129857035142e-01
2 13 8.64884474949064952e-01
3 13 8.36661078860117202e-01
4 13 8.12469596498161861e-01
5 13 7.92310027863199151e-01
6 13 7.76182372955229183e-01
7 13 7.64086631774251290e-01
8 13 7.56022804320266362e-01
9 13 7.51990890593273842e-01
10 13 7.51990890593273842e-01
11 13 7.56022804320266362e-01
12 13 7.64086631774251401e-01
13 13 7.76182372955229294e-01
14 13 7.92310027863199373e-01
15 13 8.12469596498162083e-01
16 13 8.36661078860117202e-01
17 13 8.64884474949064952e-01
18 13 8.81012129857035142e-01
19 13 8.64884474949064952e-01
20 13 8.36661078860117202e-01
21 13 8.12469596498161861e-01
22 13 7.92310027863199151e-01
23 13 7.76182372955229183e-01
24 13 7.64086631774251290e-01
25 13 7.56022804320266362e-01
26 13 7.51990890593273842e-01
27 13 7.51990890593273842e-01
28 13 7.56022804320266362e-01
29 13 7.64086631774251401e-01
30 13 7.76182372955229294e-01
31 13 7.92310027863199373e-01
32 13 8.12469596498162083e-01
33 13 8.36661078860117202e-01
34 13 8.64884474949064952e-01
35 13 8.81012129857035142e-01
36 13 8.64884474949064952e-01
37 13 8.36661078860117202e-01
38 13 8.12469596498161861e-01
39 13 7.92310027863199151e-01
40 13 7.76182372955229183e-01
41 13 7.64086631774251290e-01
42 13 7.56022804320266362e-01
43 13 7.51990890593273842e-01
44 13 7.51990890593273842e-01
45 13 7.56022804320266362e-01
46 13 7.64086631774251401e-01
47 13 7.76182372955229294e-01
48 13 7.92310027863199373e-01
49 13 8.12469596498162083e-01
50 13 8.36661078860117202e-01
51 13 8.64884474949064952e-01
52 13 8.81012129857035142e-01
53 13 8.64884474949064952e-01
54 13 8.36661078860117202e-01
55 13 8.12469596498161861e-01
56 13 7.92310027863199151e-01
57 13 7.76182372955229183e-01
58 13 7.64086631774251290e-01
59 13 7.56022804320266362e-01
60 13 7.51990890593273842e-01
61 13 7.51990890593273842e-01
62 13 7.56022804320266362e-01
63 13 7.64086631774251401e-01
64 13 7.76182372955229294e-01
65 13 7.92310027863199373e-01
66 13 8.12469596498162083e-01
67 13 8.36661078860117202e-01
68 13 8.64884474949064952e-01
69 13 8.81012129857035142e-01
1 14 8.99317956032875898e-01
2 14 8.82855197852925544e-01
3 14 8.54045371038012702e-01
4 14 8.29351233768087281e-01
5 14 8.08772786043149394e-01
6 14 7.92310027863199262e-01
7 14 7.79962959228236330e-01
8 14 7.71731580138261375e-01
9 14 7.67615890593273842e-01
10 14 7.67615890593273842e-01
11 14 7.71731580138261375e-01
12 14 7.79962959228236441e-01
13 14 7.92310027863199373e-01
14 14 8.08772786043149616e-01
15 14 8.29351233768087392e-01
16 14 8.54045371038012702e-01
17 14 8.82855197852925544e-01
18 14 8.99317956032875898e-01
19 14 8.82855197852925544e-01
20 14 8.54045371038012702e-01
21 14 8.29351233768087281e-01
22 14 8.08772786043149394e-01
23 14 7.92310027863199262e-01
24 14 7.79962959228236330e-01
25 14 7.71731580138261375e-01
26 14 7.67615890593273842e-01
27 14 7.67615890593273842e-01
28 14 7.71731580138261375e-01
29 14 7.79962959228236441e-01
30 14 7.92310027863199373e-01
31 14 8.08772786043149616e-01
32 14 8.29351233768087392e-01
33 14 8.54045371038012702e-01
34 14 8.82855197852925544e-01
35 14 8.99317956032875898e-01
36 14 8.82855197852925544e-01
37 14 8.54045371038012702e-01
38 14 8.29351233768087281e-01
39 14 8.08772786043149394e-01
40 14 7.92310027863199262e-01
41 14 7.79962959228236330e-01
42 14 7.71731580138261375e-01
43 14 7.67615890593273842e-01
44 14 7.67615890593273842e-01
45 14 7.71731580138261375e-01
46 14 7.79962959228236441e-01
47 14 7.92310027863199373e-01
48 14 8.08772786043149616e-01
49 14 8.29351233768087392e-01
50 14 8.54045371038012702e-01
51 14 8.82855197852925544e-01
52 14 8.99317956032875898e-01
53 14 8.82855197852925544e-01
54 14 8.54045371038012702e-01
55 14 8.29351233768087281e-01
56 14 8.08772786043149394e-01
57 14 7.92310027863199262e-01
58 14 7.79962959228236330e-01
59 14 7.71731580138261375e-01
60 14 7.67615890593273842e-01
61 14 7.67615890593273842e-01
62 14 7.71731580138261375e-01
63 14 7.79962959228236441e-01
64 14 7.92310027863199373e-01
65 14 8.08772786043149616e-01
66 14 8.29351233768087392e-01
67 14 8.54045371038012702e-01
68 14 8.82855197852925544e-01
69 14 8.99317956032875898e-01
1 15 9.22200238752676760e-01
2 15 9.05318601482751339e-01
3 15 8.75775736260381965e-01
4 15 8.50453280355493946e-01
5 15 8.29351233768087170e-01
6 15 8.12469596498161861e-01
7 15 7.99808368545717685e-01
8 15 7.91367549910755086e-01
9 15 7.87147140593273842e-01
10 15 7.87147140593273842e-01
11 15 7.91367549910755086e-01
12 15 7.99808368545717796e-01
13 15 8.12469596498161972e-01
14 15 8.29351233768087392e-01
15 15 8.50453280355494057e-01
16 15 8.75775736260381965e-01
17 15 9.05318601482751339e-01
18 15 9.22200238752676760e-01
19 15 9.05318601482751339e-01
20 15 8.75775736260381965e-01
21 15 8.50453280355493946e-01
22 15 8.29351233768087170e-01
23 15 8.12469596498161861e-01
24 15 7.99808368545717685e-01
25 15 7.91367549910755086e-01
26 15 7.87147140593273842e-01
27 15 7.87147140593273842e-01
28 15 7.91367549910755086e-01
29 15 7.99808368545717796e-01
30 15 8.12469596498161972e-01
31 15 8.29351233768087392e-01
32 15 8.50453280355494057e-01
33 15 8.75775736260381965e-01
34 15 9.05318601482751339e-01
35 15 9.22200238752676760e-01
36 15 9.05318601482751339e-01
37 15 8.75775736260381965e-01
38 15 8.50453280355493946e-01
39 15 8.29351233768087170e-01
40 15 8.12469596498161861e-01
41 15 7.99808368545717685e-01
42 15 7.91367549910755086e-01
43 15 7.87147140593273842e-01
44 15 7.87147140593273842e-01
45 15 7.91367549910755086e-01
46 15 7.99808368545717796e-01
47 15 8.12469596498161972e-01
48 15 8.29351233768087392e-01
49 15 8.50453280355494057e-01
50 15 8.75775736260381965e-01
51 15 9.05318601482751339e-01
52 15 9.22200238752676760e-01
53 15 9.05318601482751339e-01
54 15 8.75775736260381965e-01
55 15 8.50453280355493946e-01
56 15 8.29351233768087170e-01
57 15 8.12469596498161861e-01
58 15 7.99808368545717685e-01
59 15 7.91367549910755086e-01
60 15 7.87147140593273842e-01
61 15 7.87147140593273842e-01
62 15 7.91367549910755086e-01
63 15 7.99808368545717796e-01
64 15 8.12469596498161972e-01
65 15 8.29351233768087392e-01
66 15 8.50453280355494057e-01
67 15 8.75775736260381965e-01
68 15 9.05318601482751339e-01
69 15 9.22200238752676760e-01
1 16 9.49658978016437838e-01
2 16 9.32274685838542339e-01
3 16 9.01852174527225214e-01
4 16 8.75775736260381965e-01
5 16 8.54045371038012480e-01
6 16 8.36661078860116980e-01
7 16 8.23622859726695244e-01
8 16 8.14930713637747606e-01
9 16 8.10584640593273731e-01
10 16 8.10584640593273731e-01
11 16 8.14930713637747606e-01
12 16 8.23622859726695467e-01
13 16 8.36661078860117202e-01
14 16 8.54045371038012702e-01
15 16 8.75775736260382076e-01
16 16 9.01852174527225214e-01
17 16 9.32274685838542339e-01
18 16 9.49658978016437838e-01
19 16 9.32274685838542339e-01
20 16 9.01852174527225214e-01
21 16 8.75775736260381965e-01
22 16 8.54045371038012480e-01
23 16 8.36661078860116980e-01
24 16 8.23622859726695244e-01
25 16 8.14930713637747606e-01
26 16 8.10584640593273731e-01
27 16 8.10584640593273731e-01
28 16 8.14930713637747606e-01
29 16 8.23622859726695467e-01
30 16 8.36661078860117202e-01
31 16 8.54045371038012702e-01
32 16 8.75775736260382076e-01
33 16 9.01852174527225214e-01
34 16 9.32274685838542339e-01
35 16 9.49658978016437838e-01
36 16 9.32274685838542339e-01
37 16 9.01852174527225214e-01
38 16 8.75775736260381965e-01
39 16 8.54045371038012480e-01
40 16 8.36661078860116980e-01
41 16 8.23622859726695244e-01
42 16 8.14930713637747606e-01
43 16 8.10584640593273731e-01
44 16 8.10584640593273731e-01
45 16 8.14930713637747606e-01
46 16 8.23622859726695467e-01
47 16 8.36661078860117202e-01
48 16 8.54045371038012702e-01
49 16 8.75775736260382076e-01
50 16 9.01852174527225214e-01
51 16 9.32274685838542339e-01
52 16 9.49658978016437838e-01
53 16 9.32274685838542339e-01
54 16 9.01852174527225214e-01
55 16 8.75775736260381965e-01
56 16 8.54045371038012480e-01
57 16 8.36661078860116980e-01
58 16 8.23622859726695244e-01
59 16 8.14930713637747606e-01
60 16 8.10584640593273731e-01
61 16 8.10584640593273731e-01
62 16 8.14930713637747606e-01
63 16 8.23622859726695467e-01
64 16 8.36661078860117202e-01
65 16 8.54045371038012702e-01
66 16 8.75775736260382076e-01
67 16 9.01852174527225214e-01
68 16 9.32274685838542339e-01
69 16 9.49658978016437838e-01
1 17 9.81694173824159244e-01
2 17 9.63723450920298541e-01
3 17 9.32274685838542450e-01
4 17 9.05318601482751339e-01
5 17 8.82855197852925433e-01
6 17 8.64884474949064730e-01
7 17 8.51406432771169119e-01
8 17 8.42421071319238823e-01
9 17 8.37928390593273731e-01
10 17 8.37928390593273731e-01
11 17 8.42421071319238934e-01
12 17 8.51406432771169341e-01
13 17 8.64884474949064952e-01
14 17 8.82855197852925655e-01
15 17 9.05318601482751451e-01
16 17 9.32274685838542339e-01
17 17 9.63723450920298541e-01
18 17 9.81694173824159244e-01
19 17 9.63723450920298541e-01
20 17 9.32274685838542450e-01
21 17 9.05318601482751339e-01
22 17 8.82855197852925433e-01
23 17 8.64884474949064730e-01
24 17 8.51406432771169119e-01
25 17 8.42421071319238823e-01
26 17 8.37928390593273731e-01
27 17 8.37928390593273731e-01
28 17 8.42421071319238934e-01
29 17 8.51406432771169341e-01
30 17 8.64884474949064952e-01
31 17 8.82855197852925655e-01
32 17 9.05318601482751451e-01
33 17 9.32274685838542339e-01
34 17 9.63723450920298541e-01
35 17 9.81694173824159244e-01
36 17 9.63723450920298541e-01
37 17 9.32274685838542450e-01
38 17 9.05318601482751339e-01
39 17 8.82855197852925433e-01
40 17 8.64884474949064730e-01
41 17 8.51406432771169119e-01
42 17 8.42421071319238823e-01
43 17 8.37928390593273731e-01
44 17 8.37928390593273731e-01
45 17 8.42421071319238934e-01
46 17 8.51406432771169341e-01
47 17 8.64884474949064952e-01
48 17 8.82855197852925655e-01
49 17 9.05318601482751451e-01
50 17 9.32274685838542339e-01
51 17 9.63723450920298541e-01
52 17 9.81694173824159244e-01
53 17 9.63723450920298541e-01
54 17 9.32274685838542450e-01
55 17 9.05318601482751339e-01
56 17 8.82855197852925433e-01
57 17 8.64884474949064730e-01
58 17 8.51406432771169119e-01
59 17 8.42421071319238823e-01
60 17 8.37928390593273731e-01
61 17 8.37928390593273731e-01
62 17 8.42421071319238934e-01
63 17 8.51406432771169341e-01
64 17 8.64884474949064952e-01
65 17 8.82855197852925655e-01
66 17 9.05318601482751451e-01
67 17 9.32274685838542339e-01
68 17 9.63723450920298541e-01
69 17 9.81694173824159244e-01
1 18 1.00000000000000000e+00
2 18 9.81694173824159244e-01
3 18 9.49658978016437949e-01
4 18 9.22200238752676649e-01
5 18 8.99317956032875676e-01
6 18 8.81012129857034920e-01
7 18 8.67282760225154270e-01
8 18 8.58129847137233837e-01
9 18 8.53553390593273731e-01
10 18 8.53553390593273731e-01
11 18 8.58129847137233948e-01
12 18 8.67282760225154492e-01
13 18 8.81012129857035142e-01
14 18 8.99317956032875898e-01
15 18 9.22200238752676760e-01
16 18 9.49658978016437838e-01
17 18 9.81694173824159244e-01
18 18 1.00000000000000000e+00
19 18 9.81694173824159244e-01
20 18 9.49658978016437949e-01
21 18 9.22200238752676649e-01
22 18 8.99317956032875676e-01
23 18 8.81012129857034920e-01
24 18 8.67282760225154270e-01
25 18 8.58129847137233837e-01
26 18 8.53553390593273731e-01
27 18 8.53553390593273731e-01
28 18 8.58129847137233948e-01
29 18 8.67282760225154492e-01
30 18 8.81012129857035142e-01
31 18 8.99317956032875898e-01
32 18 9.22200238752676760e-01
33 18 9.49658978016437838e-01
34 18 9.81694173824159244e-01
35 18 1.00000000000000000e+00
36 18 9.81694173824159244e-01
37 18 9.49658978016437949e-01
38 18 9.22200238752676649e-01
39 18 8.99317956032875676e-01
40 18 8.81012129857034920e-01
41 18 8.67282760225154270e-01
42 18 8.58129847137233837e-01
43 18 8.53553390593273731e-01
44 18 8.53553390593273731e-01
45 18 8.58129847137233948e-01
46 18 8.67282760225154492e-01
47 18 8.81012129857035142e-01
48 18 8.99317956032875898e-01
49 18 9.22200238752676760e-01
50 18 9.49658978016437838e-01
51 18 9.81694173824159244e-01
52 18 1.00000000000000000e+00
53 18 9.81694173824159244e-01
54 18 9.49658978016437949e-01
55 18 9.22200238752676649e-01
56 18 8.99317956032875676e-01
57 18 8.81012129857034920e-01
58 18 8.67282760225154270e-01
59 18 8.58129847137233837e-01
60 18 8.53553390593273731e-01
61 18 8.53553390593273731e-01
62 18 8.58129847137233948e-01
63 18 8.67282760225154492e-01
64 18 8.81012129857035142e-01
65 18 8.99317956032875898e-01
66 18 9.22200238752676760e-01
67 18 9.49658978016437838e-01
68 18 9.81694173824159244e-01
69 18 1.00000000000000000e+00
1 19 9.81694173824159244e-01
2 19 9.63723450920298541e-01
3 19 9.32274685838542450e-01
4 19 9.05318601482751339e-01
5 19 8.82855197852925544e-01
6 19 8.64884474949064952e-01
7 19 8.51406432771169230e-01
8 19 8.42421071319238823e-01
9 19 8.37928390593273731e-01
10 19 8.37928390593273731e-01
11 19 8.42421071319238934e-01
12 19 8.51406432771169452e-01
13 19 8.64884474949064952e-01
14 19 8.82855197852925766e-01
15 19 9.05318601482751451e-01
16 19 9.32274685838542450e-01
17 19 9.63723450920298541e-01
18 19 9.81694173824159244e-01
19 19 9.63723450920298541e-01
20 19 9.32274685838542450e-01
21 19 9.05318601482751339e-01
22 19 8.82855197852925544e-01
23 19 8.64884474949064952e-01
24 19 8.51406432771169230e-01
25 19 8.42421071319238823e-01
26 19 8.37928390593273731e-01
27 19 8.37928390593273731e-01
28 19 8.42421071319238934e-01
29 19 8.51406432771169452e-01
30 19 8.64884474949064952e-01
31 19 8.82855197852925766e-01
32 19 9.05318601482751451e-01
33 19 9.32274685838542450e-01
34 19 9.63723450920298541e-01
35 19 9.81694173824159244e-01
36 19 9.63723450920298541e-01
37 19 9.32274685838542450e-01
38 19 9.05318601482751339e-01
39 19 8.82855197852925544e-01
40 19 8.64884474949064952e-01
41 19 8.51406432771169230e-01
42 19 8.42421071319238823e-01
43 19 8.37928390593273731e-01
44 19 8.37928390593273731e-01
45 19 8.42421071319238934e-01
46 19 8.51406432771169452e-01
47 19 8.64884474949064952e-01
48 19 8.82855197852925766e-01
49 19 9.05318601482751451e-01
50 19 9.32274685838542450e-01
51 19 9.63723450920298541e-01
52 19 9.81694173824159244e-01
53 19 9.63723450920298541e-01
54 19 9.32274685838542450e-01
55 19 9.05318601482751339e-01
56 19 8.82855197852925544e-01
57 19 8.64884474949064952e-01
58 19 8.51406432771169230e-01
59 19 8.42421071319238823e-01
60 19 8.37928390593273731e-01
61 19 8.37928390593273731e-01
62 19 8.42421071319238934e-01
63 19 8.51406432771169452e-01
64 19 8.64884474949064952e-01
65 19 8.82855197852925766e-01
66 19 9.05318601482751451e-01
67 19 9.32274685838542450e-01
68 19 9.63723450920298541e-01
69 19 9.81694173824159244e-01
1 20 9.49658978016437949e-01
2 20 9.32274685838542450e-01
3 20 9.01852174527225436e-01
4 20 8.75775736260382076e-01
5 20 8.54045371038012702e-01
6 20 8.36661078860117202e-01
7 20 8.23622859726695244e-01
8 20 8.14930713637747717e-01
9 20 8.10584640593273842e-01
10 20 8.10584640593273842e-01
11 20 8.14930713637747717e-01
12 20 8.23622859726695689e-01
13 20 8.36661078860117202e-01
14 20 8.54045371038012813e-01
15 20 8.75775736260382076e-01
16 20 9.01852174527225214e-01
17 20 9.32274685838542450e-01
18 20 9.49658978016437949e-01
19 20 9.32274685838542450e-01
20 20 9.01852174527225436e-01
21 20 8.75775736260382076e-01
22 20 8.54045371038012702e-01
23 20 8.36661078860117202e-01
24 20 8.23622859726695244e-01
25 20 8.14930713637747717e-01
26 20 8.10584640593273842e-01
27 20 8.10584640593273842e-01
28 20 8.14930713637747717e-01
29 20 8.23622859726695689e-01
30 20 8.36661078860117202e-01
31 20 8.54045371038012813e-01
32 20 8.75775736260382076e-01
33 20 9.01852174527225214e-01
34 20 9.32274685838542450e-01
35 20 9.49658978016437949e-01
36 20 9.32274685838542450e-01
37 20 9.01852174527225436e-01
38 20 8.75775736260382076e-01
39 20 8.54045371038012702e-01
40 20 8.36661078860117202e-01
41 20 8.23622859726695244e-01
42 20 8.14930713637747717e-01
43 20 8.10584640593273842e-01
44 20 8.10584640593273842e-01
45 20 8.14930713637747717e-01
46 20 8.23622859726695689e-01
47 20 8.36661078860117202e-01
48 20 8.54045371038012813e-01
49 20 8.75775736260382076e-01
50 20 9.01852174527225214e-01
51 20 9.32274685838542450e-01
52 20 9.49658978016437949e-01
53 20 9.32274685838542450e-01
54 20 9.01852174527225436e-01
55 20 8.75775736260382076e-01
56 20 8.54045371038012702e-01
57 20 8.36661078860117202e-01
58 20 8.23622859726695244e-01
59 20 8.14930713637747717e-01
60 20 8.10584640593273842e-01
61 20 8.10584640593273842e-01
62 20 8.14930713637747717e-01
63 20 8.23622859726695689e-01
64 20 8.36661078860117202e-01
65 20 8.54045371038012813e-01
66 20 8.75775736260382076e-01
67 20 9.01852174527225214e-01
68 20 9.32274685838542450e-01
69 20 9.49658978016437949e-01
1 21 9.22200238752676649e-01
2 21 9.05318601482751451e-01
3 21 8.75775736260382076e-01
4 21 8.50453280355494057e-01
5 21 8.29351233768087281e-01
6 21 8.12469596498161861e-01
7 21 7.99808368545717685e-01
8 21 7.91367549910755086e-01
9 21 7.87147140593273731e-01
10 21 7.87147140593273731e-01
11 21 7.91367549910755086e-01
12 21 7.99808368545718018e-01
13 21 8.12469596498162083e-01
14 21 8.29351233768087504e-01
15 21 8.50453280355494057e-01
16 21 8.75775736260381965e-01
17 21 9.05318601482751451e-01
18 21 9.22200238752676649e-01
19 21 9.05318601482751451e-01
20 21 8.75775736260382076e-01
21 21 8.50453280355494057e-01
22 21 8.29351233768087281e-01
23 21 8.12469596498161861e-01
24 21 7.99808368545717685e-01
25 21 7.91367549910755086e-01
26 21 7.87147140593273731e-01
27 21 7.87147140593273731e-01
28 21 7.91367549910755086e-01
29 21 7.99808368545718018e-01
30 21 8.12469596498162083e-01
31 21 8.29351233768087504e-01
32 21 8.50453280355494057e-01
33 21 8.75775736260381965e-01
34 21 9.05318601482751451e-01
35 21 9.22200238752676649e-01
36 21 9.05318601482751451e-01
37 21 8.75775736260382076e-01
38 21 8.50453280355494057e-01
39 21 8.29351233768087281e-01
40 21 8.12469596498161861e-01
41 21 7.99808368545717685e-01
42 21 7.91367549910755086e-01
43 21 7.87147140593273731e-01
44 21 7.87147140593273731e-01
45 21 7.91367549910755086e-01
46 21 7.99808368545718018e-01
47 21 8.12469596498162083e-01
48 21 8.29351233768087504e-01
49 21 8.50453280355494057e-01
50 21 8.75775736260381965e-01
51 21 9.05318601482751451e-01
52 21 9.22200238752676649e-01
53 21 9.05318601482751451e-01
54 21 8.75775736260382076e-01
55 21 8.50453280355494057e-01
56 21 8.29351233768087281e-01
57 21 8.12469596498161861e-01
58 21 7.99808368545717685e-01
59 21 7.91367549910755086e-01
60 21 7.87147140593273731e-01
61 21 7.87147140593273731e-01
62 21 7.91367549910755086e-01
63 21 7.99808368545718018e-01
64 21 8.12469596498162083e-01
65 21 8.29351233768087504e-01
66 21 8.50453280355494057e-01
67 21 8.75775736260381965e-01
68 21 9.05318601482751451e-01
69 21 9.22200238752676649e-01
1 22 8.99317956032875676e-01
2 22 8.82855197852925544e-01
3 22 8.54045371038012702e-01
4 22 8.29351233768087504e-01
5 22 8.08772786043149505e-01
6 22 7.92310027863199151e-01
7 22 7.79962959228236330e-01
8 22 7.71731580138261375e-01
9 22 7.67615890593273731e-01
10 22 7.67615890593273731e-01
11 22 7.71731580138261375e-01
12 22 7.79962959228236774e-01
13 22 7.92310027863199373e-01
14 22 8.08772786043149727e-01
15 22 8.29351233768087504e-01
16 22 8.54045371038012702e-01
17 22 8.82855197852925544e-01
18 22 8.99317956032875676e-01
19 22 8.82855197852925544e-01
20 22 8.54045371038012702e-01
21 22 8.29351233768087504e-01
22 22 8.08772786043149505e-01
23 22 7.92310027863199151e-01
24 22 7.79962959228236330e-01
25 22 7.71731580138261375e-01
26 22 7.67615890593273731e-01
27 22 7.67615890593273731e-01
28 22 7.71731580138261375e-01
29 22 7.79962959228236774e-01
30 22 7.92310027863199373e-01
31 22 8.08772786043149727e-01
32 22 8.29351233768087504e-01
33 22 8.54045371038012702e-01
34 22 8.82855197852925544e-01
35 22 8.99317956032875676e-01
36 22 8.82855197852925544e-01
37 22 8.54045371038012702e-01
38 22 8.29351233768087504e-01
39 22 8.08772786043149505e-01
40 22 7.92310027863199151e-01
41 22 7.79962959228236330e-01
42 22 7.71731580138261375e-01
43 22 7.67615890593273731e-01
44 22 7.67615890593273731e-01
45 22 7.71731580138261375e-01
46 22 7.79962959228236774e-01
47 22 7.92310027863199373e-01
48 22 8.08772786043149727e-01
49 22 8.29351233768087504e-01
50 22 8.54045371038012702e-01
51 22 8.82855197852925544e-01
52 22 8.99317956032875676e-01
53 22 8.82855197852925544e-01
54 22 8.54045371038012702e-01
55 22 8.29351233768087504e-01
56 22 8.08772786043149505e-01
57 22 7.92310027863199151e-01
58 22 7.79962959228236330e-01
59 22 7.71731580138261375e-01
60 22 7.67615890593273731e-01
61 22 7.67615890593273731e-01
62 22 7.71731580138261375e-01
63 22 7.79962959228236774e-01
64 22 7.92310027863199373e-01
65 22 8.08772786043149727e-01
66 22 8.29351233768087504e-01
67 22 8.54045371038012702e-01
68 22 8.82855197852925544e-01
69 22 8.99317956032875676e-01
1 23 8.81012129857034920e-01
2 23 8.64884474949064841e-01
3 23 8.36661078860117202e-01
4 23 8.12469596498162083e-01
5 23 7.92310027863199373e-01
6 23 7.76182372955229072e-01
7 23 7.64086631774251179e-01
8 23 7.56022804320266362e-01
9 23 7.51990890593273731e-01
10 23 7.51990890593273731e-01
11 23 7.56022804320266362e-01
12 23 7.64086631774251734e-01
13 23 7.76182372955229294e-01
14 23 7.92310027863199373e-01
15 23 8.12469596498162083e-01
16 23 8.36661078860117202e-01
17 23 8.64884474949064841e-01
18 23 8.81012129857034920e-01
19 23 8.64884474949064841e-01
20 23 8.36661078860117202e-01
21 23 8.12469596498162083e-01
22 23 7.92310027863199373e-01
23 23 7.76182372955229072e-01
24 23 7.64086631774251179e-01
25 23 7.56022804320266362e-01
26 23 7.51990890593273731e-01
27 23 7.51990890593273731e-01
28 23 7.56022804320266362e-01
29 23 7.64086631774251734e-01
30 23 7.76182372955229294e-01
31 23 7.92310027863199373e-01
32 23 8.12469596498162083e-01
33 23 8.36661078860117202e-01
34 23 8.64884474949064841e-01
35 23 8.81012129857034920e-01
36 23 8.64884474949064841e-01
37 23 8.36661078860117202e-01
38 23 8.12469596498162083e-01
39 23 7.92310027863199373e-01
40 23 7.76182372955229072e-01
41 23 7.64086631774251179e-01
42 23 7.56022804320266362e-01
43 23 7.51990890593273731e-01
44 23 7.51990890593273731e-01
45 23 7.56022804320266362e-01
46 23 7.64086631774251734e-01
47 23 7.76182372955229294e-01
48 23 7.92310027863199373e-01
49 23 8.12469596498162083e-01
50 23 8.36661078860117202e-01
51 23 8.64884474949064841e-01
52 23 8.81012129857034920e-01
53 23 8.64884474949064841e-01
54 23 8.36661078860117202e-01
55 23 8.12469596498162083e-01
56 23 7.92310027863199373e-01
57 23 7.76182372955229072e-01
58 23 7.64086631774251179e-01
59 23 7.56022804320266362e-01
60 23 7.51990890593273731e-01
61 23 7.51990890593273731e-01
62 23 7.56022804320266362e-01
63 23 7.64086631774251734e-01
64 23 7.76182372955229294e-01
65 23 7.92310027863199373e-01
66 23 8.12469596498162083e-01
67 23 8.36661078860117202e-01
68 23 8.64884474949064841e-01
69 23 8.81012129857034920e-01
1 24 8.67282760225154270e-01
2 24 8.51406432771169341e-01
3 24 8.23622859726695467e-01
4 24 7.99808368545718018e-01
5 24 7.79962959228236552e-01
6 24 7.64086631774251512e-01
7 24 7.52179386183762344e-01
8 24 7.44241222456770046e-01
9 24 7.40272140593273731e-01
10 24 7.40272140593273731e-01
11 24 7.44241222456770046e-01
12 24 7.52179386183762788e-01
13 24 7.64086631774251623e-01
14 24 7.79962959228236552e-01
15 24 7.99808368545718018e-01
16 24 8.23622859726695467e-01
17 24 8.51406432771169341e-01
18 24 8.67282760225154270e-01
19 24 8.51406432771169341e-01
20 24 8.23622859726695467e-01
21 24 7.99808368545718018e-01
22 24 7.79962959228236552e-01
23 24 7.64086631774251512e-01
24 24 7.52179386183762344e-01
25 24 7.44241222456770046e-01
26 24 7.40272140593273731e-01
27 24 7.40272140593273731e-01
28 24 7.44241222456770046e-01
29 24 7.52179386183762788e-01
30 24 7.64086631774251623e-01
31 24 7.79962959228236552e-01
32 24 7.99808368545718018e-01
33 24 8.23622859726695467e-01
34 24 8.51406432771169341e-01
35 24 8.67282760225154270e-01
36 24 8.51406432771169341e-01
37 24 8.23622859726695467e-01
38 24 7.99808368545718018e-01
39 24 7.79962959228236552e-01
40 24 7.64086631774251512e-01
41 24 7.52179386183762344e-01
42 24 7.44241222456770046e-01
43 24 7.40272140593273731e-01
44 24 7.40272140593273731e-01
45 24 7.44241222456770046e-01
46 24 7.52179386183762788e-01
47 24 7.64086631774251623e-01
48 24 7.79962959228236552e-01
49 24 7.99808368545718018e-01
50 24 8.23622859726695467e-01
51 24 8.51406432771169341e-01
52 24 8.67282760225154270e-01
53 24 8.51406432771169341e-01
54 24 8.23622859726695467e-01
55 24 7.99808368545718018e-01
56 24 7.79962959228236552e-01
57 24 7.64086631774251512e-01
58 24 7.52179386183762344e-01
59 24 7.44241222456770046e-01
60 24 7.40272140593273731e-01
61 24 7.40272140593273731e-01
62 24 7.44241222456770046e-01
63 24 7.52179386183762788e-01
64 24 7.64086631774251623e-01
65 24 7.79962959228236552e-01
66 24 7.99808368545718018e-01
67 24 8.23622859726695467e-01
68 24 8.51406432771169341e-01
69 24 8.67282760225154270e-01
1 25 8.58129847137233837e-01
2 25 8.42421071319239045e-01
3 25 8.14930713637747717e-01
4 25 7.91367549910755308e-01
5 25 7.71731580138261375e-01
6 25 7.56022804320266473e-01
7 25 7.44241222456769824e-01
8 25 7.36386834547772651e-01
9 25 7.32459640593273620e-01
10 25 7.32459640593273620e-01
11 25 7.36386834547772651e-01
12 25 7.44241222456770268e-01
13 25 7.56022804320266473e-01
14 25 7.71731580138261486e-01
15 25 7.91367549910755308e-01
16 25 8.14930713637747717e-01
17 25 8.42421071319239045e-01
18 25 8.58129847137233837e-01
19 25 8.42421071319239045e-01
20 25 8.14930713637747717e-01
21 25 7.91367549910755308e-01
22 25 7.71731580138261375e-01
23 25 7.56022804320266473e-01
24 25 7.44241222456769824e-01
25 25 7.36386834547772651e-01
26 25 7.32459640593273620e-01
27 25 7.32459640593273620e-01
28 25 7.36386834547772651e-01
29 25 7.44241222456770268e-01
30 25 7.56022804320266473e-01
31 25 7.71731580138261486e-01
32 25 7.91367549910755308e-01
33 25 8.14930713637747717e-01
34 25 8.42421071319239045e-01
35 25 8.58129847137233837e-01
36 25 8.42421071319239045e-01
37 25 8.14930713637747717e-01
38 25 7.91367549910755308e-01
39 25 7.71731580138261375e-01
40 25 7.56022804320266473e-01
41 25 7.44241222456769824e-01
42 25 7.36386834547772651e-01
43 25 7.32459640593273620e-01
44 25 7.32459640593273620e-01
45 25 7.36386834547772651e-01
46 25 7.44241222456770268e-01
47 25 7.56022804320266473e-01
48 25 7.71731580138261486e-01
49 25 7.91367549910755308e-01
50 25 8.14930713637747717e-01
51 25 8.42421071319239045e-01
52 25 8.58129847137233837e-01
53 25 8.42421071319239045e-01
54 25 8.14930713637747717e-01
55 25 7.91367549910755308e-01
56 25 7.71731580138261375e-01
57 25 7.56022804320266473e-01
58 25 7.44241222456769824e-01
59 25 7.36386834547772651e-01
60 25 7.32459640593273620e-01
61 25 7.32459640593273620e-01
62 25 7.36386834547772651e-01
63 25 7.44241222456770268e-01
64 25 7.56022804320266473e-01
65 25 7.71731580138261486e-01
66 25 7.91367549910755308e-01
67 25 8.14930713637747717e-01
68 25 8.42421071319239045e-01
69 25 8.58129847137233837e-01
1 26 8.53553390593273731e-01
2 26 8.37928390593273953e-01
3 26 8.10584640593273953e-01
4 26 7.87147140593273953e-01
5 26 7.67615890593273842e-01
6 26 7.51990890593273953e-01
7 26 7.40272140593273509e-01
8 26 7.32459640593273953e-01
9 26 7.28553390593273731e-01
10 26 7.28553390593273731e-01
11 26 7.32459640593273953e-01
12 26 7.40272140593273953e-01
13 26 7.51990890593273953e-01
14 26 7.67615890593273953e-01
15 26 7.87147140593273953e-01
16 26 8.10584640593273953e-01
17 26 8.37928390593273953e-01
18 26 8.53553390593273731e-01
19 26 8.37928390593273953e-01
20 26 8.10584640593273953e-01
21 26 7.87147140593273953e-01
22 26 7.67615890593273842e-01
23 26 7.51990890593273953e-01
24 26 7.40272140593273509e-01
25 26 7.32459640593273953e-01
26 26 7.28553390593273731e-01
27 26 7.28553390593273731e-01
28 26 7.32459640593273953e-01
29 26 7.40272140593273953e-01
30 26 7.51990890593273953e-01
31 26 7.67615890593273953e-01
32 26 7.87147140593273953e-01
33 26 8.10584640593273953e-01
34 26 8.37928390593273953e-01
35 26 8.53553390593273731e-01
36 26 8.37928390593273953e-01
37 26 8.10584640593273953e-01
38 26 7.87147140593273953e-01
39 26 7.67615890593273842e-01
40 26 7.51990890593273953e-01
41 26 7.40272140593273509e-01
42 26 7.32459640593273953e-01
43 26 7.28553390593273731e-01
44 26 7.28553390593273731e-01
45 26 7.32459640593273953e-01
46 26 7.40272140593273953e-01
47 26 7.51990890593273953e-01
48 26 7.67615890593273953e-01
49 26 7.87147140593273953e-01
50 26 8.10584640593273953e-01
51 26 8.37928390593273953e-01
52 26 8.53553390593273731e-01
53 26 8.37928390593273953e-01
54 26 8.10584640593273953e-01
55 26 7.87147140593273953e-01
56 26 7.67615890593273842e-01
57 26 7.51990890593273953e-01
58 26 7.40272140593273509e-01
59 26 7.32459640593273953e-01
60 26 7.28553390593273731e-01
61 26 7.28553390593273731e-01
62 26 7.32459640593273953e-01
63 26 7.40272140593273953e-01
64 26 7.51990890593273953e-01
65 26 7.67615890593273953e-01
66 26 7.87147140593273953e-01
67 26 8.10584640593273953e-01
68 26 8.37928390593273953e-01
69 26 8.53553390593273731e-01
1 27 8.53553390593273731e-01
2 27 8.37928390593273953e-01
3 27 8.10584640593273953e-01
4 27 7.87147140593273953e-01
5 27 7.67615890593273731e-01
6 27 7.51990890593273953e-01
7 27 7.40272140593273620e-01
8 27 7.32459640593273953e-01
9 27 7.28553390593273842e-01
10 27 7.28553390593273842e-01
11 27 7.32459640593273953e-01
12 27 7.40272140593273953e-01
13 27 7.51990890593274064e-01
14 27 7.67615890593273953e-01
15 27 7.87147140593274064e-01
16 27 8.10584640593273953e-01
17 27 8.37928390593273953e-01
18 27 8.53553390593273731e-01
19 27 8.37928390593273953e-01
20 27 8.10584640593273953e-01
21 27 7.87147140593273953e-01
22 27 7.67615890593273731e-01
23 27 7.51990890593273953e-01
24 27 7.40272140593273620e-01
25 27 7.32459640593273953e-01
26 27 7.28553390593273842e-01
27 27 7.28553390593273842e-01
28 27 7.32459640593273953e-01
29 27 7.40272140593273953e-01
30 27 7.51990890593274064e-01
31 27 7.67615890593273953e-01
32 27 7.87147140593274064e-01
33 27 8.10584640593273953e-01
34 27 8.37928390593273953e-01
35 27 8.53553390593273731e-01
36 27 8.37928390593273953e-01
37 27 8.10584640593273953e-01
38 27 7.87147140593273953e-01
39 27 7.67615890593273731e-01
40 27 7.51990890593273953e-01
41 27 7.40272140593273620e-01
42 27 7.32459640593273953e-01
43 27 7.28553390593273842e-01
44 27 7.28553390593273842e-01
45 27 7.32459640593273953e-01
46 27 7.40272140593273953e-01
47 27 7.51990890593274064e-01
48 27 7.67615890593273953e-01
49 27 7.87147140593274064e-01
50 27 8.10584640593273953e-01
51 27 8.37928390593273953e-01
52 27 8.53553390593273731e-01
53 27 8.37928390593273953e-01
54 27 8.10584640593273953e-01
55 27 7.87147140593273953e-01
56 27 7.67615890593273731e-01
57 27 7.51990890593273953e-01
58 27 7.40272140593273620e-01
59 27 7.32459640593273953e-01
60 27 7.28553390593273842e-01
61 27 7.28553390593273842e-01
62 27 7.32459640593273953e-01
63 27 7.40272140593273953e-01
64 27 7.51990890593274064e-01
65 27 7.67615890593273953e-01
66 27 7.87147140593274064e-01
67 27 8.10584640593273953e-01
68 27 8.37928390593273953e-01
69 27 8.53553390593273731e-01
1 28 8.58129847137233948e-01
2 28 8.42421071319239045e-01
3 28 8.14930713637747828e-01
4 28 7.91367549910755197e-01
5 28 7.71731580138261264e-01
6 28 7.56022804320266362e-01
7 28 7.44241222456769824e-01
8 28 7.36386834547772651e-01
9 28 7.32459640593273842e-01
10 28 7.32459640593273842e-01
11 28 7.36386834547772651e-01
12 28 7.44241222456770157e-01
13 28 7.56022804320266473e-01
14 28 7.71731580138261486e-01
15 28 7.91367549910755419e-01
16 28 8.14930713637747828e-01
17 28 8.42421071319239045e-01
18 28 8.58129847137233948e-01
19 28 8.42421071319239045e-01
20 28 8.14930713637747828e-01
21 28 7.91367549910755197e-01
22 28 7.71731580138261264e-01
23 28 7.56022804320266362e-01
24 28 7.44241222456769824e-01
25 28 7.36386834547772651e-01
26 28 7.32459640593273842e-01
27 28 7.32459640593273842e-01
28 28 7.36386834547772651e-01
29 28 7.44241222456770157e-01
30 28 7.56022804320266473e-01
31 28 7.71731580138261486e-01
32 28 7.91367549910755419e-01
33 28 8.14930713637747828e-01
34 28 8.42421071319239045e-01
35 28 8.58129847137233948e-01
36 28 8.42421071319239045e-01
37 28 8.14930713637747828e-01
38 28 7.91367549910755197e-01
39 28 7.71731580138261264e-01
40 28 7.56022804320266362e-01
41 28 7.44241222456769824e-01
42 28 7.36386834547772651e-01
43 28 7.32459640593273842e-01
44 28 7.32459640593273842e-01
45 28 7.36386834547772651e-01
46 28 7.44241222456770157e-01
47 28 7.56022804320266473e-01
48 28 7.71731580138261486e-01
49 28 7.91367549910755419e-01
50 28 8.14930713637747828e-01
51 28 8.42421071319239045e-01
52 28 8.58129847137233948e-01
53 28 8.42421071319239045e-01
54 28 8.14930713637747828e-01
55 28 7.91367549910755197e-01
56 28 7.71731580138261264e-01
57 28 7.56022804320266362e-01
58 28 7.44241222456769824e-01
59 28 7.36386834547772651e-01
60 28 7.32459640593273842e-01
61 28 7.32459640593273842e-01
62 28 7.36386834547772651e-01
63 28 7.44241222456770157e-01
64 28 7.56022804320266473e-01
65 28 7.71731580138261486e-01
66 28 7.91367549910755419e-01
67 28 8.14930713637747828e-01
68 28 8.42421071319239045e-01
69 28 8.58129847137233948e-01
1 29 8.67282760225154492e-01
2 29 8.51406432771169452e-01
3 29 8.23622859726695578e-01
4 29 7.99808368545717907e-01
5 29 7.79962959228236441e-01
6 29 7.64086631774251512e-01
7 29 7.52179386183762455e-01
8 29 7.44241222456770157e-01
9 29 7.40272140593273842e-01
10 29 7.40272140593273842e-01
11 29 7.44241222456770157e-01
12 29 7.52179386183762677e-01
13 29 7.64086631774251623e-01
14 29 7.79962959228236663e-01
15 29 7.99808368545718129e-01
16 29 8.23622859726695578e-01
17 29 8.51406432771169452e-01
18 29 8.67282760225154492e-01
19 29 8.51406432771169452e-01
20 29 8.23622859726695578e-01
21 29 7.99808368545717907e-01
22 29 7.79962959228236441e-01
23 29 7.64086631774251512e-01
24 29 7.52179386183762455e-01
25 29 7.44241222456770157e-01
26 29 7.40272140593273842e-01
27 29 7.40272140593273842e-01
28 29 7.44241222456770157e-01
29 29 7.52179386183762677e-01
30 29 7.64086631774251623e-01
31 29 7.79962959228236663e-01
32 29 7.99808368545718129e-01
33 29 8.23622859726695578e-01
34 29 8.51406432771169452e-01
35 29 8.67282760225154492e-01
36 29 8.51406432771169452e-01
37 29 8.23622859726695578e-01
38 29 7.99808368545717907e-01
39 29 7.79962959228236441e-01
40 29 7.64086631774251512e-01
41 29 7.52179386183762455e-01
42 29 7.44241222456770157e-01
43 29 7.40272140593273842e-01
44 29 7.40272140593273842e-01
45 29 7.44241222456770157e-01
46 29 7.52179386183762677e-01
47 29 7.64086631774251623e-01
48 29 7.79962959228236663e-01
49 29 7.99808368545718129e-01
50 29 8.23622859726695578e-01
51 29 8.51406432771169452e-01
52 29 8.67282760225154492e-01
53 29 8.51406432771169452e-01
54 29 8.23622859726695578e-01
55 29 7.99808368545717907e-01
56 29 7.79962959228236441e-01
57 29 7.64086631774251512e-01
58 29 7.52179386183762455e-01
59 29 7.44241222456770157e-01
60 29 7.40272140593273842e-01
61 29 7.40272140593273842e-01
62 29 7.44241222456770157e-01
63 29 7.52179386183762677e-01
64 29 7.64086631774251623e-01
65 29 7.79962959228236663e-01
66 29 7.99808368545718129e-01
67 29 8.23622859726695578e-01
68 29 8.51406432771169452e-01
69 29 8.67282760225154492e-01
1 30 8.81012129857035142e-01
2 30 8.64884474949064952e-01
3 30 8.36661078860117202e-01
4 30 8.12469596498161861e-01
5 30 7.92310027863199151e-01
6 30 7.76182372955229183e-01
7 30 7.64086631774251290e-01
8 30 7.56022804320266362e-01
9 30 7.51990890593273842e-01
10 30 7.51990890593273842e-01
11 30 7.56022804320266362e-01
12 30 7.64086631774251401e-01
13 30 7.76182372955229294e-01
14 30 7.92310027863199373e-01
15 30 8.12469596498162083e-01
16 30 8.36661078860117202e-01
17 30 8.64884474949064952e-01
18 30 8.81012129857035142e-01
19 30 8.64884474949064952e-01
20 30 8.36661078860117202e-01
21 30 8.12469596498161861e-01
22 30 7.92310027863199151e-01
23 30 7.76182372955229183e-01
24 30 7.64086631774251290e-01
25 30 7.56022804320266362e-01
26 30 7.51990890593273842e-01
27 30 7.51990890593273842e-01
28 30 7.56022804320266362e-01
29 30 7.64086631774251401e-01
30 30 7.76182372955229294e-01
31 30 7.92310027863199373e-01
32 30 8.12469596498162083e-01
33 30 8.36661078860117202e-01
34 30 8.64884474949064952e-01
35 30 8.81012129857035142e-01
36 30 8.64884474949064952e-01
37 30 8.36661078860117202e-01
38 30 8.12469596498161861e-01
39 30 7.92310027863199151e-01
40 30 7.76182372955229183e-01
41 30 7.64086631774251290e-01
42 30 7.56022804320266362e-01
43 30 7.51990890593273842e-01
44 30 7.51990890593273842e-01
45 30 7.56022804320266362e-01
46 30 7.64086631774251401e-01
47 30 7.76182372955229294e-01
48 30 7.92310027863199373e-01
49 30 8.12469596498162083e-01
50 30 8.36661078860117202e-01
51 30 8.64884474949064952e-01
52 30 8.81012129857035142e-01
53 30 8.64884474949064952e-01
54 30 8.36661078860117202e-01
55 30 8.12469596498161861e-01
56 30 7.92310027863199151e-01
57 30 7.76182372955229183e-01
58 30 7.64086631774251290e-01
59 30 7.56022804320266362e-01
60 30 7.51990890593273842e-01
61 30 7.51990890593273842e-01
62 30 7.56022804320266362e-01
63 30 7.64086631774251401e-01
64 30 7.76182372955229294e-01
65 30 7.92310027863199373e-01
66 30 8.12469596498162083e-01
67 30 8.36661078860117202e-01
68 30 8.64884474949064952e-01
69 30 8.81012129857035142e-01
1 31 8.99317956032875898e-01
2 31 8.82855197852925544e-01
3 31 8.54045371038012702e-01
4 31 8.29351233768087281e-01
5 31 8.08772786043149394e-01
6 31 7.92310027863199262e-01
7 31 7.79962959228236330e-01
8 31 7.71731580138261375e-01
9 31 7.67615890593273842e-01
10 31 7.67615890593273842e-01
11 31 7.71731580138261375e-01
12 31 7.79962959228236441e-01
13 31 7.92310027863199373e-01
14 31 8.08772786043149616e-01
15 31 8.29351233768087392e-01
16 31 8.54045371038012702e-01
17 31 8.82855197852925544e-01
18 31 8.99317956032875898e-01
19 31 8.82855197852925544e-01
20 31 8.54045371038012702e-01
21 31 8.29351233768087281e-01
22 31 8.08772786043149394e-01
23 31 7.92310027863199262e-01
24 31 7.79962959228236330e-01
25 31 7.71731580138261375e-01
26 31 7.67615890593273842e-01
27 31 7.67615890593273842e-01
28 31 7.71731580138261375e-01
29 31 7.79962959228236441e-01
30 31 7.92310027863199373e-01
31 31 8.08772786043149616e-01
32 31 8.29351233768087392e-01
33 31 8.54045371038012702e-01
34 31 8.82855197852925544e-01
35 31 8.99317956032875898e-01
36 31 8.82855197852925544e-01
37 31 8.54045371038012702e-01
38 31 8.29351233768087281e-01
39 31 8.08772786043149394e-01
40 31 7.92310027863199262e-01
41 31 7.79962959228236330e-01
42 31 7.71731580138261375e-01
43 31 7.67615890593273842e-01
44 31 7.67615890593273842e-01
45 31 7.71731580138261375e-01
46 31 7.79962959228236441e-01
47 31 7.92310027863199373e-01
48 31 8.08772786043149616e-01
49 31 8.29351233768087392e-01
50 31 8.54045371038012702e-01
51 31 8.82855197852925544e-01
52 31 8.99317956032875898e-01
53 31 8.82855197852925544e-01
54 31 8.54045371038012702e-01
55 31 8.29351233768087281e-01
56 31 8.08772786043149394e-01
57 31 7.92310027863199262e-01
58 31 7.79962959228236330e-01
59 31 7.71731580138261375e-01
60 31 7.67615890593273842e-01
61 31 7.67615890593273842e-01
62 31 7.71731580138261375e-01
63 31 7.79962959228236441e-01
64 31 7.92310027863199373e-01
65 31 8.08772786043149616e-01
66 31 8.29351233768087392e-01
67 31 8.54045371038012702e-01
68 31 8.82855197852925544e-01
69 31 8.99317956032875898e-01
1 32 9.22200238752676760e-01
2 32 9.05318601482751339e-01
3 32 8.75775736260381965e-01
4 32 8.50453280355493946e-01
5 32 8.29351233768087170e-01
6 32 8.12469596498161861e-01
7 32 7.99808368545717685e-01
8 32 7.91367549910755086e-01
9 32 7.87147140593273842e-01
10 32 7.87147140593273842e-01
11 32 7.91367549910755086e-01
12 32 7.99808368545717796e-01
13 32 8.12469596498161972e-01
14 32 8.29351233768087392e-01
15 32 8.50453280355494057e-01
16 32 8.75775736260381965e-01
17 32 9.05318601482751339e-01
18 32 9.22200238752676760e-01
19 32 9.05318601482751339e-01
20 32 8.75775736260381965e-01
21 32 8.50453280355493946e-01
22 32 8.29351233768087170e-01
23 32 8.12469596498161861e-01
24 32 7.99808368545717685e-01
25 32 7.91367549910755086e-01
26 32 7.87147140593273842e-01
27 32 7.87147140593273842e-01
28 32 7.91367549910755086e-01
29 32 7.99808368545717796e-01
30 32 8.12469596498161972e-01
31 32 8.29351233768087392e-01
32 32 8.50453280355494057e-01
33 32 8.75775736260381965e-01
34 32 9.05318601482751339e-01
35 32 9.22200238752676760e-01
36 32 9.05318601482751339e-01
37 32 8.75775736260381965e-01
38 32 8.50453280355493946e-01
39 32 8.29351233768087170e-01
40 32 8.12469596498161861e-01
41 32 7.99808368545717685e-01
42 32 7.91367549910755086e-01
43 32 7.87147140593273842e-01
44 32 7.87147140593273842e-01
45 32 7.91367549910755086e-01
46 32 7.99808368545717796e-01
47 32 8.12469596498161972e-01
48 32 8.29351233768087392e-01
49 32 8.50453280355494057e-01
50 32 8.75775736260381965e-01
51 32 9.05318601482751339e-01
52 32 9.22200238752676760e-01
53 32 9.05318601482751339e-01
54 32 8.75775736260381965e-01
55 32 8.50453280355493946e-01
56 32 8.29351233768087170e-01
57 32 8.12469596498161861e-01
58 32 7.99808368545717685e-01
59 32 7.91367549910755086e-01
60 32 7.87147140593273842e-01
61 32 7.87147140593273842e-01
62 32 7.91367549910755086e-01
63 32 7.99808368545717796e-01
64 32 8.12469596498161972e-01
65 32 8.29351233768087392e-01
66 32 8.50453280355494057e-01
67 32 8.75775736260381965e-01
68 32 9.05318601482751339e-01
69 32 9.22200238752676760e-01
1 33 9.49658978016437838e-01
2 33 9.32274685838542339e-01
3 33 9.01852174527225214e-01
4 33 8.75775736260381965e-01
5 33 8.54045371038012480e-01
6 33 8.36661078860116980e-01
7 33 8.23622859726695244e-01
8 33 8.14930713637747606e-01
9 33 8.10584640593273731e-01
10 33 8.10584640593273731e-01
11 33 8.14930713637747606e-01
12 33 8.23622859726695467e-01
13 33 8.36661078860117202e-01
14 33 8.54045371038012702e-01
15 33 8.75775736260382076e-01
16 33 9.01852174527225214e-01
17 33 9.32274685838542339e-01
18 33 9.49658978016437838e-01
19 33 9.32274685838542339e-01
20 33 9.01852174527225214e-01
21 33 8.75775736260381965e-01
22 33 8.54045371038012480e-01
23 33 8.36661078860116980e-01
24 33 8.23622859726695244e-01
25 33 8.14930713637747606e-01
26 33 8.10584640593273731e-01
27 33 8.10584640593273731e-01
28 33 8.14930713637747606e-01
29 33 8.23622859726695467e-01
30 33 8.36661078860117202e-01
31 33 8.54045371038012702e-01
32 33 8.75775736260382076e-01
33 33 9.01852174527225214e-01
34 33 9.32274685838542339e-01
35 33 9.49658978016437838e-01
36 33 9.32274685838542339e-01
37 33 9.01852174527225214e-01
38 33 8.75775736260381965e-01
39 33 8.54045371038012480e-01
40 33 8.36661078860116980e-01
41 33 8.23622859726695244e-01
42 33 8.14930713637747606e-01
43 33 8.10584640593273731e-01
44 33 8.10584640593273731e-01
45 33 8.14930713637747606e-01
46 33 8.23622859726695467e-01
47 33 8.36661078860117202e-01
48 33 8.54045371038012702e-01
49 33 8.75775736260382076e-01
50 33 9.01852174527225214e-01
51 33 9.32274685838542339e-01
52 33 9.49658978016437838e-01
53 33 9.32274685838542339e-01
54 33 9.01852174527225214e-01
55 33 8.75775736260381965e-01
56 33 8.54045371038012480e-01
57 33 8.36661078860116980e-01
58 33 8.23622859726695244e-01
59 33 8.14930713637747606e-01
60 33 8.10584640593273731e-01
61 33 8.10584640593273731e-01
62 33 8.14930713637747606e-01
63 33 8.23622859726695467e-01
64 33 8.36661078860117202e-01
65 33 8.54045371038012702e-01
66 33 8.75775736260382076e-01
67 33 9.01852174527225214e-01
68 33 9.32274685838542339e-01
69 33 9.49658978016437838e-01
1 34 9.81694173824159244e-01
2 34 9.63723450920298541e-01
3 34 9.32274685838542450e-01
4 34 9.05318601482751339e-01
5 34 8.82855197852925433e-01
6 34 8.64884474949064730e-01
7 34 8.51406432771169119e-01
8 34 8.42421071319238823e-01
9 34 8.37928390593273731e-01
10 34 8.37928390593273731e-01
11 34 8.42421071319238934e-01
12 34 8.51406432771169341e-01
13 34 8.64884474949064952e-01
14 34 8.82855197852925655e-01
15 34 9.05318601482751451e-01
16 34 9.32274685838542339e-01
17 34 9.63723450920298541e-01
18 34 9.81694173824159244e-01
19 34 9.63723450920298541e-01
20 34 9.32274685838542450e-01
21 34 9.05318601482751339e-01
22 34 8.82855197852925433e-01
23 34 8.64884474949064730e-01
24 34 8.51406432771169119e-01
25 34 8.42421071319238823e-01
26 34 8.37928390593273731e-01
27 34 8.37928390593273731e-01
28 34 8.42421071319238934e-01
29 34 8.51406432771169341e-01
30 34 8.64884474949064952e-01
31 34 8.82855197852925655e-01
32 34 9.05318601482751451e-01
33 34 9.32274685838542339e-01
34 34 9.63723450920298541e-01
35 34 9.81694173824159244e-01
36 34 9.63723450920298541e-01
37 34 9.32274685838542450e-01
38 34 9.05318601482751339e-01
39 34 8.82855197852925433e-01
40 34 8.64884474949064730e-01
41 34 8.51406432771169119e-01
42 34 8.42421071319238823e-01
43 34 8.37928390593273731e-01
44 34 8.37928390593273731e-01
45 34 8.42421071319238934e-01
46 34 8.51406432771169341e-01
47 34 8.64884474949064952e-01
48 34 8.82855197852925655e-01
49 34 9.05318601482751451e-01
50 34 9.32274685838542339e-01
51 34 9.63723450920298541e-01
52 34 9.81694173824159244e-01
53 34 9.63723450920298541e-01
54 34 9.32274685838542450e-01
55 34 9.05318601482751339e-01
56 34 8.82855197852925433e-01
57 34 8.64884474949064730e-01
58 34 8.51406432771169119e-01
59 34 8.42421071319238823e-01
60 34 8.37928390593273731e-01
61 34 8.37928390593273731e-01
62 34 8.42421071319238934e-01
63 34 8.51406432771169341e-01
64 34 8.64884474949064952e-01
65 34 8.82855197852925655e-01
66 34 9.05318601482751451e-01
67 34 9.32274685838542339e-01
68 34 9.63723450920298541e-01
69 34 9.81694173824159244e-01
1 35 1.00000000000000000e+00
2 35 9.81694173824159244e-01
3 35 9.49658978016437949e-01
4 35 9.22200238752676649e-01
5 35 8.99317956032875676e-01
6 35 8.81012129857034920e-01
7 35 8.67282760225154270e-01
8 35 8.58129847137233837e-01
9 35 8.53553390593273731e-01
10 35 8.53553390593273731e-01
11 35 8.58129847137233948e-01
12 35 8.67282760225154492e-01
13 35 8.81012129857035142e-01
14 35 8.99317956032875898e-01
15 35 9.22200238752676760e-01
16 35 9.49658978016437838e-01
17 35 9.81694173824159244e-01
18 35 1.00000000000000000e+00
19 35 9.81694173824159244e-01
20 35 9.49658978016437949e-01
21 35 9.22200238752676649e-01
22 35 8.99317956032875676e-01
23 35 8.81012129857034920e-01
24 35 8.67282760225154270e-01
25 35 8.58129847137233837e-01
26 35 8.53553390593273731e-01
27 35 8.53553390593273731e-01
28 35 8.58129847137233948e-01
29 35 8.67282760225154492e-01
30 35 8.81012129857035142e-01
31 35 8.99317956032875898e-01
32 35 9.22200238752676760e-01
33 35 9.49658978016437838e-01
34 35 9.81694173824159244e-01
35 35 1.00000000000000000e+00
36 35 9.81694173824159244e-01
37 35 9.49658978016437949e-01
38 35 9.22200238752676649e-01
39 35 8.99317956032875676e-01
40 35 8.81012129857034920e-01
41 35 8.67282760225154270e-01
42 35 8.58129847137233837e-01
43 35 8.53553390593273731e-01
44 35 8.53553390593273731e-01
45 35 8.58129847137233948e-01
46 35 8.67282760225154492e-01
47 35 8.81012129857035142e-01
48 35 8.99317956032875898e-01
49 35 9.22200238752676760e-01
50 35 9.49658978016437838e-01
51 35 9.81694173824159244e-01
52 35 1.00000000000000000e+00
53 35 9.81694173824159244e-01
54 35 9.49658978016437949e-01
55 35 9.22200238752676649e-01
56 35 8.99317956032875676e-01
57 35 8.81012129857034920e-01
58 35 8.67282760225154270e-01
59 35 8.58129847137233837e-01
60 35 8.53553390593273731e-01
61 35 8.53553390593273731e-01
62 35 8.58129847137233948e-01
63 35 8.67282760225154492e-01
64 35 8.81012129857035142e-01
65 35 8.99317956032875898e-01
66 35 9.22200238752676760e-01
67 35 9.49658978016437838e-01
68 35 9.81694173824159244e-01
69 35 1.00000000000000000e+00
1 36 9.81694173824159244e-01
2 36 9.63723450920298541e-01
3 36 9.32274685838542450e-01
4 36 9.05318601482751339e-01
5 36 8.82855197852925544e-01
6 36 8.64884474949064952e-01
7 36 8.51406432771169230e-01
8 36 8.42421071319238823e-01
9 36 8.37928390593273731e-01
10 36 8.37928390593273731e-01
11 36 8.42421071319238934e-01
12 36 8.51406432771169452e-01
13 36 8.64884474949064952e-01
14 36 8.82855197852925766e-01
15 36 9.05318601482751451e-01
16 36 9.32274685838542450e-01
17 36 9.63723450920298541e-01
18 36 9.81694173824159244e-01
19 36 9.63723450920298541e-01
20 36 9.32274685838542450e-01
21 36 9.05318601482751339e-01
22 36 8.82855197852925544e-01
23 36 8.64884474949064952e-01
24 36 8.51406432771169230e-01
25 36 8.42421071319238823e-01
26 36 8.37928390593273731e-01
27 36 8.37928390593273731e-01
28 36 8.42421071319238934e-01
29 36 8.51406432771169452e-01
30 36 8.64884474949064952e-01
31 36 8.82855197852925766e-01
32 36 9.05318601482751451e-01
33 36 9.32274685838542450e-01
34 36 9.63723450920298541e-01
35 36 9.81694173824159244e-01
36 36 9.63723450920298541e-01
37 36 9.32274685838542450e-01
38 36 9.05318601482751339e-01
39 36 8.82855197852925544e-01
40 36 8.64884474949064952e-01
41 36 8.51406432771169230e-01
42 36 8.42421071319238823e-01
43 36 8.37928390593273731e-01
44 36 8.37928390593273731e-01
45 36 8.42421071319238934e-01
46 36 8.51406432771169452e-01
47 36 8.64884474949064952e-01
48 36 8.82855197852925766e-01
49 36 9.05318601482751451e-01
50 36 9.32274685838542450e-01
51 36 9.63723450920298541e-01
52 36 9.81694173824159244e-01
53 36 9.63723450920298541e-01
54 36 9.32274685838542450e-01
55 36 9.05318601482751339e-01
56 36 8.82855197852925544e-01
57 36 8.64884474949064952e-01
58 36 8.51406432771169230e-01
59 36 8.42421071319238823e-01
60 36 8.37928390593273731e-01
61 36 8.37928390593273731e-01
62 36 8.42421071319238934e-01
63 36 8.51406432771169452e-01
64 36 8.64884474949064952e-01
65 36 8.82855197852925766e-01
66 36 9.05318601482751451e-01
67 36 9.32274685838542450e-01
68 36 9.63723450920298541e-01
69 36 9.81694173824159244e-01
1 37 9.49658978016437949e-01
2 37 9.32274685838542450e-01
3 37 9.01852174527225436e-01
4 37 8.75775736260382076e-01
5 37 8.54045371038012702e-01
6 37 8.36661078860117202e-01
7 37 8.23622859726695244e-01
8 37 8.14930713637747717e-01
9 37 8.10584640593273842e-01
10 37 8.10584640593273842e-01
11 37 8.14930713637747717e-01
12 37 8.23622859726695689e-01
13 37 8.36661078860117202e-01
14 37 8.54045371038012813e-01
15 37 8.75775736260382076e-01
16 37 9.01852174527225214e-01
17 37 9.32274685838542450e-01
18 37 9.49658978016437949e-01
19 37 9.32274685838542450e-01
20 37 9.01852174527225436e-01
21 37 8.75775736260382076e-01
22 37 8.54045371038012702e-01
23 37 8.36661078860117202e-01
24 37 8.23622859726695244e-01
25 37 8.14930713637747717e-01
26 37 8.10584640593273842e-01
27 37 8.10584640593273842e-01
28 37 8.14930713637747717e-01
29 37 8.23622859726695689e-01
30 37 8.36661078860117202e-01
31 37 8.54045371038012813e-01
32 37 8.75775736260382076e-01
33 37 9.01852174527225214e-01
34 37 9.32274685838542450e-01
35 37 9.49658978016437949e-01
36 37 9.32274685838542450e-01
37 37 9.01852174527225436e-01
38 37 8.75775736260382076e-01
39 37 8.54045371038012702e-01
40 37 8.36661078860117202e-01
41 37 8.23622859726695244e-01
42 37 8.14930713637747717e-01
43 37 8.10584640593273842e-01
44 37 8.10584640593273842e-01
45 37 8.14930713637747717e-01
46 37 8.23622859726695689e-01
47 37 8.36661078860117202e-01
48 37 8.54045371038012813e-01
49 37 8.75775736260382076e-01
50 37 9.01852174527225214e-01
51 37 9.32274685838542450e-01
52 37 9.49658978016437949e-01
53 37 9.32274685838542450e-01
54 37 9.01852174527225436e-01
55 37 8.75775736260382076e-01
56 37 8.54045371038012702e-01
57 37 8.36661078860117202e-01
58 37 8.23622859726695244e-01
59 37 8.14930713637747717e-01
60 37 8.10584640593273842e-01
61 37 8.10584640593273842e-01
62 37 8.14930713637747717e-01
63 37 8.23622859726695689e-01
64 37 8.36661078860117202e-01
65 37 8.54045371038012813e-01
66 37 8.75775736260382076e-01
67 37 9.01852174527225214e-01
68 37 9.32274685838542450e-01
69 37 9.49658978016437949e-01
1 38 9.22200238752676649e-01
2 38 9.05318601482751451e-01
3 38 8.75775736260382076e-01
4 38 8.50453280355494057e-01
5 38 8.29351233768087281e-01
6 38 8.12469596498161861e-01
7 38 7.99808368545717685e-01
8 38 7.91367549910755086e-01
9 38 7.87147140593273731e-01
10 38 7.87147140593273731e-01
11 38 7.91367549910755086e-01
12 38 7.99808368545718018e-01
13 38 8.12469596498162083e-01
14 38 8.29351233768087504e-01
15 38 8.50453280355494057e-01
16 38 8.75775736260381965e-01
17 38 9.05318601482751451e-01
18 38 9.22200238752676649e-01
19 38 9.05318601482751451e-01
20 38 8.75775736260382076e-01
21 38 8.50453280355494057e-01
22 38 8.29351233768087281e-01
23 38 8.12469596498161861e-01
24 38 7.99808368545717685e-01
25 38 7.91367549910755086e-01
26 38 7.87147140593273731e-01
27 38 7.87147140593273731e-01
28 38 7.91367549910755086e-01
29 38 7.99808368545718018e-01
30 38 8.12469596498162083e-01
31 38 8.29351233768087504e-01
32 38 8.50453280355494057e-01
33 38 8.75775736260381965e-01
34 38 9.05318601482751451e-01
35 38 9.22200238752676649e-01
36 38 9.05318601482751451e-01
37 38 8.75775736260382076e-01
38 38 8.50453280355494057e-01
39 38 8.29351233768087281e-01
40 38 8.12469596498161861e-01
41 38 7.99808368545717685e-01
42 38 7.91367549910755086e-01
43 38 7.87147140593273731e-01
44 38 7.87147140593273731e-01
45 38 7.91367549910755086e-01
46 38 7.99808368545718018e-01
47 38 8.12469596498162083e-01
48 38 8.29351233768087504e-01
49 38 8.50453280355494057e-01
50 38 8.75775736260381965e-01
51 38 9.05318601482751451e-01
52 38 9.22200238752676649e-01
53 38 9.05318601482751451e-01
54 38 8.75775736260382076e-01
55 38 8.50453280355494057e-01
56 38 8.29351233768087281e-01
57 38 8.12469596498161861e-01
58 38 7.99808368545717685e-01
59 38 7.91367549910755086e-01
60 38 7.87147140593273731e-01
61 38 7.87147140593273731e-01
62 38 7.91367549910755086e-01
63 38 7.99808368545718018e-01
64 38 8.12469596498162083e-01
65 38 8.29351233768087504e-01
66 38 8.50453280355494057e-01
67 38 8.75775736260381965e-01
68 38 9.05318601482751451e-01
69 38 9.22200238752676649e-01
1 39 8.99317956032875676e-01
2 39 8.82855197852925544e-01
3 39 8.54045371038012702e-01
4 39 8.29351233768087504e-01
5 39 8.08772786043149505e-01
6 39 7.92310027863199151e-01
7 39 7.79962959228236330e-01
8 39 7.71731580138261375e-01
9 39 7.67615890593273731e-01
10 39 7.67615890593273731e-01
11 39 7.71731580138261375e-01
12 39 7.79962959228236774e-01
13 39 7.92310027863199373e-01
14 39 8.08772786043149727e-01
15 39 8.29351233768087504e-01
16 39 8.54045371038012702e-01
17 39 8.82855197852925544e-01
18 39 8.99317956032875676e-01
19 39 8.82855197852925544e-01
20 39 8.54045371038012702e-01
21 39 8.29351233768087504e-01
22 39 8.08772786043149505e-01
23 39 7.92310027863199151e-01
24 39 7.79962959228236330e-01
25 39 7.71731580138261375e-01
26 39 7.67615890593273731e-01
27 39 7.67615890593273731e-01
28 39 7.71731580138261375e-01
29 39 7.79962959228236774e-01
30 39 7.92310027863199373e-01
31 39 8.08772786043149727e-01
32 39 8.29351233768087504e-01
33 39 8.54045371038012702e-01
34 39 8.82855197852925544e-01
35 39 8.99317956032875676e-01
36 39 8.82855197852925544e-01
37 39 8.54045371038012702e-01
38 39 8.29351233768087504e-01
39 39 8.08772786043149505e-01
40 39 7.92310027863199151e-01
41 39 7.79962959228236330e-01
42 39 7.71731580138261375e-01
43 39 7.67615890593273731e-01
44 39 7.67615890593273731e-01
45 39 7.71731580138261375e-01
46 39 7.79962959228236774e-01
47 39 7.92310027863199373e-01
48 39 8.08772786043149727e-01
49 39 8.29351233768087504e-01
50 39 8.54045371038012702e-01
51 39 8.82855197852925544e-01
52 39 8.99317956032875676e-01
53 39 8.82855197852925544e-01
54 39 8.54045371038012702e-01
55 39 8.29351233768087504e-01
56 39 8.08772786043149505e-01
57 39 7.92310027863199151e-01
58 39 7.79962959228236330e-01
59 39 7.71731580138261375e-01
60 39 7.67615890593273731e-01
61 39 7.67615890593273731e-01
62 39 7.71731580138261375e-01
63 39 7.79962959228236774e-01
64 39 7.92310027863199373e-01
65 39 8.08772786043149727e-01
66 39 8.29351233768087504e-01
67 39 8.54045371038012702e-01
68 39 8.82855197852925544e-01
69 39 8.99317956032875676e-01
1 40 8.81012129857034920e-01
2 40 8.64884474949064841e-01
3 40 8.36661078860117202e-01
4 40 8.12469596498162083e-01
5 40 7.92310027863199373e-01
6 40 7.76182372955229072e-01
7 40 7.64086631774251179e-01
8 40 7.56022804320266362e-01
9 40 7.51990890593273731e-01
10 40 7.51990890593273731e-01
11 40 7.56022804320266362e-01
12 40 7.64086631774251734e-01
13 40 7.76182372955229294e-01
14 40 7.92310027863199373e-01
15 40 8.12469596498162083e-01
16 40 8.36661078860117202e-01
17 40 8.64884474949064841e-01
18 40 8.81012129857034920e-01
19 40 8.64884474949064841e-01
20 40 8.36661078860117202e-01
21 40 8.12469596498162083e-01
22 40 7.92310027863199373e-01
23 40 7.76182372955229072e-01
24 40 7.64086631774251179e-01
25 40 7.56022804320266362e-01
26 40 7.51990890593273731e-01
27 40 7.51990890593273731e-01
28 40 7.56022804320266362e-01
29 40 7.64086631774251734e-01
30 40 7.76182372955229294e-01
31 40 7.92310027863199373e-01
32 40 8.12469596498162083e-01
33 40 8.36661078860117202e-01
34 40 8.64884474949064841e-01
35 40 8.81012129857034920e-01
36 40 8.64884474949064841e-01
37 40 8.36661078860117202e-01
38 40 8.12469596498162083e-01
39 40 7.92310027863199373e-01
40 40 7.76182372955229072e-01
41 40 7.64086631774251179e-01
42 40 7.56022804320266362e-01
43 40 7.51990890593273731e-01
44 40 7.51990890593273731e-01
45 40 7.56022804320266362e-01
46 40 7.64086631774251734e-01
47 40 7.76182372955229294e-01
48 40 7.92310027863199373e-01
49 40 8.12469596498162083e-01
50 40 8.36661078860117202e-01
51 40 8.64884474949064841e-01
52 40 8.81012129857034920e-01
53 40 8.64884474949064841e-01
54 40 8.36661078860117202e-01
55 40 8.12469596498162083e-01
56 40 7.92310027863199373e-01
57 40 7.76182372955229072e-01
58 40 7.64086631774251179e-01
59 40 7.56022804320266362e-01
60 40 7.51990890593273731e-01
61 40 7.51990890593273731e-01
62 40 7.56022804320266362e-01
63 40 7.64086631774251734e-01
64 40 7.76182372955229294e-01
65 40 7.92310027863199373e-01
66 40 8.12469596498162083e-01
67 40 8.36661078860117202e-01
68 40 8.64884474949064841e-01
69 40 8.81012129857034920e-01
1 41 8.67282760225154270e-01
2 41 8.51406432771169341e-01
3 41 8.23622859726695467e-01
4 41 7.99808368545718018e-01
5 41 7.79962959228236552e-01
6 41 7.64086631774251512e-01
7 41 7.52179386183762344e-01
8 41 7.44241222456770046e-01
9 41 7.40272140593273731e-01
10 41 7.40272140593273731e-01
11 41 7.44241222456770046e-01
12 41 7.52179386183762788e-01
13 41 7.64086631774251623e-01
14 41 7.79962959228236552e-01
15 41 7.99808368545718018e-01
16 41 8.23622859726695467e-01
17 41 8.51406432771169341e-01
18 41 8.67282760225154270e-01
19 41 8.51406432771169341e-01
20 41 8.23622859726695467e-01
21 41 7.99808368545718018e-01
22 41 7.79962959228236552e-01
23 41 7.64086631774251512e-01
24 41 7.52179386183762344e-01
25 41 7.44241222456770046e-01
26 41 7.40272140593273731e-01
27 41 7.40272140593273731e-01
28 41 7.44241222456770046e-01
29 41 7.52179386183762788e-01
30 41 7.64086631774251623e-01
31 41 7.79962959228236552e-01
32 41 7.99808368545718018e-01
33 41 8.23622859726695467e-01
34 41 8.51406432771169341e-01
35 41 8.67282760225154270e-01
36 41 8.51406432771169341e-01
37 41 8.23622859726695467e-01
38 41 7.99808368545718018e-01
39 41 7.79962959228236552e-01
40 41 7.64086631774251512e-01
41 41 7.52179386183762344e-01
42 41 7.44241222456770046e-01
43 41 7.40272140593273731e-01
44 41 7.40272140593273731e-01
45 41 7.44241222456770046e-01
46 41 7.52179386183762788e-01
47 41 7.64086631774251623e-01
48 41 7.79962959228236552e-01
49 41 7.99808368545718018e-01
50 41 8.23622859726695467e-01
51 41 8.51406432771169341e-01
52 41 8.67282760225154270e-01
53 41 8.51406432771169341e-01
54 41 8.23622859726695467e-01
55 41 7.99808368545718018e-01
56 41 7.79962959228236552e-01
57 41 7.64086631774251512e-01
58 41 7.52179386183762344e-01
59 41 7.44241222456770046e-01
60 41 7.40272140593273731e-01
61 41 7.40272140593273731e-01
62 41 7.44241222456770046e-01
63 41 7.52179386183762788e-01
64 41 7.64086631774251623e-01
65 41 7.79962959228236552e-01
66 41 7.99808368545718018e-01
67 41 8.23622859726695467e-01
68 41 8.51406432771169341e-01
69 41 8.67282760225154270e-01
1 42 8.58129847137233837e-01
2 42 8.42421071319239045e-01
3 42 8.14930713637747717e-01
4 42 7.91367549910755308e-01
5 42 7.71731580138261375e-01
6 42 7.56022804320266473e-01
7 42 7.44241222456769824e-01
8 42 7.36386834547772651e-01
9 42 7.32459640593273620e-01
10 42 7.32459640593273620e-01
11 42 7.36386834547772651e-01
12 42 7.44241222456770268e-01
13 42 7.56022804320266473e-01
14 42 7.71731580138261486e-01
15 42 7.91367549910755308e-01
16 42 8.14930713637747717e-01
17 42 8.42421071319239045e-01
18 42 8.58129847137233837e-01
19 42 8.42421071319239045e-01
20 42 8.14930713637747717e-01
21 42 7.91367549910755308e-01
22 42 7.71731580138261375e-01
23 42 7.56022804320266473e-01
24 42 7.44241222456769824e-01
25 42 7.36386834547772651e-01
26 42 7.32459640593273620e-01
27 42 7.32459640593273620e-01
28 42 7.36386834547772651e-01
29 42 7.44241222456770268e-01
30 42 7.56022804320266473e-01
31 42 7.71731580138261486e-01
32 42 7.91367549910755308e-01
33 42 8.14930713637747717e-01
34 42 8.42421071319239045e-01
35 42 8.58129847137233837e-01
36 42 8.42421071319239045e-01
37 42 8.14930713637747717e-01
38 42 7.91367549910755308e-01
39 42 7.71731580138261375e-01
40 42 7.56022804320266473e-01
41 42 7.44241222456769824e-01
42 42 7.36386834547772651e-01
43 42 7.32459640593273620e-01
44 42 7.32459640593273620e-01
45 42 7.36386834547772651e-01
46 42 7.44241222456770268e-01
47 42 7.56022804320266473e-01
48 42 7.71731580138261486e-01
49 42 7.91367549910755308e-01
50 42 8.14930713637747717e-01
51 42 8.42421071319239045e-01
52 42 8.58129847137233837e-01
53 42 8.42421071319239045e-01
54 42 8.14930713637747717e-01
55 42 7.91367549910755308e-01
56 42 7.71731580138261375e-01
57 42 7.56022804320266473e-01
58 42 7.44241222456769824e-01
59 42 7.36386834547772651e-01
60 42 7.32459640593273620e-01
61 42 7.32459640593273620e-01
62 42 7.36386834547772651e-01
63 42 7.44241222456770268e-01
64 42 7.56022804320266473e-01
65 42 7.71731580138261486e-01
66 42 7.91367549910755308e-01
67 42 8.14930713637747717e-01
68 42 8.42421071319239045e-01
69 42 8.58129847137233837e-01
1 43 8.53553390593273731e-01
2 43 8.37928390593273953e-01
3 43 8.10584640593273953e-01
4 43 7.87147140593273953e-01
5 43 7.67615890593273842e-01
6 43 7.51990890593273953e-01
7 43 7.40272140593273509e-01
8 43 7.32459640593273953e-01
9 43 7.28553390593273731e-01
10 43 7.28553390593273731e-01
11 43 7.32459640593273953e-01
12 43 7.40272140593273953e-01
13 43 7.51990890593273953e-01
14 43 7.67615890593273953e-01
15 43 7.87147140593273953e-01
16 43 8.10584640593273953e-01
17 43 8.37928390593273953e-01
18 43 8.53553390593273731e-01
19 43 8.37928390593273953e-01
20 43 8.10584640593273953e-01
21 43 7.87147140593273953e-01
22 43 7.67615890593273842e-01
23 43 7.51990890593273953e-01
24 43 7.40272140593273509e-01
25 43 7.32459640593273953e-01
26 43 7.28553390593273731e-01
27 43 7.28553390593273731e-01
28 43 7.32459640593273953e-01
29 43 7.40272140593273953e-01
30 43 7.51990890593273953e-01
31 43 7.67615890593273953e-01
32 43 7.87147140593273953e-01
33 43 8.10584640593273953e-01
34 43 8.37928390593273953e-01
35 43 8.53553390593273731e-01
36 43 8.37928390593273953e-01
37 43 8.10584640593273953e-01
38 43 7.87147140593273953e-01
39 43 7.67615890593273842e-01
40 43 7.51990890593273953e-01
41 43 7.40272140593273509e-01
42 43 7.32459640593273953e-01
43 43 7.28553390593273731e-01
44 43 7.28553390593273731e-01
45 43 7.32459640593273953e-01
46 43 7.40272140593273953e-01
47 43 7.51990890593273953e-01
48 43 7.67615890593273953e-01
49 43 7.87147140593273953e-01
50 43 8.10584640593273953e-01
51 43 8.37928390593273953e-01
52 43 8.53553390593273731e-01
53 43 8.37928390593273953e-01
54 43 8.10584640593273953e-01
55 43 7.87147140593273953e-01
56 43 7.67615890593273842e-01
57 43 7.51990890593273953e-01
58 43 7.40272140593273509e-01
59 43 7.32459640593273953e-01
60 43 7.28553390593273731e-01
61 43 7.28553390593273731e-01
62 43 7.32459640593273953e-01
63 43 7.40272140593273953e-01
64 43 7.51990890593273953e-01
65 43 7.67615890593273953e-01
66 43 7.87147140593273953e-01
67 43 8.10584640593273953e-01
68 43 8.37928390593273953e-01
69 43 8.53553390593273731e-01
1 44 8.53553390593273731e-01
2 44 8.37928390593273953e-01
3 44 8.10584640593273953e-01
4 44 7.87147140593273953e-01
5 44 7.67615890593273731e-01
6 44 7.51990890593273953e-01
7 44 7.40272140593273620e-01
8 44 7.32459640593273953e-01
9 44 7.28553390593273842e-01
10 44 7.28553390593273842e-01
11 44 7.32459640593273953e-01
12 44 7.40272140593273953e-01
13 44 7.51990890593274064e-01
14 44 7.67615890593273953e-01
15 44 7.87147140593274064e-01
16 44 8.10584640593273953e-01
17 44 8.37928390593273953e-01
18 44 8.53553390593273731e-01
19 44 8.37928390593273953e-01
20 44 8.10584640593273953e-01
21 44 7.87147140593273953e-01
22 44 7.67615890593273731e-01
23 44 7.51990890593273953e-01
24 44 7.40272140593273620e-01
25 44 7.32459640593273953e-01
26 44 7.28553390593273842e-01
27 44 7.28553390593273842e-01
28 44 7.32459640593273953e-01
29 44 7.40272140593273953e-01
30 44 7.51990890593274064e-01
31 44 7.67615890593273953e-01
32 44 7.87147140593274064e-01
33 44 8.10584640593273953e-01
34 44 8.37928390593273953e-01
35 44 8.53553390593273731e-01
36 44 8.37928390593273953e-01
37 44 8.10584640593273953e-01
38 44 7.87147140593273953e-01
39 44 7.67615890593273731e-01
40 44 7.51990890593273953e-01
41 44 7.40272140593273620e-01
42 44 7.32459640593273953e-01
43 44 7.28553390593273842e-01
44 44 7.28553390593273842e-01
45 44 7.32459640593273953e-01
46 44 7.40272140593273953e-01
47 44 7.51990890593274064e-01
48 44 7.67615890593273953e-01
49 44 7.87147140593274064e-01
50 44 8.10584640593273953e-01
51 44 8.37928390593273953e-01
52 44 8.53553390593273731e-01
53 44 8.37928390593273953e-01
54 44 8.10584640593273953e-01
55 44 7.87147140593273953e-01
56 44 7.67615890593273731e-01
57 44 7.51990890593273953e-01
58 44 7.40272140593273620e-01
59 44 7.32459640593273953e-01
60 44 7.28553390593273842e-01
61 44 7.28553390593273842e-01
62 44 7.32459640593273953e-01
63 44 7.40272140593273953e-01
64 44 7.51990890593274064e-01
65 44 7.67615890593273953e-01
66 44 7.87147140593274064e-01
67 44 8.10584640593273953e-01
68 44 8.37928390593273953e-01
69 44 8.53553390593273731e-01
1 45 8.58129847137233948e-01
2 45 8.42421071319239045e-01
3 45 8.14930713637747828e-01
4 45 7.91367549910755197e-01
5 45 7.71731580138261264e-01
6 45 7.56022804320266362e-01
7 45 7.44241222456769824e-01
8 45 7.36386834547772651e-01
9 45 7.32459640593273842e-01
10 45 7.32459640593273842e-01
11 45 7.36386834547772651e-01
12 45 7.44241222456770157e-01
13 45 7.56022804320266473e-01
14 45 7.71731580138261486e-01
15 45 7.91367549910755419e-01
16 45 8.14930713637747828e-01
17 45 8.42421071319239045e-01
18 45 8.58129847137233948e-01
19 45 8.42421071319239045e-01
20 45 8.14930713637747828e-01
21 45 7.91367549910755197e-01
22 45 7.71731580138261264e-01
23 45 7.56022804320266362e-01
24 45 7.44241222456769824e-01
25 45 7.36386834547772651e-01
26 45 7.32459640593273842e-01
27 45 7.32459640593273842e-01
28 45 7.36386834547772651e-01
29 45 7.44241222456770157e-01
30 45 7.56022804320266473e-01
31 45 7.71731580138261486e-01
32 45 7.91367549910755419e-01
33 45 8.14930713637747828e-01
34 45 8.42421071319239045e-01
35 45 8.58129847137233948e-01
36 45 8.42421071319239045e-01
37 45 8.14930713637747828e-01
38 45 7.91367549910755197e-01
39 45 7.71731580138261264e-01
40 45 7.56022804320266362e-01
41 45 7.44241222456769824e-01
42 45 7.36386834547772651e-01
43 45 7.32459640593273842e-01
44 45 7.32459640593273842e-01
45 45 7.36386834547772651e-01
46 45 7.44241222456770157e-01
47 45 7.56022804320266473e-01
48 45 7.71731580138261486e-01
49 45 7.91367549910755419e-01
50 45 8.14930713637747828e-01
51 45 8.42421071319239045e-01
52 45 8.58129847137233948e-01
53 45 8.42421071319239045e-01
54 45 8.14930713637747828e-01
55 45 7.91367549910755197e-01
56 45 7.71731580138261264e-01
57 45 7.56022804320266362e-01
58 45 7.44241222456769824e-01
59 45 7.36386834547772651e-01
60 45 7.32459640593273842e-01
61 45 7.32459640593273842e-01
62 45 7.36386834547772651e-01
63 45 7.44241222456770157e-01
64 45 7.56022804320266473e-01
65 45 7.71731580138261486e-01
66 45 7.91367549910755419e-01
67 45 8.14930713637747828e-01
68 45 8.42421071319239045e-01
69 45 8.58129847137233948e-01
1 46 8.67282760225154492e-01
2 46 8.51406432771169452e-01
3 46 8.23622859726695578e-01
4 46 7.99808368545717907e-01
5 46 7.79962959228236441e-01
6 46 7.64086631774251512e-01
7 46 7.52179386183762455e-01
8 46 7.44241222456770157e-01
9 46 7.40272140593273842e-01
10 46 7.40272140593273842e-01
11 46 7.44241222456770157e-01
12 46 7.52179386183762677e-01
13 46 7.64086631774251623e-01
14 46 7.79962959228236663e-01
15 46 7.99808368545718129e-01
16 46 8.23622859726695578e-01
17 46 8.51406432771169452e-01
18 46 8.67282760225154492e-01
19 46 8.51406432771169452e-01
20 46 8.23622859726695578e-01
21 46 7.99808368545717907e-01
22 46 7.79962959228236441e-01
23 46 7.64086631774251512e-01
24 46 7.52179386183762455e-01
25 46 7.44241222456770157e-01
26 46 7.40272140593273842e-01
27 46 7.40272140593273842e-01
28 46 7.44241222456770157e-01
29 46 7.52179386183762677e-01
30 46 7.64086631774251623e-01
31 46 7.79962959228236663e-01
32 46 7.99808368545718129e-01
33 46 8.23622859726695578e-01
34 46 8.51406432771169452e-01
35 46 8.67282760225154492e-01
36 46 8.51406432771169452e-01
37 46 8.23622859726695578e-01
38 46 7.99808368545717907e-01
39 46 7.79962959228236441e-01
40 46 7.64086631774251512e-01
41 46 7.52179386183762455e-01
42 46 7.44241222456770157e-01
43 46 7.40272140593273842e-01
44 46 7.40272140593273842e-01
45 46 7.44241222456770157e-01
46 46 7.52179386183762677e-01
47 46 7.64086631774251623e-01
48 46 7.79962959228236663e-01
49 46 7.99808368545718129e-01
50 46 8.23622859726695578e-01
51 46 8.51406432771169452e-01
52 46 8.67282760225154492e-01
53 46 8.51406432771169452e-01
54 46 8.23622859726695578e-01
55 46 7.99808368545717907e-01
56 46 7.79962959228236441e-01
57 46 7.64086631774251512e-01
58 46 7.52179386183762455e-01
59 46 7.44241222456770157e-01
60 46 7.40272140593273842e-01
61 46 7.40272140593273842e-01
62 46 7.44241222456770157e-01
63 46 7.52179386183762677e-01
64 46 7.64086631774251623e-01
65 46 7.79962959228236663e-01
66 46 7.99808368545718129e-01
67 46 8.23622859726695578e-01
68 46 8.51406432771169452e-01
69 46 8.67282760225154492e-01
1 47 8.81012129857035142e-01
2 47 8.64884474949064952e-01
3 47 8.36661078860117202e-01
4 47 8.12469596498161861e-01
5 47 7.92310027863199151e-01
6 47 7.76182372955229183e-01
7 47 7.64086631774251290e-01
8 47 7.56022804320266362e-01
9 47 7.51990890593273842e-01
10 47 7.51990890593273842e-01
11 47 7.56022804320266362e-01
12 47 7.64086631774251401e-01
13 47 7.76182372955229294e-01
14 47 7.92310027863199373e-01
15 47 8.12469596498162083e-01
16 47 8.36661078860117202e-01
17 47 8.64884474949064952e-01
18 47 8.81012129857035142e-01
19 47 8.64884474949064952e-01
20 47 8.36661078860117202e-01
21 47 8.12469596498161861e-01
22 47 7.92310027863199151e-01
23 47 7.76182372955229183e-01
24 47 7.64086631774251290e-01
25 47 7.56022804320266362e-01
26 47 7.51990890593273842e-01
27 47 7.51990890593273842e-01
28 47 7.56022804320266362e-01
29 47 7.64086631774251401e-01
30 47 7.76182372955229294e-01
31 47 7.92310027863199373e-01
32 47 8.12469596498162083e-01
33 47 8.36661078860117202e-01
34 47 8.64884474949064952e-01
35 47 8.81012129857035142e-01
36 47 8.64884474949064952e-01
37 47 8.36661078860117202e-01
38 47 8.12469596498161861e-01
39 47 7.92310027863199151e-01
40 47 7.76182372955229183e-01
41 47 7.64086631774251290e-01
42 47 7.56022804320266362e-01
43 47 7.51990890593273842e-01
44 47 7.51990890593273842e-01
45 47 7.56022804320266362e-01
46 47 7.64086631774251401e-01
47 47 7.76182372955229294e-01
48 47 7.92310027863199373e-01
49 47 8.12469596498162083e-01
50 47 8.36661078860117202e-01
51 47 8.64884474949064952e-01
52 47 8.81012129857035142e-01
53 47 8.64884474949064952e-01
54 47 8.36661078860117202e-01
55 47 8.12469596498161861e-01
56 47 7.92310027863199151e-01
57 47 7.76182372955229183e-01
58 47 7.64086631774251290e-01
59 47 7.56022804320266362e-01
60 47 7.51990890593273842e-01
61 47 7.51990890593273842e-01
62 47 7.56022804320266362e-01
63 47 7.64086631774251401e-01
64 47 7.76182372955229294e-01
65 47 7.92310027863199373e-01
66 47 8.12469596498162083e-01
67 47 8.36661078860117202e-01
68 47 8.64884474949064952e-01
69 47 8.81012129857035142e-01
1 48 8.99317956032875898e-01
2 48 8.82855197852925544e-01
3 48 8.54045371038012702e-01
4 48 8.29351233768087281e-01
5 48 8.08772786043149394e-01
6 48 7.92310027863199262e-01
7 48 7.79962959228236330e-01
8 48 7.71731580138261375e-01
9 48 7.67615890593273842e-01
10 48 7.67615890593273842e-01
11 48 7.71731580138261375e-01
12 48 7.79962959228236441e-01
13 48 7.92310027863199373e-01
14 48 8.08772786043149616e-01
15 48 8.29351233768087392e-01
16 48 8.54045371038012702e-01
17 48 8.82855197852925544e-01
18 48 8.99317956032875898e-01
19 48 8.82855197852925544e-01
20 48 8.54045371038012702e-01
21 48 8.29351233768087281e-01
22 48 8.08772786043149394e-01
23 48 7.92310027863199262e-01
24 48 7.79962959228236330e-01
25 48 7.71731580138261375e-01
26 48 7.67615890593273842e-01
27 48 7.67615890593273842e-01
28 48 7.71731580138261375e-01
29 48 7.79962959228236441e-01
30 48 7.92310027863199373e-01
31 48 8.08772786043149616e-01
32 48 8.29351233768087392e-01
33 48 8.54045371038012702e-01
34 48 8.82855197852925544e-01
35 48 8.99317956032875898e-01
36 48 8.82855197852925544e-01
37 48 8.54045371038012702e-01
38 48 8.29351233768087281e-01
39 48 8.08772786043149394e-01
40 48 7.92310027863199262e-01
41 48 7.79962959228236330e-01
42 48 7.71731580138261375e-01
43 48 7.67615890593273842e-01
44 48 7.67615890593273842e-01
45 48 7.71731580138261375e-01
46 48 7.79962959228236441e-01
47 48 7.92310027863199373e-01
48 48 8.08772786043149616e-01
49 48 8.29351233768087392e-01
50 48 8.54045371038012702e-01
51 48 8.82855197852925544e-01
52 48 8.99317956032875898e-01
53 48 8.82855197852925544e-01
54 48 8.54045371038012702e-01
55 48 8.29351233768087281e-01
56 48 8.08772786043149394e-01
57 48 7.92310027863199262e-01
58 48 7.79962959228236330e-01
59 48 7.71731580138261375e-01
60 48 7.67615890593273842e-01
61 48 7.67615890593273842e-01
62 48 7.71731580138261375e-01
63 48 7.79962959228236441e-01
64 48 7.92310027863199373e-01
65 48 8.08772786043149616e-01
66 48 8.29351233768087392e-01
67 48 8.54045371038012702e-01
68 48 8.82855197852925544e-01
69 48 8.99317956032875898e-01
1 49 9.22200238752676760e-01
2 49 9.05318601482751339e-01
3 49 8.75775736260381965e-01
4 49 8.50453280355493946e-01
5 49 8.29351233768087170e-01
6 49 8.12469596498161861e-01
7 49 7.99808368545717685e-01
8 49 7.91367549910755086e-01
9 49 7.87147140593273842e-01
10 49 7.87147140593273842e-01
11 49 7.91367549910755086e-01
12 49 7.99808368545717796e-01
13 49 8.12469596498161972e-01
14 49 8.29351233768087392e-01
15 49 8.50453280355494057e-01
16 49 8.75775736260381965e-01
17 49 9.05318601482751339e-01
18 49 9.22200238752676760e-01
19 49 9.05318601482751339e-01
20 49 8.75775736260381965e-01
21 49 8.50453280355493946e-01
22 49 8.29351233768087170e-01
23 49 8.12469596498161861e-01
24 49 7.99808368545717685e-01
25 49 7.91367549910755086e-01
26 49 7.87147140593273842e-01
27 49 7.87147140593273842e-01
28 49 7.91367549910755086e-01
29 49 7.99808368545717796e-01
30 49 8.12469596498161972e-01
31 49 8.29351233768087392e-01
32 49 8.50453280355494057e-01
33 49 8.75775736260381965e-01
34 49 9.05318601482751339e-01
35 49 9.22200238752676760e-01
36 49 9.05318601482751339e-01
37 49 8.75775736260381965e-01
38 49 8.50453280355493946e-01
39 49 8.29351233768087170e-01
40 49 8.12469596498161861e-01
41 49 7.99808368545717685e-01
42 49 7.91367549910755086e-01
43 49 7.87147140593273842e-01
44 49 7.87147140593273842e-01
45 49 7.91367549910755086e-01
46 49 7.99808368545717796e-01
47 49 8.12469596498161972e-01
48 49 8.29351233768087392e-01
49 49 8.50453280355494057e-01
50 49 8.75775736260381965e-01
51 49 9.05318601482751339e-01
52 49 9.22200238752676760e-01
53 49 9.05318601482751339e-01
54 49 8.75775736260381965e-01
55 49 8.50453280355493946e-01
56 49 8.29351233768087170e-01
57 49 8.12469596498161861e-01
58 49 7.99808368545717685e-01
59 49 7.91367549910755086e-01
60 49 7.87147140593273842e-01
61 49 7.87147140593273842e-01
62 49 7.91367549910755086e-01
63 49 7.99808368545717796e-01
64 49 8.12469596498161972e-01
65 49 8.29351233768087392e-01
66 49 8.50453280355494057e-01
67 49 8.75775736260381965e-01
68 49 9.05318601482751339e-01
69 49 9.22200238752676760e-01
1 50 9.49658978016437838e-01
2 50 9.32274685838542339e-01
3 50 9.01852174527225214e-01
4 50 8.75775736260381965e-01
5 50 8.54045371038012480e-01
6 50 8.36661078860116980e-01
7 50 8.23622859726695244e-01
8 50 8.14930713637747606e-01
9 50 8.10584640593273731e-01
10 50 8.10584640593273731e-01
11 50 8.14930713637747606e-01
12 50 8.23622859726695467e-01
13 50 8.36661078860117202e-01
14 50 8.54045371038012702e-01
15 50 8.75775736260382076e-01
16 50 9.01852174527225214e-01
17 50 9.32274685838542339e-01
18 50 9.49658978016437838e-01
19 50 9.32274685838542339e-01
20 50 9.01852174527225214e-01
21 50 8.75775736260381965e-01
22 50 8.54045371038012480e-01
23 50 8.36661078860116980e-01
24 50 8.23622859726695244e-01
25 50 8.14930713637747606e-01
26 50 8.10584640593273731e-01
27 50 8.10584640593273731e-01
28 50 8.14930713637747606e-01
29 50 8.23622859726695467e-01
30 50 8.36661078860117202e-01
31 50 8.54045371038012702e-01
32 50 8.75775736260382076e-01
33 50 9.01852174527225214e-01
34 50 9.32274685838542339e-01
35 50 9.49658978016437838e-01
36 50 9.32274685838542339e-01
37 50 9.01852174527225214e-01
38 50 8.75775736260381965e-01
39 50 8.54045371038012480e-01
40 50 8.36661078860116980e-01
41 50 8.23622859726695244e-01
42 50 8.14930713637747606e-01
43 50 8.10584640593273731e-01
44 50 8.10584640593273731e-01
45 50 8.14930713637747606e-01
46 50 8.23622859726695467e-01
47 50 8.36661078860117202e-01
48 50 8.54045371038012702e-01
49 50 8.75775736260382076e-01
50 50 9.01852174527225214e-01
51 50 9.32274685838542339e-01
52 50 9.49658978016437838e-01
53 50 9.32274685838542339e-01
54 50 9.01852174527225214e-01
55 50 8.75775736260381965e-01
56 50 8.54045371038012480e-01
57 50 8.36661078860116980e-01
58 50 8.23622859726695244e-01
59 50 8.14930713637747606e-01
60 50 8.10584640593273731e-01
61 50 8.10584640593273731e-01
62 50 8.14930713637747606e-01
63 50 8.23622859726695467e-01
64 50 8.36661078860117202e-01
65 50 8.54045371038012702e-01
66 50 8.75775736260382076e-01
67 50 9.01852174527225214e-01
68 50 9.32274685838542339e-01
69 50 9.49658978016437838e-01
1 51 9.81694173824159244e-01
2 51 9.63723450920298541e-01
3 51 9.32274685838542450e-01
4 51 9.05318601482751339e-01
5 51 8.82855197852925433e-01
6 51 8.64884474949064730e-01
7 51 8.51406432771169119e-01
8 51 8.42421071319238823e-01
9 51 8.37928390593273731e-01
10 51 8.37928390593273731e-01
11 51 8.42421071319238934e-01
12 51 8.51406432771169341e-01
13 51 8.64884474949064952e-01
14 51 8.82855197852925655e-01
15 51 9.05318601482751451e-01
16 51 9.32274685838542339e-01
17 51 9.63723450920298541e-01
18 51 9.81694173824159244e-01
19 51 9.63723450920298541e-01
20 51 9.32274685838542450e-01
21 51 9.05318601482751339e-01
22 51 8.82855197852925433e-01
23 51 8.64884474949064730e-01
24 51 8.51406432771169119e-01
25 51 8.42421071319238823e-01
26 51 8.37928390593273731e-01
27 51 8.37928390593273731e-01
28 51 8.42421071319238934e-01
29 51 8.51406432771169341e-01
30 51 8.64884474949064952e-01
31 51 8.82855197852925655e-01
32 51 9.05318601482751451e-01
33 51 9.32274685838542339e-01
34 51 9.63723450920298541e-01
35 51 9.81694173824159244e-01
36 51 9.63723450920298541e-01
37 51 9.32274685838542450e-01
38 51 9.05318601482751339e-01
39 51 8.82855197852925433e-01
40 51 8.64884474949064730e-01
41 51 8.51406432771169119e-01
42 51 8.42421071319238823e-01
43 51 8.37928390593273731e-01
44 51 8.37928390593273731e-01
45 51 8.42421071319238934e-01
46 51 8.51406432771169341e-01
47 51 8.64884474949064952e-01
48 51 8.82855197852925655e-01
49 51 9.05318601482751451e-01
50 51 9.32274685838542339e-01
51 51 9.63723450920298541e-01
52 51 9.81694173824159244e-01
53 51 9.63723450920298541e-01
54 51 9.32274685838542450e-01
55 51 9.05318601482751339e-01
56 51 8.82855197852925433e-01
57 51 8.64884474949064730e-01
58 51 8.51406432771169119e-01
59 51 8.42421071319238823e-01
60 51 8.37928390593273731e-01
61 51 8.37928390593273731e-01
62 51 8.42421071319238934e-01
63 51 8.51406432771169341e-01
64 51 8.64884474949064952e-01
65 51 8.82855197852925655e-01
66 51 9.05318601482751451e-01
67 51 9.32274685838542339e-01
68 51 9.63723450920298541e-01
69 51 9.81694173824159244e-01
1 52 1.00000000000000000e+00
2 52 9.81694173824159244e-01
3 52 9.49658978016437949e-01
4 52 9.22200238752676649e-01
5 52 8.99317956032875676e-01
6 52 8.81012129857034920e-01
7 52 8.67282760225154270e-01
8 52 8.58129847137233837e-01
9 52 8.53553390593273731e-01
10 52 8.53553390593273731e-01
11 52 8.58129847137233948e-01
12 52 8.67282760225154492e-01
13 52 8.81012129857035142e-01
14 52 8.99317956032875898e-01
15 52 9.22200238752676760e-01
16 52 9.49658978016437838e-01
17 52 9.81694173824159244e-01
18 52 1.00000000000000000e+00
19 52 9.81694173824159244e-01
20 52 9.49658978016437949e-01
21 52 9.22200238752676649e-01
22 52 8.99317956032875676e-01
23 52 8.81012129857034920e-01
24 52 8.67282760225154270e-01
25 52 8.58129847137233837e-01
26 52 8.53553390593273731e-01
27 52 8.53553390593273731e-01
28 52 8.58129847137233948e-01
29 52 8.67282760225154492e-01
30 52 8.81012129857035142e-01
31 52 8.99317956032875898e-01
32 52 9.22200238752676760e-01
33 52 9.49658978016437838e-01
34 52 9.81694173824159244e-01
35 52 1.00000000000000000e+00
36 52 9.81694173824159244e-01
37 52 9.49658978016437949e-01
38 52 9.22200238752676649e-01
39 52 8.99317956032875676e-01
40 52 8.81012129857034920e-01
41 52 8.67282760225154270e-01
42 52 8.58129847137233837e-01
43 52 8.53553390593273731e-01
44 52 8.53553390593273731e-01
45 52 8.58129847137233948e-01
46 52 8.67282760225154492e-01
47 52 8.81012129857035142e-01
48 52 8.99317956032875898e-01
49 52 9.22200238752676760e-01
50 52 9.49658978016437838e-01
51 52 9.81694173824159244e-01
52 52 1.00000000000000000e+00
53 52 9.81694173824159244e-01
54 52 9.49658978016437949e-01
55 52 9.22200238752676649e-01
56 52 8.99317956032875676e-01
57 52 8.81012129857034920e-01
58 52 8.67282760225154270e-01
59 52 8.58129847137233837e-01
60 52 8.53553390593273731e-01
61 52 8.53553390593273731e-01
62 52 8.58129847137233948e-01
63 52 8.67282760225154492e-01
64 52 8.81012129857035142e-01
65 52 8.99317956032875898e-01
66 52 9.22200238752676760e-01
67 52 9.49658978016437838e-01
68 52 9.81694173824159244e-01
69 52 1.00000000000000000e+00
1 53 9.81694173824159244e-01
2 53 9.63723450920298541e-01
3 53 9.32274685838542450e-01
4 53 9.05318601482751339e-01
5 53 8.82855197852925544e-01
6 53 8.64884474949064952e-01
7 53 8.51406432771169230e-01
8 53 8.42421071319238823e-01
9 53 8.37928390593273731e-01
10 53 8.37928390593273731e-01
11 53 8.42421071319238934e-01
12 53 8.51406432771169452e-01
13 53 8.64884474949064952e-01
14 53 8.82855197852925766e-01
15 53 9.05318601482751451e-01
16 53 9.32274685838542450e-01
17 53 9.63723450920298541e-01
18 53 9.81694173824159244e-01
19 53 9.63723450920298541e-01
20 53 9.32274685838542450e-01
21 53 9.05318601482751339e-01
22 53 8.82855197852925544e-01
23 53 8.64884474949064952e-01
24 53 8.51406432771169230e-01
25 53 8.42421071319238823e-01
26 53 8.37928390593273731e-01
27 53 8.37928390593273731e-01
28 53 8.42421071319238934e-01
29 53 8.51406432771169452e-01
30 53 8.64884474949064952e-01
31 53 8.82855197852925766e-01
32 53 9.05318601482751451e-01
33 53 9.32274685838542450e-01
34 53 9.63723450920298541e-01
35 53 9.81694173824159244e-01
36 53 9.63723450920298541e-01
37 53 9.32274685838542450e-01
38 53 9.05318601482751339e-01
39 53 8.82855197852925544e-01
40 53 8.64884474949064952e-01
41 53 8.51406432771169230e-01
42 53 8.42421071319238823e-01
43 53 8.37928390593273731e-01
44 53 8.37928390593273731e-01
45 53 8.42421071319238934e-01
46 53 8.51406432771169452e-01
47 53 8.64884474949064952e-01
48 53 8.82855197852925766e-01
49 53 9.05318601482751451e-01
50 53 9.32274685838542450e-01
51 53 9.63723450920298541e-01
52 53 9.81694173824159244e-01
53 53 9.63723450920298541e-01
54 53 9.32274685838542450e-01
55 53 9.05318601482751339e-01
56 53 8.82855197852925544e-01
57 53 8.64884474949064952e-01
58 53 8.51406432771169230e-01
59 53 8.42421071319238823e-01
60 53 8.37928390593273731e-01
61 53 8.37928390593273731e-01
62 53 8.42421071319238934e-01
63 53 8.51406432771169452e-01
64 53 8.64884474949064952e-01
65 53 8.82855197852925766e-01
66 53 9.05318601482751451e-01
67 53 9.32274685838542450e-01
68 53 9.63723450920298541e-01
69 53 9.81694173824159244e-01
1 54 9.49658978016437949e-01
2 54 9.32274685838542450e-01
3 54 9.01852174527225436e-01
4 54 8.75775736260382076e-01
5 54 8.54045371038012702e-01
6 54 8.36661078860117202e-01
7 54 8.23622859726695244e-01
8 54 8.14930713637747717e-01
9 54 8.10584640593273842e-01
10 54 8.10584640593273842e-01
11 54 8.14930713637747717e-01
12 54 8.23622859726695689e-01
13 54 8.36661078860117202e-01
14 54 8.54045371038012813e-01
15 54 8.75775736260382076e-01
16 54 9.01852174527225214e-01
17 54 9.32274685838542450e-01
18 54 9.49658978016437949e-01
19 54 9.32274685838542450e-01
20 54 9.01852174527225436e-01
21 54 8.75775736260382076e-01
22 54 8.54045371038012702e-01
23 54 8.36661078860117202e-01
24 54 8.23622859726695244e-01
25 54 8.14930713637747717e-01
26 54 8.10584640593273842e-01
27 54 8.10584640593273842e-01
28 54 8.14930713637747717e-01
29 54 8.23622859726695689e-01
30 54 8.36661078860117202e-01
31 54 8.54045371038012813e-01
32 54 8.75775736260382076e-01
33 54 9.01852174527225214e-01
34 54 9.32274685838542450e-01
35 54 9.49658978016437949e-01
36 54 9.32274685838542450e-01
37 54 9.01852174527225436e-01
38 54 8.75775736260382076e-01
39 54 8.54045371038012702e-01
40 54 8.36661078860117202e-01
41 54 8.23622859726695244e-01
42 54 8.14930713637747717e-01
43 54 8.10584640593273842e-01
44 54 8.10584640593273842e-01
45 54 8.14930713637747717e-01
46 54 8.23622859726695689e-01
47 54 8.36661078860117202e-01
48 54 8.54045371038012813e-01
49 54 8.75775736260382076e-01
50 54 9.01852174527225214e-01
51 54 9.32274685838542450e-01
52 54 9.49658978016437949e-01
53 54 9.32274685838542450e-01
54 54 9.01852174527225436e-01
55 54 8.75775736260382076e-01
56 54 8.54045371038012702e-01
57 54 8.36661078860117202e-01
58 54 8.23622859726695244e-01
59 54 8.14930713637747717e-01
60 54 8.10584640593273842e-01
61 54 8.10584640593273842e-01
62 54 8.14930713637747717e-01
63 54 8.23622859726695689e-01
64 54 8.36661078860117202e-01
65 54 8.54045371038012813e-01
66 54 8.75775736260382076e-01
67 54 9.01852174527225214e-01
68 54 9.32274685838542450e-01
69 54 9.49658978016437949e-01
1 55 9.22200238752676649e-01
2 55 9.05318601482751451e-01
3 55 8.75775736260382076e-01
4 55 8.50453280355494057e-01
5 55 8.29351233768087281e-01
6 55 8.12469596498161861e-01
7 55 7.99808368545717685e-01
8 55 7.91367549910755086e-01
9 55 7.87147140593273731e-01
10 55 7.87147140593273731e-01
11 55 7.91367549910755086e-01
12 55 7.99808368545718018e-01
13 55 8.12469596498162083e-01
14 55 8.29351233768087504e-01
15 55 8.50453280355494057e-01
16 55 8.75775736260381965e-01
17 55 9.05318601482751451e-01
18 55 9.22200238752676649e-01
19 55 9.05318601482751451e-01
20 55 8.75775736260382076e-01
21 55 8.50453280355494057e-01
22 55 8.29351233768087281e-01
23 55 8.12469596498161861e-01
24 55 7.99808368545717685e-01
25 55 7.91367549910755086e-01
26 55 7.87147140593273731e-01
27 55 7.87147140593273731e-01
28 55 7.91367549910755086e-01
29 55 7.99808368545718018e-01
30 55 8.12469596498162083e-01
31 55 8.29351233768087504e-01
32 55 8.50453280355494057e-01
33 55 8.75775736260381965e-01
34 55 9.05318601482751451e-01
35 55 9.22200238752676649e-01
36 55 9.05318601482751451e-01
37 55 8.75775736260382076e-01
38 55 8.50453280355494057e-01
39 55 8.29351233768087281e-01
40 55 8.12469596498161861e-01
41 55 7.99808368545717685e-01
42 55 7.91367549910755086e-01
43 55 7.87147140593273731e-01
44 55 7.87147140593273731e-01
45 55 7.91367549910755086e-01
46 55 7.99808368545718018e-01
47 55 8.12469596498162083e-01
48 55 8.29351233768087504e-01
49 55 8.50453280355494057e-01
50 55 8.75775736260381965e-01
51 55 9.05318601482751451e-01
52 55 9.22200238752676649e-01
53 55 9.05318601482751451e-01
54 55 8.75775736260382076e-01
55 55 8.50453280355494057e-01
56 55 8.29351233768087281e-01
57 55 8.12469596498161861e-01
58 55 7.99808368545717685e-01
59 55 7.91367549910755086e-01
60 55 7.87147140593273731e-01
61 55 7.87147140593273731e-01
62 55 7.91367549910755086e-01
63 55 7.99808368545718018e-01
64 55 8.12469596498162083e-01
65 55 8.29351233768087504e-01
66 55 8.50453280355494057e-01
67 55 8.75775736260381965e-01
68 55 9.05318601482751451e-01
69 55 9.22200238752676649e-01
1 56 8.99317956032875676e-01
2 56 8.82855197852925544e-01
3 56 8.54045371038012702e-01
4 56 8.29351233768087504e-01
5 56 8.08772786043149505e-01
6 56 7.92310027863199151e-01
7 56 7.79962959228236330e-01
8 56 7.71731580138261375e-01
9 56 7.67615890593273731e-01
10 56 7.67615890593273731e-01
11 56 7.71731580138261375e-01
12 56 7.79962959228236774e-01
13 56 7.92310027863199373e-01
14 56 8.08772786043149727e-01
15 56 8.29351233768087504e-01
16 56 8.54045371038012702e-01
17 56 8.82855197852925544e-01
18 56 8.99317956032875676e-01
19 56 8.82855197852925544e-01
20 56 8.54045371038012702e-01
21 56 8.29351233768087504e-01
22 56 8.08772786043149505e-01
23 56 7.92310027863199151e-01
24 56 7.79962959228236330e-01
25 56 7.71731580138261375e-01
26 56 7.67615890593273731e-01
27 56 7.67615890593273731e-01
28 56 7.71731580138261375e-01
29 56 7.79962959228236774e-01
30 56 7.92310027863199373e-01
31 56 8.08772786043149727e-01
32 56 8.29351233768087504e-01
33 56 8.54045371038012702e-01
34 56 8.82855197852925544e-01
35 56 8.99317956032875676e-01
36 56 8.82855197852925544e-01
37 56 8.54045371038012702e-01
38 56 8.29351233768087504e-01
39 56 8.08772786043149505e-01
40 56 7.92310027863199151e-01
41 56 7.79962959228236330e-01
42 56 7.71731580138261375e-01
43 56 7.67615890593273731e-01
44 56 7.67615890593273731e-01
45 56 7.71731580138261375e-01
46 56 7.79962959228236774e-01
47 56 7.92310027863199373e-01
48 56 8.08772786043149727e-01
49 56 8.29351233768087504e-01
50 56 8.54045371038012702e-01
51 56 8.82855197852925544e-01
52 56 8.99317956032875676e-01
53 56 8.82855197852925544e-01
54 56 8.54045371038012702e-01
55 56 8.29351233768087504e-01
56 56 8.08772786043149505e-01
57 56 7.92310027863199151e-01
58 56 7.79962959228236330e-01
59 56 7.71731580138261375e-01
60 56 7.67615890593273731e-01
61 56 7.67615890593273731e-01
62 56 7.71731580138261375e-01
63 56 7.79962959228236774e-01
64 56 7.92310027863199373e-01
65 56 8.08772786043149727e-01
66 56 8.29351233768087504e-01
67 56 8.54045371038012702e-01
68 56 8.82855197852925544e-01
69 56 8.99317956032875676e-01
1 57 8.81012129857034920e-01
2 57 8.64884474949064841e-01
3 57 8.36661078860117202e-01
4 57 8.12469596498162083e-01
5 57 7.92310027863199373e-01
6 57 7.76182372955229072e-01
7 57 7.64086631774251179e-01
8 57 7.56022804320266362e-01
9 57 7.51990890593273731e-01
10 57 7.51990890593273731e-01
11 57 7.56022804320266362e-01
12 57 7.64086631774251734e-01
13 57 7.76182372955229294e-01
14 57 7.92310027863199373e-01
15 57 8.12469596498162083e-01
16 57 8.36661078860117202e-01
17 57 8.64884474949064841e-01
18 57 8.81012129857034920e-01
19 57 8.64884474949064841e-01
20 57 8.36661078860117202e-01
21 57 8.12469596498162083e-01
22 57 7.92310027863199373e-01
23 57 7.76182372955229072e-01
24 57 7.64086631774251179e-01
25 57 7.56022804320266362e-01
26 57 7.51990890593273731e-01
27 57 7.51990890593273731e-01
28 57 7.56022804320266362e-01
29 57 7.64086631774251734e-01
30 57 7.76182372955229294e-01
31 57 7.92310027863199373e-01
32 57 8.12469596498162083e-01
33 57 8.36661078860117202e-01
34 57 8.64884474949064841e-01
35 57 8.81012129857034920e-01
36 57 8.64884474949064841e-01
37 57 8.36661078860117202e-01
38 57 8.12469596498162083e-01
39 57 7.92310027863199373e-01
40 57 7.76182372955229072e-01
41 57 7.64086631774251179e-01
42 57 7.56022804320266362e-01
43 57 7.51990890593273731e-01
44 57 7.51990890593273731e-01
45 57 7.56022804320266362e-01
46 57 7.64086631774251734e-01
47 57 7.76182372955229294e-01
48 57 7.92310027863199373e-01
49 57 8.12469596498162083e-01
50 57 8.36661078860117202e-01
51 57 8.64884474949064841e-01
52 57 8.81012129857034920e-01
53 57 8.64884474949064841e-01
54 57 8.36661078860117202e-01
55 57 8.12469596498162083e-01
56 57 7.92310027863199373e-01
57 57 7.76182372955229072e-01
58 57 7.64086631774251179e-01
59 57 7.56022804320266362e-01
60 57 7.51990890593273731e-01
61 57 7.51990890593273731e-01
62 57 7.56022804320266362e-01
63 57 7.64086631774251734e-01
64 57 7.76182372955229294e-01
65 57 7.92310027863199373e-01
66 57 8.12469596498162083e-01
67 57 8.36661078860117202e-01
68 57 8.64884474949064841e-01
69 57 8.81012129857034920e-01
1 58 8.67282760225154270e-01
2 58 8.51406432771169341e-01
3 58 8.23622859726695467e-01
4 58 7.99808368545718018e-01
5 58 7.79962959228236552e-01
6 58 7.64086631774251512e-01
7 58 7.52179386183762344e-01
8 58 7.44241222456770046e-01
9 58 7.40272140593273731e-01
10 58 7.40272140593273731e-01
11 58 7.44241222456770046e-01
12 58 7.52179386183762788e-01
13 58 7.64086631774251623e-01
14 58 7.79962959228236552e-01
15 58 7.99808368545718018e-01
16 58 8.23622859726695467e-01
17 58 8.51406432771169341e-01
18 58 8.67282760225154270e-01
19 58 8.51406432771169341e-01
20 58 8.23622859726695467e-01
21 58 7.99808368545718018e-01
22 58 7.79962959228236552e-01
23 58 7.64086631774251512e-01
24 58 7.52179386183762344e-01
25 58 7.44241222456770046e-01
26 58 7.40272140593273731e-01
27 58 7.40272140593273731e-01
28 58 7.44241222456770046e-01
29 58 7.52179386183762788e-01
30 58 7.64086631774251623e-01
31 58 7.79962959228236552e-01
32 58 7.99808368545718018e-01
33 58 8.23622859726695467e-01
34 58 8.51406432771169341e-01
35 58 8.67282760225154270e-01
36 58 8.51406432771169341e-01
37 58 8.23622859726695467e-01
38 58 7.99808368545718018e-01
39 58 7.79962959228236552e-01
40 58 7.64086631774251512e-01
41 58 7.52179386183762344e-01
42 58 7.44241222456770046e-01
43 58 7.40272140593273731e-01
44 58 7.40272140593273731e-01
45 58 7.44241222456770046e-01
46 58 7.52179386183762788e-01
47 58 7.64086631774251623e-01
48 58 7.79962959228236552e-01
49 58 7.99808368545718018e-01
50 58 8.23622859726695467e-01
51 58 8.51406432771169341e-01
52 58 8.67282760225154270e-01
53 58 8.51406432771169341e-01
54 58 8.23622859726695467e-01
55 58 7.99808368545718018e-01
56 58 7.79962959228236552e-01
57 58 7.64086631774251512e-01
58 58 7.52179386183762344e-01
59 58 7.44241222456770046e-01
60 58 7.40272140593273731e-01
61 58 7.40272140593273731e-01
62 58 7.44241222456770046e-01
63 58 7.52179386183762788e-01
64 58 7.64086631774251623e-01
65 58 7.79962959228236552e-01
66 58 7.99808368545718018e-01
67 58 8.23622859726695467e-01
68 58 8.51406432771169341e-01
69 58 8.67282760225154270e-01
1 59 8.58129847137233837e-01
2 59 8.42421071319239045e-01
3 59 8.14930713637747717e-01
4 59 7.91367549910755308e-01
5 59 7.71731580138261375e-01
6 59 7.56022804320266473e-01
7 59 7.44241222456769824e-01
8 59 7.36386834547772651e-01
9 59 7.32459640593273620e-01
10 59 7.32459640593273620e-01
11 59 7.36386834547772651e-01
12 59 7.44241222456770268e-01
13 59 7.56022804320266473e-01
14 59 7.71731580138261486e-01
15 59 7.91367549910755308e-01
16 59 8.14930713637747717e-01
17 59 8.42421071319239045e-01
18 59 8.58129847137233837e-01
19 59 8.42421071319239045e-01
20 59 8.14930713637747717e-01
21 59 7.91367549910755308e-01
22 59 7.71731580138261375e-01
23 59 7.56022804320266473e-01
24 59 7.44241222456769824e-01
25 59 7.36386834547772651e-01
26 59 7.32459640593273620e-01
27 59 7.32459640593273620e-01
28 59 7.36386834547772651e-01
29 59 7.44241222456770268e-01
30 59 7.56022804320266473e-01
31 59 7.71731580138261486e-01
32 59 7.91367549910755308e-01
33 59 8.14930713637747717e-01
34 59 8.42421071319239045e-01
35 59 8.58129847137233837e-01
36 59 8.42421071319239045e-01
37 59 8.14930713637747717e-01
38 59 7.91367549910755308e-01
39 59 7.71731580138261375e-01
40 59 7.56022804320266473e-01
41 59 7.44241222456769824e-01
42 59 7.36386834547772651e-01
43 59 7.32459640593273620e-01
44 59 7.32459640593273620e-01
45 59 7.36386834547772651e-01
46 59 7.44241222456770268e-01
47 59 7.56022804320266473e-01
48 59 7.71731580138261486e-01
49 59 7.91367549910755308e-01
50 59 8.14930713637747717e-01
51 59 8.42421071319239045e-01
52 59 8.58129847137233837e-01
53 59 8.42421071319239045e-01
54 59 8.14930713637747717e-01
55 59 7.91367549910755308e-01
56 59 7.71731580138261375e-01
57 59 7.56022804320266473e-01
58 59 7.44241222456769824e-01
59 59 7.36386834547772651e-01
60 59 7.32459640593273620e-01
61 59 7.32459640593273620e-01
62 59 7.36386834547772651e-01
63 59 7.44241222456770268e-01
64 59 7.56022804320266473e-01
65 59 7.71731580138261486e-01
66 59 7.91367549910755308e-01
67 59 8.14930713637747717e-01
68 59 8.42421071319239045e-01
69 59 8.58129847137233837e-01
1 60 8.53553390593273731e-01
2 60 8.37928390593273953e-01
3 60 8.10584640593273953e-01
4 60 7.87147140593273953e-01
5 60 7.67615890593273842e-01
6 60 7.51990890593273953e-01
7 60 7.40272140593273509e-01
8 60 7.32459640593273953e-01
9 60 7.28553390593273731e-01
10 60 7.28553390593273731e-01
11 60 7.32459640593273953e-01
12 60 7.40272140593273953e-01
13 60 7.51990890593273953e-01
14 60 7.67615890593273953e-01
15 60 7.87147140593273953e-01
16 60 8.10584640593273953e-01
17 60 8.37928390593273953e-01
18 60 8.53553390593273731e-01
19 60 8.37928390593273953e-01
20 60 8.10584640593273953e-01
21 60 7.87147140593273953e-01
22 60 7.67615890593273842e-01
23 60 7.51990890593273953e-01
24 60 7.40272140593273509e-01
25 60 7.32459640593273953e-01
26 60 7.28553390593273731e-01
27 60 7.28553390593273731e-01
28 60 7.32459640593273953e-01
29 60 7.40272140593273953e-01
30 60 7.51990890593273953e-01
31 60 7.67615890593273953e-01
32 60 7.87147140593273953e-01
33 60 8.10584640593273953e-01
34 60 8.37928390593273953e-01
35 60 8.53553390593273731e-01
36 60 8.37928390593273953e-01
37 60 8.10584640593273953e-01
38 60 7.87147140593273953e-01
39 60 7.67615890593273842e-01
40 60 7.51990890593273953e-01
41 60 7.40272140593273509e-01
42 60 7.32459640593273953e-01
43 60 7.28553390593273731e-01
44 60 7.28553390593273731e-01
45 60 7.32459640593273953e-01
46 60 7.40272140593273953e-01
47 60 7.51990890593273953e-01
48 60 7.67615890593273953e-01
49 60 7.87147140593273953e-01
50 60 8.10584640593273953e-01
51 60 8.37928390593273953e-01
52 60 8.53553390593273731e-01
53 60 8.37928390593273953e-01
54 60 8.10584640593273953e-01
55 60 7.87147140593273953e-01
56 60 7.67615890593273842e-01
57 60 7.51990890593273953e-01
58 60 7.40272140593273509e-01
59 60 7.32459640593273953e-01
60 60 7.28553390593273731e-01
61 60 7.28553390593273731e-01
62 60 7.32459640593273953e-01
63 60 7.40272140593273953e-01
64 60 7.51990890593273953e-01
65 60 7.67615890593273953e-01
66 60 7.87147140593273953e-01
67 60 8.10584640593273953e-01
68 60 8.37928390593273953e-01
69 60 8.53553390593273731e-01
1 61 8.53553390593273731e-01
2 61 8.37928390593273953e-01
3 61 8.10584640593273953e-01
4 61 7.87147140593273953e-01
5 61 7.67615890593273731e-01
6 61 7.51990890593273953e-01
7 61 7.40272140593273620e-01
8 61 7.32459640593273953e-01
9 61 7.28553390593273842e-01
10 61 7.28553390593273842e-01
11 61 7.32459640593273953e-01
12 61 7.40272140593273953e-01
13 61 7.51990890593274064e-01
14 61 7.67615890593273953e-01
15 61 7.87147140593274064e-01
16 61 8.10584640593273953e-01
17 61 8.37928390593273953e-01
18 61 8.53553390593273731e-01
19 61 8.37928390593273953e-01
20 61 8.10584640593273953e-01
21 61 7.87147140593273953e-01
22 61 7.67615890593273731e-01
23 61 7.51990890593273953e-01
24 61 7.40272140593273620e-01
25 61 7.32459640593273953e-01
26 61 7.28553390593273842e-01
27 61 7.28553390593273842e-01
28 61 7.32459640593273953e-01
29 61 7.40272140593273953e-01
30 61 7.51990890593274064e-01
31 61 7.67615890593273953e-01
32 61 7.87147140593274064e-01
33 61 8.10584640593273953e-01
34 61 8.37928390593273953e-01
35 61 8.53553390593273731e-01
36 61 8.37928390593273953e-01
37 61 8.10584640593273953e-01
38 61 7.87147140593273953e-01
39 61 7.67615890593273731e-01
40 61 7.51990890593273953e-01
41 61 7.40272140593273620e-01
42 61 7.32459640593273953e-01
43 61 7.28553390593273842e-01
44 61 7.28553390593273842e-01
45 61 7.32459640593273953e-01
46 61 7.40272140593273953e-01
47 61 7.51990890593274064e-01
48 61 7.67615890593273953e-01
49 61 7.87147140593274064e-01
50 61 8.10584640593273953e-01
51 61 8.37928390593273953e-01
52 61 8.53553390593273731e-01
53 61 8.37928390593273953e-01
54 61 8.10584640593273953e-01
55 61 7.87147140593273953e-01
56 61 7.67615890593273731e-01
57 61 7.51990890593273953e-01
58 61 7.40272140593273620e-01
59 61 7.32459640593273953e-01
60 61 7.28553390593273842e-01
61 61 7.28553390593273842e-01
62 61 7.32459640593273953e-01
63 61 7.40272140593273953e-01
64 61 7.51990890593274064e-01
65 61 7.67615890593273953e-01
66 61 7.87147140593274064e-01
67 61 8.10584640593273953e-01
68 61 8.37928390593273953e-01
69 61 8.53553390593273731e-01
1 62 8.58129847137233948e-01
2 62 8.42421071319239045e-01
3 62 8.14930713637747828e-01
4 62 7.91367549910755197e-01
5 62 7.71731580138261264e-01
6 62 7.56022804320266362e-01
7 62 7.44241222456769824e-01
8 62 7.36386834547772651e-01
9 62 7.32459640593273842e-01
10 62 7.32459640593273842e-01
11 62 7.36386834547772651e-01
12 62 7.44241222456770157e-01
13 62 7.56022804320266473e-01
14 62 7.71731580138261486e-01
15 62 7.91367549910755419e-01
16 62 8.14930713637747828e-01
17 62 8.42421071319239045e-01
18 62 8.58129847137233948e-01
19 62 8.42421071319239045e-01
20 62 8.14930713637747828e-01
21 62 7.91367549910755197e-01
22 62 7.71731580138261264e-01
23 62 7.56022804320266362e-01
24 62 7.44241222456769824e-01
25 62 7.36386834547772651e-01
26 62 7.32459640593273842e-01
27 62 7.32459640593273842e-01
28 62 7.36386834547772651e-01
29 62 7.44241222456770157e-01
30 62 7.56022804320266473e-01
31 62 7.71731580138261486e-01
32 62 7.91367549910755419e-01
33 62 8.14930713637747828e-01
34 62 8.42421071319239045e-01
35 62 8.58129847137233948e-01
36 62 8.42421071319239045e-01
37 62 8.14930713637747828e-01
38 62 7.91367549910755197e-01
39 62 7.71731580138261264e-01
40 62 7.56022804320266362e-01
41 62 7.44241222456769824e-01
42 62 7.36386834547772651e-01
43 62 7.32459640593273842e-01
44 62 7.32459640593273842e-01
45 62 7.36386834547772651e-01
46 62 7.44241222456770157e-01
47 62 7.56022804320266473e-01
48 62 7.71731580138261486e-01
49 62 7.91367549910755419e-01
50 62 8.14930713637747828e-01
51 62 8.42421071319239045e-01
52 62 8.58129847137233948e-01
53 62 8.42421071319239045e-01
54 62 8.14930713637747828e-01
55 62 7.91367549910755197e-01
56 62 7.71731580138261264e-01
57 62 7.56022804320266362e-01
58 62 7.44241222456769824e-01
59 62 7.36386834547772651e-01
60 62 7.32459640593273842e-01
61 62 7.32459640593273842e-01
62 62 7.36386834547772651e-01
63 62 7.44241222456770157e-01
64 62 7.56022804320266473e-01
65 62 7.71731580138261486e-01
66 62 7.91367549910755419e-01
67 62 8.14930713637747828e-01
68 62 8.42421071319239045e-01
69 62 8.58129847137233948e-01
1 63 8.67282760225154492e-01
2 63 8.51406432771169452e-01
3 63 8.23622859726695578e-01
4 63 7.99808368545717907e-01
5 63 7.79962959228236441e-01
6 63 7.64086631774251512e-01
7 63 7.52179386183762455e-01
8 63 7.44241222456770157e-01
9 63 7.40272140593273842e-01
10 63 7.40272140593273842e-01
11 63 7.44241222456770157e-01
12 63 7.52179386183762677e-01
13 63 7.64086631774251623e-01
14 63 7.79962959228236663e-01
15 63 7.99808368545718129e-01
16 63 8.23622859726695578e-01
17 63 8.51406432771169452e-01
18 63 8.67282760225154492e-01
19 63 8.51406432771169452e-01
20 63 8.23622859726695578e-01
21 63 7.99808368545717907e-01
22 63 7.79962959228236441e-01
23 63 7.64086631774251512e-01
24 63 7.52179386183762455e-01
25 63 7.44241222456770157e-01
26 63 7.40272140593273842e-01
27 63 7.40272140593273842e-01
28 63 7.44241222456770157e-01
29 63 7.52179386183762677e-01
30 63 7.64086631774251623e-01
31 63 7.79962959228236663e-01
32 63 7.99808368545718129e-01
33 63 8.23622859726695578e-01
34 63 8.51406432771169452e-01
35 63 8.67282760225154492e-01
36 63 8.51406432771169452e-01
37 63 8.23622859726695578e-01
38 63 7.99808368545717907e-01
39 63 7.79962959228236441e-01
40 63 7.64086631774251512e-01
41 63 7.52179386183762455e-01
42 63 7.44241222456770157e-01
43 63 7.40272140593273842e-01
44 63 7.40272140593273842e-01
45 63 7.44241222456770157e-01
46 63 7.52179386183762677e-01
47 63 7.64086631774251623e-01
48 63 7.79962959228236663e-01
49 63 7.99808368545718129e-01
50 63 8.23622859726695578e-01
51 63 8.51406432771169452e-01
52 63 8.67282760225154492e-01
53 63 8.51406432771169452e-01
54 63 8.23622859726695578e-01
55 63 7.99808368545717907e-01
56 63 7.79962959228236441e-01
57 63 7.64086631774251512e-01
58 63 7.52179386183762455e-01
59 63 7.44241222456770157e-01
60 63 7.40272140593273842e-01
61 63 7.40272140593273842e-01
62 63 7.44241222456770157e-01
63 63 7.52179386183762677e-01
64 63 7.64086631774251623e-01
65 63 7.79962959228236663e-01
66 63 7.99808368545718129e-01
67 63 8.23622859726695578e-01
68 63 8.51406432771169452e-01
69 63 8.67282760225154492e-01
1 64 8.81012129857035142e-01
2 64 8.64884474949064952e-01
3 64 8.36661078860117202e-01
4 64 8.12469596498161861e-01
5 64 7.92310027863199151e-01
6 64 7.76182372955229183e-01
7 64 7.64086631774251290e-01
8 64 7.56022804320266362e-01
9 64 7.51990890593273842e-01
10 64 7.51990890593273842e-01
11 64 7.56022804320266362e-01
12 64 7.64086631774251401e-01
13 64 7.76182372955229294e-01
14 64 7.92310027863199373e-01
15 64 8.12469596498162083e-01
16 64 8.36661078860117202e-01
17 64 8.64884474949064952e-01
18 64 8.81012129857035142e-01
19 64 8.64884474949064952e-01
20 64 8.36661078860117202e-01
21 64 8.12469596498161861e-01
22 64 7.92310027863199151e-01
23 64 7.76182372955229183e-01
24 64 7.64086631774251290e-01
25 64 7.56022804320266362e-01
26 64 7.51990890593273842e-01
27 64 7.51990890593273842e-01
28 64 7.56022804320266362e-01
29 64 7.64086631774251401e-01
30 64 7.76182372955229294e-01
31 64 7.92310027863199373e-01
32 64 8.12469596498162083e-01
33 64 8.36661078860117202e-01
34 64 8.64884474949064952e-01
35 64 8.81012129857035142e-01
36 64 8.64884474949064952e-01
37 64 8.36661078860117202e-01
38 64 8.12469596498161861e-01
39 64 7.92310027863199151e-01
40 64 7.76182372955229183e-01
41 64 7.64086631774251290e-01
42 64 7.56022804320266362e-01
43 64 7.51990890593273842e-01
44 64 7.51990890593273842e-01
45 64 7.56022804320266362e-01
46 64 7.64086631774251401e-01
47 64 7.76182372955229294e-01
48 64 7.92310027863199373e-01
49 64 8.12469596498162083e-01
50 64 8.36661078860117202e-01
51 64 8.64884474949064952e-01
52 64 8.81012129857035142e-01
53 64 8.64884474949064952e-01
54 64 8.36661078860117202e-01
55 64 8.12469596498161861e-01
56 64 7.92310027863199151e-01
57 64 7.76182372955229183e-01
58 64 7.64086631774251290e-01
59 64 7.56022804320266362e-01
60 64 7.51990890593273842e-01
61 64 7.51990890593273842e-01
62 64 7.56022804320266362e-01
63 64 7.64086631774251401e-01
64 64 7.76182372955229294e-01
65 64 7.92310027863199373e-01
66 64 8.12469596498162083e-01
67 64 8.36661078860117202e-01
68 64 8.64884474949064952e-01
69 64 8.81012129857035142e-01
1 65 8.99317956032875898e-01
2 65 8.82855197852925544e-01
3 65 8.54045371038012702e-01
4 65 8.29351233768087281e-01
5 65 8.08772786043149394e-01
6 65 7.92310027863199262e-01
7 65 7.79962959228236330e-01
8 65 7.71731580138261375e-01
9 65 7.67615890593273842e-01
10 65 7.67615890593273842e-01
11 65 7.71731580138261375e-01
12 65 7.79962959228236441e-01
13 65 7.92310027863199373e-01
14 65 8.08772786043149616e-01
15 65 8.29351233768087392e-01
16 65 8.54045371038012702e-01
17 65 8.82855197852925544e-01
18 65 8.99317956032875898e-01
19 65 8.82855197852925544e-01
20 65 8.54045371038012702e-01
21 65 8.29351233768087281e-01
22 65 8.08772786043149394e-01
23 65 7.92310027863199262e-01
24 65 7.79962959228236330e-01
25 65 7.71731580138261375e-01
26 65 7.67615890593273842e-01
27 65 7.67615890593273842e-01
28 65 7.71731580138261375e-01
29 65 7.79962959228236441e-01
30 65 7.92310027863199373e-01
31 65 8.08772786043149616e-01
32 65 8.29351233768087392e-01
33 65 8.54045371038012702e-01
34 65 8.82855197852925544e-01
35 65 8.99317956032875898e-01
36 65 8.82855197852925544e-01
37 65 8.54045371038012702e-01
38 65 8.29351233768087281e-01
39 65 8.08772786043149394e-01
40 65 7.92310027863199262e-01
41 65 7.79962959228236330e-01
42 65 7.71731580138261375e-01
43 65 7.67615890593273842e-01
44 65 7.67615890593273842e-01
45 65 7.71731580138261375e-01
46 65 7.79962959228236441e-01
47 65 7.92310027863199373e-01
48 65 8.08772786043149616e-01
49 65 8.29351233768087392e-01
50 65 8.54045371038012702e-01
51 65 8.82855197852925544e-01
52 65 8.99317956032875898e-01
53 65 8.82855197852925544e-01
54 65 8.54045371038012702e-01
55 65 8.29351233768087281e-01
56 65 8.08772786043149394e-01
57 65 7.92310027863199262e-01
58 65 7.79962959228236330e-01
59 65 7.71731580138261375e-01
60 65 7.67615890593273842e-01
61 65 7.67615890593273842e-01
62 65 7.71731580138261375e-01
63 65 7.79962959228236441e-01
64 65 7.92310027863199373e-01
65 65 8.08772786043149616e-01
66 65 8.29351233768087392e-01
67 65 8.54045371038012702e-01
68 65 8.82855197852925544e-01
69 65 8.99317956032875898e-01
1 66 9.22200238752676760e-01
2 66 9.05318601482751339e-01
3 66 8.75775736260381965e-01
4 66 8.50453280355493946e-01
5 66 8.29351233768087170e-01
6 66 8.12469596498161861e-01
7 66 7.99808368545717685e-01
8 66 7.91367549910755086e-01
9 66 7.87147140593273842e-01
10 66 7.87147140593273842e-01
11 66 7.91367549910755086e-01
12 66 7.99808368545717796e-01
13 66 8.12469596498161972e-01
14 66 8.29351233768087392e-01
15 66 8.50453280355494057e-01
16 66 8.75775736260381965e-01
17 66 9.05318601482751339e-01
18 66 9.22200238752676760e-01
19 66 9.05318601482751339e-01
20 66 8.75775736260381965e-01
21 66 8.50453280355493946e-01
22 66 8.29351233768087170e-01
23 66 8.12469596498161861e-01
24 66 7.99808368545717685e-01
25 66 7.91367549910755086e-01
26 66 7.87147140593273842e-01
27 66 7.87147140593273842e-01
28 66 7.91367549910755086e-01
29 66 7.99808368545717796e-01
30 66 8.12469596498161972e-01
31 66 8.29351233768087392e-01
32 66 8.50453280355494057e-01
33 66 8.75775736260381965e-01
34 66 9.05318601482751339e-01
35 66 9.22200238752676760e-01
36 66 9.05318601482751339e-01
37 66 8.75775736260381965e-01
38 66 8.50453280355493946e-01
39 66 8.29351233768087170e-01
40 66 8.12469596498161861e-01
41 66 7.99808368545717685e-01
42 66 7.91367549910755086e-01
43 66 7.87147140593273842e-01
44 66 7.87147140593273842e-01
45 66 7.91367549910755086e-01
46 66 7.99808368545717796e-01
47 66 8.12469596498161972e-01
48 66 8.29351233768087392e-01
49 66 8.50453280355494057e-01
50 66 8.75775736260381965e-01
51 66 9.05318601482751339e-01
52 66 9.22200238752676760e-01
53 66 9.05318601482751339e-01
54 66 8.75775736260381965e-01
55 66 8.50453280355493946e-01
56 66 8.29351233768087170e-01
57 66 8.12469596498161861e-01
58 66 7.99808368545717685e-01
59 66 7.91367549910755086e-01
60 66 7.87147140593273842e-01
61 66 7.87147140593273842e-01
62 66 7.91367549910755086e-01
63 66 7.99808368545717796e-01
64 66 8.12469596498161972e-01
65 66 8.29351233768087392e-01
66 66 8.50453280355494057e-01
67 66 8.75775736260381965e-01
68 66 9.05318601482751339e-01
69 66 9.22200238752676760e-01
1 67 9.49658978016437838e-01
2 67 9.32274685838542339e-01
3 67 9.01852174527225214e-01
4 67 8.75775736260381965e-01
5 67 8.54045371038012480e-01
6 67 8.36661078860116980e-01
7 67 8.23622859726695244e-01
8 67 8.14930713637747606e-01
9 67 8.10584640593273731e-01
10 67 8.10584640593273731e-01
11 67 8.14930713637747606e-01
12 67 8.23622859726695467e-01
13 67 8.36661078860117202e-01
14 67 8.54045371038012702e-01
15 67 8.75775736260382076e-01
16 67 9.01852174527225214e-01
17 67 9.32274685838542339e-01
18 67 9.49658978016437838e-01
19 67 9.32274685838542339e-01
20 67 9.01852174527225214e-01
21 67 8.75775736260381965e-01
22 67 8.54045371038012480e-01
23 67 8.36661078860116980e-01
24 67 8.23622859726695244e-01
25 67 8.14930713637747606e-01
26 67 8.10584640593273731e-01
27 67 8.10584640593273731e-01
28 67 8.14930713637747606e-01
29 67 8.23622859726695467e-01
30 67 8.36661078860117202e-01
31 67 8.54045371038012702e-01
32 67 8.75775736260382076e-01
33 67 9.01852174527225214e-01
34 67 9.32274685838542339e-01
35 67 9.49658978016437838e-01
36 67 9.32274685838542339e-01
37 67 9.01852174527225214e-01
38 67 8.75775736260381965e-01
39 67 8.54045371038012480e-01
40 67 8.36661078860116980e-01
41 67 8.23622859726695244e-01
42 67 8.14930713637747606e-01
43 67 8.10584640593273731e-01
44 67 8.10584640593273731e-01
45 67 8.14930713637747606e-01
46 67 8.23622859726695467e-01
47 67 8.36661078860117202e-01
48 67 8.54045371038012702e-01
49 67 8.75775736260382076e-01
50 67 9.01852174527225214e-01
51 67 9.32274685838542339e-01
52 67 9.49658978016437838e-01
53 67 9.32274685838542339e-01
54 67 9.01852174527225214e-01
55 67 8.75775736260381965e-01
56 67 8.54045371038012480e-01
57 67 8.36661078860116980e-01
58 67 8.23622859726695244e-01
59 67 8.14930713637747606e-01
60 67 8.10584640593273731e-01
61 67 8.10584640593273731e-01
62 67 8.14930713637747606e-01
63 67 8.23622859726695467e-01
64 67 8.36661078860117202e-01
65 67 8.54045371038012702e-01
66 67 8.75775736260382076e-01
67 67 9.01852174527225214e-01
68 67 9.32274685838542339e-01
69 67 9.49658978016437838e-01
1 68 9.81694173824159244e-01
2 68 9.63723450920298541e-01
3 68 9.32274685838542450e-01
4 68 9.05318601482751339e-01
5 68 8.82855197852925433e-01
6 68 8.64884474949064730e-01
7 68 8.51406432771169119e-01
8 68 8.42421071319238823e-01
9 68 8.37928390593273731e-01
10 68 8.37928390593273731e-01
11 68 8.42421071319238934e-01
12 68 8.51406432771169341e-01
13 68 8.64884474949064952e-01
14 68 8.82855197852925655e-01
15 68 9.05318601482751451e-01
16 68 9.32274685838542339e-01
17 68 9.63723450920298541e-01
18 68 9.81694173824159244e-01
19 68 9.63723450920298541e-01
20 68 9.32274685838542450e-01
21 68 9.05318601482751339e-01
22 68 8.82855197852925433e-01
23 68 8.64884474949064730e-01
24 68 8.51406432771169119e-01
25 68 8.42421071319238823e-01
26 68 8.37928390593273731e-01
27 68 8.37928390593273731e-01
28 68 8.42421071319238934e-01
29 68 8.51406432771169341e-01
30 68 8.64884474949064952e-01
31 68 8.82855197852925655e-01
32 68 9.05318601482751451e-01
33 68 9.32274685838542339e-01
34 68 9.63723450920298541e-01
35 68 9.81694173824159244e-01
36 68 9.63723450920298541e-01
37 68 9.32274685838542450e-01
38 68 9.05318601482751339e-01
39 68 8.82855197852925433e-01
40 68 8.64884474949064730e-01
41 68 8.51406432771169119e-01
42 68 8.42421071319238823e-01
43 68 8.37928390593273731e-01
44 68 8.37928390593273731e-01
45 68 8.42421071319238934e-01
46 68 8.51406432771169341e-01
47 68 8.64884474949064952e-01
48 68 8.82855197852925655e-01
49 68 9.05318601482751451e-01
50 68 9.32274685838542339e-01
51 68 9.63723450920298541e-01
52 68 9.81694173824159244e-01
53 68 9.63723450920298541e-01
54 68 9.32274685838542450e-01
55 68 9.05318601482751339e-01
56 68 8.82855197852925433e-01
57 68 8.64884474949064730e-01
58 68 8.51406432771169119e-01
59 68 8.42421071319238823e-01
60 68 8.37928390593273731e-01
61 68 8.37928390593273731e-01
62 68 8.42421071319238934e-01
63 68 8.51406432771169341e-01
64 68 8.64884474949064952e-01
65 68 8.82855197852925655e-01
66 68 9.05318601482751451e-01
67 68 9.32274685838542339e-01
68 68 9.63723450920298541e-01
69 68 9.81694173824159244e-01
1 69 1.00000000000000000e+00
2 69 9.81694173824159244e-01
3 69 9.49658978016437949e-01
4 69 9.22200238752676649e-01
5 69 8.99317956032875676e-01
6 69 8.81012129857034920e-01
7 69 8.67282760225154270e-01
8 69 8.58129847137233837e-01
9 69 8.53553390593273731e-01
10 69 8.53553390593273731e-01
11 69 8.58129847137233948e-01
12 69 8.67282760225154492e-01
13 69 8.81012129857035142e-01
14 69 8.99317956032875898e-01
15 69 9.22200238752676760e-01
16 69 9.49658978016437838e-01
17 69 9.81694173824159244e-01
18 69 1.00000000000000000e+00
19 69 9.81694173824159244e-01
20 69 9.49658978016437949e-01
21 69 9.22200238752676649e-01
22 69 8.99317956032875676e-01
23 69 8.81012129857034920e-01
24 69 8.67282760225154270e-01
25 69 8.58129847137233837e-01
26 69 8.53553390593273731e-01
27 69 8.53553390593273731e-01
28 69 8.58129847137233948e-01
29 69 8.67282760225154492e-01
30 69 8.81012129857035142e-01
31 69 8.99317956032875898e-01
32 69 9.22200238752676760e-01
33 69 9.49658978016437838e-01
34 69 9.81694173824159244e-01
35 69 1.00000000000000000e+00
36 69 9.81694173824159244e-01
37 69 9.49658978016437949e-01
38 69 9.22200238752676649e-01
39 69 8.99317956032875676e-01
40 69 8.81012129857034920e-01
41 69 8.67282760225154270e-01
42 69 8.58129847137233837e-01
43 69 8.53553390593273731e-01
44 69 8.53553390593273731e-01
45 69 8.58129847137233948e-01
46 69 8.67282760225154492e-01
47 69 8.81012129857035142e-01
48 69 8.99317956032875898e-01
49 69 9.22200238752676760e-01
50 69 9.49658978016437838e-01
51 69 9.81694173824159244e-01
52 69 1.00000000000000000e+00
53 69 9.81694173824159244e-01
54 69 9.49658978016437949e-01
55 69 9.22200238752676649e-01
56 69 8.99317956032875676e-01
57 69 8.81012129857034920e-01
58 69 8.67282760225154270e-01
59 69 8.58129847137233837e-01
60 69 8.53553390593273731e-01
61 69 8.53553390593273731e-01
62 69 8.58129847137233948e-01
63 69 8.67282760225154492e-01
64 69 8.81012129857035142e-01
65 69 8.99317956032875898e-01
66 69 9.22200238752676760e-01
67 69 9.49658978016437838e-01
68 69 9.81694173824159244e-01
69 69 1.00000000000000000e+00
