%%MatrixMarket matrix coordinate  real general
1 261 261
1 1 0.00000000000000000e+00
1 2 0.00000000000000000e+00
1 3 0.00000000000000000e+00
1 4 3.90625000000000000e-03
1 5 7.81250000000000000e-03
1 6 1.17187500000000000e-02
1 7 1.56250000000000000e-02
1 8 1.95312500000000000e-02
1 9 2.34375000000000000e-02
1 10 2.73437500000000000e-02
1 11 3.12500000000000000e-02
1 12 3.51562500000000000e-02
1 13 3.90625000000000000e-02
1 14 4.29687500000000000e-02
1 15 4.68750000000000000e-02
1 16 5.07812500000000000e-02
1 17 5.46875000000000000e-02
1 18 5.85937500000000000e-02
1 19 6.25000000000000000e-02
1 20 6.64062500000000000e-02
1 21 7.03125000000000000e-02
1 22 7.42187500000000000e-02
1 23 7.81250000000000000e-02
1 24 8.20312500000000000e-02
1 25 8.59375000000000000e-02
1 26 8.98437500000000000e-02
1 27 9.37500000000000000e-02
1 28 9.76562500000000000e-02
1 29 1.01562500000000000e-01
1 30 1.05468750000000000e-01
1 31 1.09375000000000000e-01
1 32 1.13281250000000000e-01
1 33 1.17187500000000000e-01
1 34 1.21093750000000000e-01
1 35 1.25000000000000000e-01
1 36 1.28906250000000000e-01
1 37 1.32812500000000000e-01
1 38 1.36718750000000000e-01
1 39 1.40625000000000000e-01
1 40 1.44531250000000000e-01
1 41 1.48437500000000000e-01
1 42 1.52343750000000000e-01
1 43 1.56250000000000000e-01
1 44 1.60156250000000000e-01
1 45 1.64062500000000000e-01
1 46 1.67968750000000000e-01
1 47 1.71875000000000000e-01
1 48 1.75781250000000000e-01
1 49 1.79687500000000000e-01
1 50 1.83593750000000000e-01
1 51 1.87500000000000000e-01
1 52 1.91406250000000000e-01
1 53 1.95312500000000000e-01
1 54 1.99218750000000000e-01
1 55 2.03125000000000000e-01
1 56 2.07031250000000000e-01
1 57 2.10937500000000000e-01
1 58 2.14843750000000000e-01
1 59 2.18750000000000000e-01
1 60 2.22656250000000000e-01
1 61 2.26562500000000000e-01
1 62 2.30468750000000000e-01
1 63 2.34375000000000000e-01
1 64 2.38281250000000000e-01
1 65 2.42187500000000000e-01
1 66 2.46093750000000000e-01
1 67 2.50000000000000000e-01
1 68 2.53906250000000000e-01
1 69 2.57812500000000000e-01
1 70 2.61718750000000000e-01
1 71 2.65625000000000000e-01
1 72 2.69531250000000000e-01
1 73 2.73437500000000000e-01
1 74 2.77343750000000000e-01
1 75 2.81250000000000000e-01
1 76 2.85156250000000000e-01
1 77 2.89062500000000000e-01
1 78 2.92968750000000000e-01
1 79 2.96875000000000000e-01
1 80 3.00781250000000000e-01
1 81 3.04687500000000000e-01
1 82 3.08593750000000000e-01
1 83 3.12500000000000000e-01
1 84 3.16406250000000000e-01
1 85 3.20312500000000000e-01
1 86 3.24218750000000000e-01
1 87 3.28125000000000000e-01
1 88 3.32031250000000000e-01
1 89 3.35937500000000000e-01
1 90 3.39843750000000000e-01
1 91 3.43750000000000000e-01
1 92 3.47656250000000000e-01
1 93 3.51562500000000000e-01
1 94 3.55468750000000000e-01
1 95 3.59375000000000000e-01
1 96 3.63281250000000000e-01
1 97 3.67187500000000000e-01
1 98 3.71093750000000000e-01
1 99 3.75000000000000000e-01
1 100 3.78906250000000000e-01
1 101 3.82812500000000000e-01
1 102 3.86718750000000000e-01
1 103 3.90625000000000000e-01
1 104 3.94531250000000000e-01
1 105 3.98437500000000000e-01
1 106 4.02343750000000000e-01
1 107 4.06250000000000000e-01
1 108 4.10156250000000000e-01
1 109 4.14062500000000000e-01
1 110 4.17968750000000000e-01
1 111 4.21875000000000000e-01
1 112 4.25781250000000000e-01
1 113 4.29687500000000000e-01
1 114 4.33593750000000000e-01
1 115 4.37500000000000000e-01
1 116 4.41406250000000000e-01
1 117 4.45312500000000000e-01
1 118 4.49218750000000000e-01
1 119 4.53125000000000000e-01
1 120 4.57031250000000000e-01
1 121 4.60937500000000000e-01
1 122 4.64843750000000000e-01
1 123 4.68750000000000000e-01
1 124 4.72656250000000000e-01
1 125 4.76562500000000000e-01
1 126 4.80468750000000000e-01
1 127 4.84375000000000000e-01
1 128 4.88281250000000000e-01
1 129 4.92187500000000000e-01
1 130 4.96093750000000000e-01
1 131 5.00000000000000000e-01
1 132 5.03906250000000000e-01
1 133 5.07812500000000000e-01
1 134 5.11718750000000000e-01
1 135 5.15625000000000000e-01
1 136 5.19531250000000000e-01
1 137 5.23437500000000000e-01
1 138 5.27343750000000000e-01
1 139 5.31250000000000000e-01
1 140 5.35156250000000000e-01
1 141 5.39062500000000000e-01
1 142 5.42968750000000000e-01
1 143 5.46875000000000000e-01
1 144 5.50781250000000000e-01
1 145 5.54687500000000000e-01
1 146 5.58593750000000000e-01
1 147 5.62500000000000000e-01
1 148 5.66406250000000000e-01
1 149 5.70312500000000000e-01
1 150 5.74218750000000000e-01
1 151 5.78125000000000000e-01
1 152 5.82031250000000000e-01
1 153 5.85937500000000000e-01
1 154 5.89843750000000000e-01
1 155 5.93750000000000000e-01
1 156 5.97656250000000000e-01
1 157 6.01562500000000000e-01
1 158 6.05468750000000000e-01
1 159 6.09375000000000000e-01
1 160 6.13281250000000000e-01
1 161 6.17187500000000000e-01
1 162 6.21093750000000000e-01
1 163 6.25000000000000000e-01
1 164 6.28906250000000000e-01
1 165 6.32812500000000000e-01
1 166 6.36718750000000000e-01
1 167 6.40625000000000000e-01
1 168 6.44531250000000000e-01
1 169 6.48437500000000000e-01
1 170 6.52343750000000000e-01
1 171 6.56250000000000000e-01
1 172 6.60156250000000000e-01
1 173 6.64062500000000000e-01
1 174 6.67968750000000000e-01
1 175 6.71875000000000000e-01
1 176 6.75781250000000000e-01
1 177 6.79687500000000000e-01
1 178 6.83593750000000000e-01
1 179 6.87500000000000000e-01
1 180 6.91406250000000000e-01
1 181 6.95312500000000000e-01
1 182 6.99218750000000000e-01
1 183 7.03125000000000000e-01
1 184 7.07031250000000000e-01
1 185 7.10937500000000000e-01
1 186 7.14843750000000000e-01
1 187 7.18750000000000000e-01
1 188 7.22656250000000000e-01
1 189 7.26562500000000000e-01
1 190 7.30468750000000000e-01
1 191 7.34375000000000000e-01
1 192 7.38281250000000000e-01
1 193 7.42187500000000000e-01
1 194 7.46093750000000000e-01
1 195 7.50000000000000000e-01
1 196 7.53906250000000000e-01
1 197 7.57812500000000000e-01
1 198 7.61718750000000000e-01
1 199 7.65625000000000000e-01
1 200 7.69531250000000000e-01
1 201 7.73437500000000000e-01
1 202 7.77343750000000000e-01
1 203 7.81250000000000000e-01
1 204 7.85156250000000000e-01
1 205 7.89062500000000000e-01
1 206 7.92968750000000000e-01
1 207 7.96875000000000000e-01
1 208 8.00781250000000000e-01
1 209 8.04687500000000000e-01
1 210 8.08593750000000000e-01
1 211 8.12500000000000000e-01
1 212 8.16406250000000000e-01
1 213 8.20312500000000000e-01
1 214 8.24218750000000000e-01
1 215 8.28125000000000000e-01
1 216 8.32031250000000000e-01
1 217 8.35937500000000000e-01
1 218 8.39843750000000000e-01
1 219 8.43750000000000000e-01
1 220 8.47656250000000000e-01
1 221 8.51562500000000000e-01
1 222 8.55468750000000000e-01
1 223 8.59375000000000000e-01
1 224 8.63281250000000000e-01
1 225 8.67187500000000000e-01
1 226 8.71093750000000000e-01
1 227 8.75000000000000000e-01
1 228 8.78906250000000000e-01
1 229 8.82812500000000000e-01
1 230 8.86718750000000000e-01
1 231 8.90625000000000000e-01
1 232 8.94531250000000000e-01
1 233 8.98437500000000000e-01
1 234 9.02343750000000000e-01
1 235 9.06250000000000000e-01
1 236 9.10156250000000000e-01
1 237 9.14062500000000000e-01
1 238 9.17968750000000000e-01
1 239 9.21875000000000000e-01
1 240 9.25781250000000000e-01
1 241 9.29687500000000000e-01
1 242 9.33593750000000000e-01
1 243 9.37500000000000000e-01
1 244 9.41406250000000000e-01
1 245 9.45312500000000000e-01
1 246 9.49218750000000000e-01
1 247 9.53125000000000000e-01
1 248 9.57031250000000000e-01
1 249 9.60937500000000000e-01
1 250 9.64843750000000000e-01
1 251 9.68750000000000000e-01
1 252 9.72656250000000000e-01
1 253 9.76562500000000000e-01
1 254 9.80468750000000000e-01
1 255 9.84375000000000000e-01
1 256 9.88281250000000000e-01
1 257 9.92187500000000000e-01
1 258 9.96093750000000000e-01
1 259 1.00000000000000000e+00
1 260 1.00000000000000000e+00
1 261 1.00000000000000000e+00
