%%MatrixMarket matrix coordinate  real general
34 34 1156
1 1 0.00000000000000000e+00
2 1 0.00000000000000000e+00
3 1 0.00000000000000000e+00
4 1 0.00000000000000000e+00
5 1 0.00000000000000000e+00
6 1 0.00000000000000000e+00
7 1 0.00000000000000000e+00
8 1 0.00000000000000000e+00
9 1 0.00000000000000000e+00
10 1 0.00000000000000000e+00
11 1 0.00000000000000000e+00
12 1 0.00000000000000000e+00
13 1 0.00000000000000000e+00
14 1 0.00000000000000000e+00
15 1 0.00000000000000000e+00
16 1 0.00000000000000000e+00
17 1 0.00000000000000000e+00
18 1 0.00000000000000000e+00
19 1 0.00000000000000000e+00
20 1 0.00000000000000000e+00
21 1 0.00000000000000000e+00
22 1 0.00000000000000000e+00
23 1 0.00000000000000000e+00
24 1 0.00000000000000000e+00
25 1 0.00000000000000000e+00
26 1 0.00000000000000000e+00
27 1 0.00000000000000000e+00
28 1 0.00000000000000000e+00
29 1 0.00000000000000000e+00
30 1 0.00000000000000000e+00
31 1 0.00000000000000000e+00
32 1 0.00000000000000000e+00
33 1 0.00000000000000000e+00
34 1 0.00000000000000000e+00
1 2 1.56250000000000000e-02
2 2 1.56250000000000000e-02
3 2 1.56250000000000000e-02
4 2 1.56250000000000000e-02
5 2 1.56250000000000000e-02
6 2 1.56250000000000000e-02
7 2 1.56250000000000000e-02
8 2 1.56250000000000000e-02
9 2 1.56250000000000000e-02
10 2 1.56250000000000000e-02
11 2 1.56250000000000000e-02
12 2 1.56250000000000000e-02
13 2 1.56250000000000000e-02
14 2 1.56250000000000000e-02
15 2 1.56250000000000000e-02
16 2 1.56250000000000000e-02
17 2 1.56250000000000000e-02
18 2 1.56250000000000000e-02
19 2 1.56250000000000000e-02
20 2 1.56250000000000000e-02
21 2 1.56250000000000000e-02
22 2 1.56250000000000000e-02
23 2 1.56250000000000000e-02
24 2 1.56250000000000000e-02
25 2 1.56250000000000000e-02
26 2 1.56250000000000000e-02
27 2 1.56250000000000000e-02
28 2 1.56250000000000000e-02
29 2 1.56250000000000000e-02
30 2 1.56250000000000000e-02
31 2 1.56250000000000000e-02
32 2 1.56250000000000000e-02
33 2 1.56250000000000000e-02
34 2 1.56250000000000000e-02
1 3 4.68750000000000000e-02
2 3 4.68750000000000000e-02
3 3 4.68750000000000000e-02
4 3 4.68750000000000000e-02
5 3 4.68750000000000000e-02
6 3 4.68750000000000000e-02
7 3 4.68750000000000000e-02
8 3 4.68750000000000000e-02
9 3 4.68750000000000000e-02
10 3 4.68750000000000000e-02
11 3 4.68750000000000000e-02
12 3 4.68750000000000000e-02
13 3 4.68750000000000000e-02
14 3 4.68750000000000000e-02
15 3 4.68750000000000000e-02
16 3 4.68750000000000000e-02
17 3 4.68750000000000000e-02
18 3 4.68750000000000000e-02
19 3 4.68750000000000000e-02
20 3 4.68750000000000000e-02
21 3 4.68750000000000000e-02
22 3 4.68750000000000000e-02
23 3 4.68750000000000000e-02
24 3 4.68750000000000000e-02
25 3 4.68750000000000000e-02
26 3 4.68750000000000000e-02
27 3 4.68750000000000000e-02
28 3 4.68750000000000000e-02
29 3 4.68750000000000000e-02
30 3 4.68750000000000000e-02
31 3 4.68750000000000000e-02
32 3 4.68750000000000000e-02
33 3 4.68750000000000000e-02
34 3 4.68750000000000000e-02
1 4 7.81250000000000000e-02
2 4 7.81250000000000000e-02
3 4 7.81250000000000000e-02
4 4 7.81250000000000000e-02
5 4 7.81250000000000000e-02
6 4 7.81250000000000000e-02
7 4 7.81250000000000000e-02
8 4 7.81250000000000000e-02
9 4 7.81250000000000000e-02
10 4 7.81250000000000000e-02
11 4 7.81250000000000000e-02
12 4 7.81250000000000000e-02
13 4 7.81250000000000000e-02
14 4 7.81250000000000000e-02
15 4 7.81250000000000000e-02
16 4 7.81250000000000000e-02
17 4 7.81250000000000000e-02
18 4 7.81250000000000000e-02
19 4 7.81250000000000000e-02
20 4 7.81250000000000000e-02
21 4 7.81250000000000000e-02
22 4 7.81250000000000000e-02
23 4 7.81250000000000000e-02
24 4 7.81250000000000000e-02
25 4 7.81250000000000000e-02
26 4 7.81250000000000000e-02
27 4 7.81250000000000000e-02
28 4 7.81250000000000000e-02
29 4 7.81250000000000000e-02
30 4 7.81250000000000000e-02
31 4 7.81250000000000000e-02
32 4 7.81250000000000000e-02
33 4 7.81250000000000000e-02
34 4 7.81250000000000000e-02
1 5 1.09375000000000000e-01
2 5 1.09375000000000000e-01
3 5 1.09375000000000000e-01
4 5 1.09375000000000000e-01
5 5 1.09375000000000000e-01
6 5 1.09375000000000000e-01
7 5 1.09375000000000000e-01
8 5 1.09375000000000000e-01
9 5 1.09375000000000000e-01
10 5 1.09375000000000000e-01
11 5 1.09375000000000000e-01
12 5 1.09375000000000000e-01
13 5 1.09375000000000000e-01
14 5 1.09375000000000000e-01
15 5 1.09375000000000000e-01
16 5 1.09375000000000000e-01
17 5 1.09375000000000000e-01
18 5 1.09375000000000000e-01
19 5 1.09375000000000000e-01
20 5 1.09375000000000000e-01
21 5 1.09375000000000000e-01
22 5 1.09375000000000000e-01
23 5 1.09375000000000000e-01
24 5 1.09375000000000000e-01
25 5 1.09375000000000000e-01
26 5 1.09375000000000000e-01
27 5 1.09375000000000000e-01
28 5 1.09375000000000000e-01
29 5 1.09375000000000000e-01
30 5 1.09375000000000000e-01
31 5 1.09375000000000000e-01
32 5 1.09375000000000000e-01
33 5 1.09375000000000000e-01
34 5 1.09375000000000000e-01
1 6 1.40625000000000000e-01
2 6 1.40625000000000000e-01
3 6 1.40625000000000000e-01
4 6 1.40625000000000000e-01
5 6 1.40625000000000000e-01
6 6 1.40625000000000000e-01
7 6 1.40625000000000000e-01
8 6 1.40625000000000000e-01
9 6 1.40625000000000000e-01
10 6 1.40625000000000000e-01
11 6 1.40625000000000000e-01
12 6 1.40625000000000000e-01
13 6 1.40625000000000000e-01
14 6 1.40625000000000000e-01
15 6 1.40625000000000000e-01
16 6 1.40625000000000000e-01
17 6 1.40625000000000000e-01
18 6 1.40625000000000000e-01
19 6 1.40625000000000000e-01
20 6 1.40625000000000000e-01
21 6 1.40625000000000000e-01
22 6 1.40625000000000000e-01
23 6 1.40625000000000000e-01
24 6 1.40625000000000000e-01
25 6 1.40625000000000000e-01
26 6 1.40625000000000000e-01
27 6 1.40625000000000000e-01
28 6 1.40625000000000000e-01
29 6 1.40625000000000000e-01
30 6 1.40625000000000000e-01
31 6 1.40625000000000000e-01
32 6 1.40625000000000000e-01
33 6 1.40625000000000000e-01
34 6 1.40625000000000000e-01
1 7 1.71875000000000000e-01
2 7 1.71875000000000000e-01
3 7 1.71875000000000000e-01
4 7 1.71875000000000000e-01
5 7 1.71875000000000000e-01
6 7 1.71875000000000000e-01
7 7 1.71875000000000000e-01
8 7 1.71875000000000000e-01
9 7 1.71875000000000000e-01
10 7 1.71875000000000000e-01
11 7 1.71875000000000000e-01
12 7 1.71875000000000000e-01
13 7 1.71875000000000000e-01
14 7 1.71875000000000000e-01
15 7 1.71875000000000000e-01
16 7 1.71875000000000000e-01
17 7 1.71875000000000000e-01
18 7 1.71875000000000000e-01
19 7 1.71875000000000000e-01
20 7 1.71875000000000000e-01
21 7 1.71875000000000000e-01
22 7 1.71875000000000000e-01
23 7 1.71875000000000000e-01
24 7 1.71875000000000000e-01
25 7 1.71875000000000000e-01
26 7 1.71875000000000000e-01
27 7 1.71875000000000000e-01
28 7 1.71875000000000000e-01
29 7 1.71875000000000000e-01
30 7 1.71875000000000000e-01
31 7 1.71875000000000000e-01
32 7 1.71875000000000000e-01
33 7 1.71875000000000000e-01
34 7 1.71875000000000000e-01
1 8 2.03125000000000000e-01
2 8 2.03125000000000000e-01
3 8 2.03125000000000000e-01
4 8 2.03125000000000000e-01
5 8 2.03125000000000000e-01
6 8 2.03125000000000000e-01
7 8 2.03125000000000000e-01
8 8 2.03125000000000000e-01
9 8 2.03125000000000000e-01
10 8 2.03125000000000000e-01
11 8 2.03125000000000000e-01
12 8 2.03125000000000000e-01
13 8 2.03125000000000000e-01
14 8 2.03125000000000000e-01
15 8 2.03125000000000000e-01
16 8 2.03125000000000000e-01
17 8 2.03125000000000000e-01
18 8 2.03125000000000000e-01
19 8 2.03125000000000000e-01
20 8 2.03125000000000000e-01
21 8 2.03125000000000000e-01
22 8 2.03125000000000000e-01
23 8 2.03125000000000000e-01
24 8 2.03125000000000000e-01
25 8 2.03125000000000000e-01
26 8 2.03125000000000000e-01
27 8 2.03125000000000000e-01
28 8 2.03125000000000000e-01
29 8 2.03125000000000000e-01
30 8 2.03125000000000000e-01
31 8 2.03125000000000000e-01
32 8 2.03125000000000000e-01
33 8 2.03125000000000000e-01
34 8 2.03125000000000000e-01
1 9 2.34375000000000000e-01
2 9 2.34375000000000000e-01
3 9 2.34375000000000000e-01
4 9 2.34375000000000000e-01
5 9 2.34375000000000000e-01
6 9 2.34375000000000000e-01
7 9 2.34375000000000000e-01
8 9 2.34375000000000000e-01
9 9 2.34375000000000000e-01
10 9 2.34375000000000000e-01
11 9 2.34375000000000000e-01
12 9 2.34375000000000000e-01
13 9 2.34375000000000000e-01
14 9 2.34375000000000000e-01
15 9 2.34375000000000000e-01
16 9 2.34375000000000000e-01
17 9 2.34375000000000000e-01
18 9 2.34375000000000000e-01
19 9 2.34375000000000000e-01
20 9 2.34375000000000000e-01
21 9 2.34375000000000000e-01
22 9 2.34375000000000000e-01
23 9 2.34375000000000000e-01
24 9 2.34375000000000000e-01
25 9 2.34375000000000000e-01
26 9 2.34375000000000000e-01
27 9 2.34375000000000000e-01
28 9 2.34375000000000000e-01
29 9 2.34375000000000000e-01
30 9 2.34375000000000000e-01
31 9 2.34375000000000000e-01
32 9 2.34375000000000000e-01
33 9 2.34375000000000000e-01
34 9 2.34375000000000000e-01
1 10 2.65625000000000000e-01
2 10 2.65625000000000000e-01
3 10 2.65625000000000000e-01
4 10 2.65625000000000000e-01
5 10 2.65625000000000000e-01
6 10 2.65625000000000000e-01
7 10 2.65625000000000000e-01
8 10 2.65625000000000000e-01
9 10 2.65625000000000000e-01
10 10 2.65625000000000000e-01
11 10 2.65625000000000000e-01
12 10 2.65625000000000000e-01
13 10 2.65625000000000000e-01
14 10 2.65625000000000000e-01
15 10 2.65625000000000000e-01
16 10 2.65625000000000000e-01
17 10 2.65625000000000000e-01
18 10 2.65625000000000000e-01
19 10 2.65625000000000000e-01
20 10 2.65625000000000000e-01
21 10 2.65625000000000000e-01
22 10 2.65625000000000000e-01
23 10 2.65625000000000000e-01
24 10 2.65625000000000000e-01
25 10 2.65625000000000000e-01
26 10 2.65625000000000000e-01
27 10 2.65625000000000000e-01
28 10 2.65625000000000000e-01
29 10 2.65625000000000000e-01
30 10 2.65625000000000000e-01
31 10 2.65625000000000000e-01
32 10 2.65625000000000000e-01
33 10 2.65625000000000000e-01
34 10 2.65625000000000000e-01
1 11 2.96875000000000000e-01
2 11 2.96875000000000000e-01
3 11 2.96875000000000000e-01
4 11 2.96875000000000000e-01
5 11 2.96875000000000000e-01
6 11 2.96875000000000000e-01
7 11 2.96875000000000000e-01
8 11 2.96875000000000000e-01
9 11 2.96875000000000000e-01
10 11 2.96875000000000000e-01
11 11 2.96875000000000000e-01
12 11 2.96875000000000000e-01
13 11 2.96875000000000000e-01
14 11 2.96875000000000000e-01
15 11 2.96875000000000000e-01
16 11 2.96875000000000000e-01
17 11 2.96875000000000000e-01
18 11 2.96875000000000000e-01
19 11 2.96875000000000000e-01
20 11 2.96875000000000000e-01
21 11 2.96875000000000000e-01
22 11 2.96875000000000000e-01
23 11 2.96875000000000000e-01
24 11 2.96875000000000000e-01
25 11 2.96875000000000000e-01
26 11 2.96875000000000000e-01
27 11 2.96875000000000000e-01
28 11 2.96875000000000000e-01
29 11 2.96875000000000000e-01
30 11 2.96875000000000000e-01
31 11 2.96875000000000000e-01
32 11 2.96875000000000000e-01
33 11 2.96875000000000000e-01
34 11 2.96875000000000000e-01
1 12 3.28125000000000000e-01
2 12 3.28125000000000000e-01
3 12 3.28125000000000000e-01
4 12 3.28125000000000000e-01
5 12 3.28125000000000000e-01
6 12 3.28125000000000000e-01
7 12 3.28125000000000000e-01
8 12 3.28125000000000000e-01
9 12 3.28125000000000000e-01
10 12 3.28125000000000000e-01
11 12 3.28125000000000000e-01
12 12 3.28125000000000000e-01
13 12 3.28125000000000000e-01
14 12 3.28125000000000000e-01
15 12 3.28125000000000000e-01
16 12 3.28125000000000000e-01
17 12 3.28125000000000000e-01
18 12 3.28125000000000000e-01
19 12 3.28125000000000000e-01
20 12 3.28125000000000000e-01
21 12 3.28125000000000000e-01
22 12 3.28125000000000000e-01
23 12 3.28125000000000000e-01
24 12 3.28125000000000000e-01
25 12 3.28125000000000000e-01
26 12 3.28125000000000000e-01
27 12 3.28125000000000000e-01
28 12 3.28125000000000000e-01
29 12 3.28125000000000000e-01
30 12 3.28125000000000000e-01
31 12 3.28125000000000000e-01
32 12 3.28125000000000000e-01
33 12 3.28125000000000000e-01
34 12 3.28125000000000000e-01
1 13 3.59375000000000000e-01
2 13 3.59375000000000000e-01
3 13 3.59375000000000000e-01
4 13 3.59375000000000000e-01
5 13 3.59375000000000000e-01
6 13 3.59375000000000000e-01
7 13 3.59375000000000000e-01
8 13 3.59375000000000000e-01
9 13 3.59375000000000000e-01
10 13 3.59375000000000000e-01
11 13 3.59375000000000000e-01
12 13 3.59375000000000000e-01
13 13 3.59375000000000000e-01
14 13 3.59375000000000000e-01
15 13 3.59375000000000000e-01
16 13 3.59375000000000000e-01
17 13 3.59375000000000000e-01
18 13 3.59375000000000000e-01
19 13 3.59375000000000000e-01
20 13 3.59375000000000000e-01
21 13 3.59375000000000000e-01
22 13 3.59375000000000000e-01
23 13 3.59375000000000000e-01
24 13 3.59375000000000000e-01
25 13 3.59375000000000000e-01
26 13 3.59375000000000000e-01
27 13 3.59375000000000000e-01
28 13 3.59375000000000000e-01
29 13 3.59375000000000000e-01
30 13 3.59375000000000000e-01
31 13 3.59375000000000000e-01
32 13 3.59375000000000000e-01
33 13 3.59375000000000000e-01
34 13 3.59375000000000000e-01
1 14 3.90625000000000000e-01
2 14 3.90625000000000000e-01
3 14 3.90625000000000000e-01
4 14 3.90625000000000000e-01
5 14 3.90625000000000000e-01
6 14 3.90625000000000000e-01
7 14 3.90625000000000000e-01
8 14 3.90625000000000000e-01
9 14 3.90625000000000000e-01
10 14 3.90625000000000000e-01
11 14 3.90625000000000000e-01
12 14 3.90625000000000000e-01
13 14 3.90625000000000000e-01
14 14 3.90625000000000000e-01
15 14 3.90625000000000000e-01
16 14 3.90625000000000000e-01
17 14 3.90625000000000000e-01
18 14 3.90625000000000000e-01
19 14 3.90625000000000000e-01
20 14 3.90625000000000000e-01
21 14 3.90625000000000000e-01
22 14 3.90625000000000000e-01
23 14 3.90625000000000000e-01
24 14 3.90625000000000000e-01
25 14 3.90625000000000000e-01
26 14 3.90625000000000000e-01
27 14 3.90625000000000000e-01
28 14 3.90625000000000000e-01
29 14 3.90625000000000000e-01
30 14 3.90625000000000000e-01
31 14 3.90625000000000000e-01
32 14 3.90625000000000000e-01
33 14 3.90625000000000000e-01
34 14 3.90625000000000000e-01
1 15 4.21874999999999944e-01
2 15 4.21874999999999944e-01
3 15 4.21874999999999944e-01
4 15 4.21874999999999944e-01
5 15 4.21874999999999944e-01
6 15 4.21874999999999944e-01
7 15 4.21874999999999944e-01
8 15 4.21874999999999944e-01
9 15 4.21874999999999944e-01
10 15 4.21874999999999944e-01
11 15 4.21874999999999944e-01
12 15 4.21874999999999944e-01
13 15 4.21874999999999944e-01
14 15 4.21874999999999944e-01
15 15 4.21874999999999944e-01
16 15 4.21874999999999944e-01
17 15 4.21874999999999944e-01
18 15 4.21874999999999944e-01
19 15 4.21874999999999944e-01
20 15 4.21874999999999944e-01
21 15 4.21874999999999944e-01
22 15 4.21874999999999944e-01
23 15 4.21874999999999944e-01
24 15 4.21874999999999944e-01
25 15 4.21874999999999944e-01
26 15 4.21874999999999944e-01
27 15 4.21874999999999944e-01
28 15 4.21874999999999944e-01
29 15 4.21874999999999944e-01
30 15 4.21874999999999944e-01
31 15 4.21874999999999944e-01
32 15 4.21874999999999944e-01
33 15 4.21874999999999944e-01
34 15 4.21874999999999944e-01
1 16 4.53124999999999889e-01
2 16 4.53124999999999889e-01
3 16 4.53124999999999889e-01
4 16 4.53124999999999889e-01
5 16 4.53124999999999889e-01
6 16 4.53124999999999889e-01
7 16 4.53124999999999889e-01
8 16 4.53124999999999889e-01
9 16 4.53124999999999889e-01
10 16 4.53124999999999889e-01
11 16 4.53124999999999889e-01
12 16 4.53124999999999889e-01
13 16 4.53124999999999889e-01
14 16 4.53124999999999889e-01
15 16 4.53124999999999889e-01
16 16 4.53124999999999889e-01
17 16 4.53124999999999889e-01
18 16 4.53124999999999889e-01
19 16 4.53124999999999889e-01
20 16 4.53124999999999889e-01
21 16 4.53124999999999889e-01
22 16 4.53124999999999889e-01
23 16 4.53124999999999889e-01
24 16 4.53124999999999889e-01
25 16 4.53124999999999889e-01
26 16 4.53124999999999889e-01
27 16 4.53124999999999889e-01
28 16 4.53124999999999889e-01
29 16 4.53124999999999889e-01
30 16 4.53124999999999889e-01
31 16 4.53124999999999889e-01
32 16 4.53124999999999889e-01
33 16 4.53124999999999889e-01
34 16 4.53124999999999889e-01
1 17 4.84374999999999889e-01
2 17 4.84374999999999889e-01
3 17 4.84374999999999889e-01
4 17 4.84374999999999889e-01
5 17 4.84374999999999889e-01
6 17 4.84374999999999889e-01
7 17 4.84374999999999889e-01
8 17 4.84374999999999889e-01
9 17 4.84374999999999889e-01
10 17 4.84374999999999889e-01
11 17 4.84374999999999889e-01
12 17 4.84374999999999889e-01
13 17 4.84374999999999889e-01
14 17 4.84374999999999889e-01
15 17 4.84374999999999889e-01
16 17 4.84374999999999889e-01
17 17 4.84374999999999889e-01
18 17 4.84374999999999889e-01
19 17 4.84374999999999889e-01
20 17 4.84374999999999889e-01
21 17 4.84374999999999889e-01
22 17 4.84374999999999889e-01
23 17 4.84374999999999889e-01
24 17 4.84374999999999889e-01
25 17 4.84374999999999889e-01
26 17 4.84374999999999889e-01
27 17 4.84374999999999889e-01
28 17 4.84374999999999889e-01
29 17 4.84374999999999889e-01
30 17 4.84374999999999889e-01
31 17 4.84374999999999889e-01
32 17 4.84374999999999889e-01
33 17 4.84374999999999889e-01
34 17 4.84374999999999889e-01
1 18 5.15624999999999889e-01
2 18 5.15624999999999889e-01
3 18 5.15624999999999889e-01
4 18 5.15624999999999889e-01
5 18 5.15624999999999889e-01
6 18 5.15624999999999889e-01
7 18 5.15624999999999889e-01
8 18 5.15624999999999889e-01
9 18 5.15624999999999889e-01
10 18 5.15624999999999889e-01
11 18 5.15624999999999889e-01
12 18 5.15624999999999889e-01
13 18 5.15624999999999889e-01
14 18 5.15624999999999889e-01
15 18 5.15624999999999889e-01
16 18 5.15624999999999889e-01
17 18 5.15624999999999889e-01
18 18 5.15624999999999889e-01
19 18 5.15624999999999889e-01
20 18 5.15624999999999889e-01
21 18 5.15624999999999889e-01
22 18 5.15624999999999889e-01
23 18 5.15624999999999889e-01
24 18 5.15624999999999889e-01
25 18 5.15624999999999889e-01
26 18 5.15624999999999889e-01
27 18 5.15624999999999889e-01
28 18 5.15624999999999889e-01
29 18 5.15624999999999889e-01
30 18 5.15624999999999889e-01
31 18 5.15624999999999889e-01
32 18 5.15624999999999889e-01
33 18 5.15624999999999889e-01
34 18 5.15624999999999889e-01
1 19 5.46874999999999889e-01
2 19 5.46874999999999889e-01
3 19 5.46874999999999889e-01
4 19 5.46874999999999889e-01
5 19 5.46874999999999889e-01
6 19 5.46874999999999889e-01
7 19 5.46874999999999889e-01
8 19 5.46874999999999889e-01
9 19 5.46874999999999889e-01
10 19 5.46874999999999889e-01
11 19 5.46874999999999889e-01
12 19 5.46874999999999889e-01
13 19 5.46874999999999889e-01
14 19 5.46874999999999889e-01
15 19 5.46874999999999889e-01
16 19 5.46874999999999889e-01
17 19 5.46874999999999889e-01
18 19 5.46874999999999889e-01
19 19 5.46874999999999889e-01
20 19 5.46874999999999889e-01
21 19 5.46874999999999889e-01
22 19 5.46874999999999889e-01
23 19 5.46874999999999889e-01
24 19 5.46874999999999889e-01
25 19 5.46874999999999889e-01
26 19 5.46874999999999889e-01
27 19 5.46874999999999889e-01
28 19 5.46874999999999889e-01
29 19 5.46874999999999889e-01
30 19 5.46874999999999889e-01
31 19 5.46874999999999889e-01
32 19 5.46874999999999889e-01
33 19 5.46874999999999889e-01
34 19 5.46874999999999889e-01
1 20 5.78124999999999889e-01
2 20 5.78124999999999889e-01
3 20 5.78124999999999889e-01
4 20 5.78124999999999889e-01
5 20 5.78124999999999889e-01
6 20 5.78124999999999889e-01
7 20 5.78124999999999889e-01
8 20 5.78124999999999889e-01
9 20 5.78124999999999889e-01
10 20 5.78124999999999889e-01
11 20 5.78124999999999889e-01
12 20 5.78124999999999889e-01
13 20 5.78124999999999889e-01
14 20 5.78124999999999889e-01
15 20 5.78124999999999889e-01
16 20 5.78124999999999889e-01
17 20 5.78124999999999889e-01
18 20 5.78124999999999889e-01
19 20 5.78124999999999889e-01
20 20 5.78124999999999889e-01
21 20 5.78124999999999889e-01
22 20 5.78124999999999889e-01
23 20 5.78124999999999889e-01
24 20 5.78124999999999889e-01
25 20 5.78124999999999889e-01
26 20 5.78124999999999889e-01
27 20 5.78124999999999889e-01
28 20 5.78124999999999889e-01
29 20 5.78124999999999889e-01
30 20 5.78124999999999889e-01
31 20 5.78124999999999889e-01
32 20 5.78124999999999889e-01
33 20 5.78124999999999889e-01
34 20 5.78124999999999889e-01
1 21 6.09374999999999889e-01
2 21 6.09374999999999889e-01
3 21 6.09374999999999889e-01
4 21 6.09374999999999889e-01
5 21 6.09374999999999889e-01
6 21 6.09374999999999889e-01
7 21 6.09374999999999889e-01
8 21 6.09374999999999889e-01
9 21 6.09374999999999889e-01
10 21 6.09374999999999889e-01
11 21 6.09374999999999889e-01
12 21 6.09374999999999889e-01
13 21 6.09374999999999889e-01
14 21 6.09374999999999889e-01
15 21 6.09374999999999889e-01
16 21 6.09374999999999889e-01
17 21 6.09374999999999889e-01
18 21 6.09374999999999889e-01
19 21 6.09374999999999889e-01
20 21 6.09374999999999889e-01
21 21 6.09374999999999889e-01
22 21 6.09374999999999889e-01
23 21 6.09374999999999889e-01
24 21 6.09374999999999889e-01
25 21 6.09374999999999889e-01
26 21 6.09374999999999889e-01
27 21 6.09374999999999889e-01
28 21 6.09374999999999889e-01
29 21 6.09374999999999889e-01
30 21 6.09374999999999889e-01
31 21 6.09374999999999889e-01
32 21 6.09374999999999889e-01
33 21 6.09374999999999889e-01
34 21 6.09374999999999889e-01
1 22 6.40624999999999889e-01
2 22 6.40624999999999889e-01
3 22 6.40624999999999889e-01
4 22 6.40624999999999889e-01
5 22 6.40624999999999889e-01
6 22 6.40624999999999889e-01
7 22 6.40624999999999889e-01
8 22 6.40624999999999889e-01
9 22 6.40624999999999889e-01
10 22 6.40624999999999889e-01
11 22 6.40624999999999889e-01
12 22 6.40624999999999889e-01
13 22 6.40624999999999889e-01
14 22 6.40624999999999889e-01
15 22 6.40624999999999889e-01
16 22 6.40624999999999889e-01
17 22 6.40624999999999889e-01
18 22 6.40624999999999889e-01
19 22 6.40624999999999889e-01
20 22 6.40624999999999889e-01
21 22 6.40624999999999889e-01
22 22 6.40624999999999889e-01
23 22 6.40624999999999889e-01
24 22 6.40624999999999889e-01
25 22 6.40624999999999889e-01
26 22 6.40624999999999889e-01
27 22 6.40624999999999889e-01
28 22 6.40624999999999889e-01
29 22 6.40624999999999889e-01
30 22 6.40624999999999889e-01
31 22 6.40624999999999889e-01
32 22 6.40624999999999889e-01
33 22 6.40624999999999889e-01
34 22 6.40624999999999889e-01
1 23 6.71875000000000000e-01
2 23 6.71875000000000000e-01
3 23 6.71875000000000000e-01
4 23 6.71875000000000000e-01
5 23 6.71875000000000000e-01
6 23 6.71875000000000000e-01
7 23 6.71875000000000000e-01
8 23 6.71875000000000000e-01
9 23 6.71875000000000000e-01
10 23 6.71875000000000000e-01
11 23 6.71875000000000000e-01
12 23 6.71875000000000000e-01
13 23 6.71875000000000000e-01
14 23 6.71875000000000000e-01
15 23 6.71875000000000000e-01
16 23 6.71875000000000000e-01
17 23 6.71875000000000000e-01
18 23 6.71875000000000000e-01
19 23 6.71875000000000000e-01
20 23 6.71875000000000000e-01
21 23 6.71875000000000000e-01
22 23 6.71875000000000000e-01
23 23 6.71875000000000000e-01
24 23 6.71875000000000000e-01
25 23 6.71875000000000000e-01
26 23 6.71875000000000000e-01
27 23 6.71875000000000000e-01
28 23 6.71875000000000000e-01
29 23 6.71875000000000000e-01
30 23 6.71875000000000000e-01
31 23 6.71875000000000000e-01
32 23 6.71875000000000000e-01
33 23 6.71875000000000000e-01
34 23 6.71875000000000000e-01
1 24 7.03125000000000000e-01
2 24 7.03125000000000000e-01
3 24 7.03125000000000000e-01
4 24 7.03125000000000000e-01
5 24 7.03125000000000000e-01
6 24 7.03125000000000000e-01
7 24 7.03125000000000000e-01
8 24 7.03125000000000000e-01
9 24 7.03125000000000000e-01
10 24 7.03125000000000000e-01
11 24 7.03125000000000000e-01
12 24 7.03125000000000000e-01
13 24 7.03125000000000000e-01
14 24 7.03125000000000000e-01
15 24 7.03125000000000000e-01
16 24 7.03125000000000000e-01
17 24 7.03125000000000000e-01
18 24 7.03125000000000000e-01
19 24 7.03125000000000000e-01
20 24 7.03125000000000000e-01
21 24 7.03125000000000000e-01
22 24 7.03125000000000000e-01
23 24 7.03125000000000000e-01
24 24 7.03125000000000000e-01
25 24 7.03125000000000000e-01
26 24 7.03125000000000000e-01
27 24 7.03125000000000000e-01
28 24 7.03125000000000000e-01
29 24 7.03125000000000000e-01
30 24 7.03125000000000000e-01
31 24 7.03125000000000000e-01
32 24 7.03125000000000000e-01
33 24 7.03125000000000000e-01
34 24 7.03125000000000000e-01
1 25 7.34375000000000111e-01
2 25 7.34375000000000111e-01
3 25 7.34375000000000111e-01
4 25 7.34375000000000111e-01
5 25 7.34375000000000111e-01
6 25 7.34375000000000111e-01
7 25 7.34375000000000111e-01
8 25 7.34375000000000111e-01
9 25 7.34375000000000111e-01
10 25 7.34375000000000111e-01
11 25 7.34375000000000111e-01
12 25 7.34375000000000111e-01
13 25 7.34375000000000111e-01
14 25 7.34375000000000111e-01
15 25 7.34375000000000111e-01
16 25 7.34375000000000111e-01
17 25 7.34375000000000111e-01
18 25 7.34375000000000111e-01
19 25 7.34375000000000111e-01
20 25 7.34375000000000111e-01
21 25 7.34375000000000111e-01
22 25 7.34375000000000111e-01
23 25 7.34375000000000111e-01
24 25 7.34375000000000111e-01
25 25 7.34375000000000111e-01
26 25 7.34375000000000111e-01
27 25 7.34375000000000111e-01
28 25 7.34375000000000111e-01
29 25 7.34375000000000111e-01
30 25 7.34375000000000111e-01
31 25 7.34375000000000111e-01
32 25 7.34375000000000111e-01
33 25 7.34375000000000111e-01
34 25 7.34375000000000111e-01
1 26 7.65625000000000111e-01
2 26 7.65625000000000111e-01
3 26 7.65625000000000111e-01
4 26 7.65625000000000111e-01
5 26 7.65625000000000111e-01
6 26 7.65625000000000111e-01
7 26 7.65625000000000111e-01
8 26 7.65625000000000111e-01
9 26 7.65625000000000111e-01
10 26 7.65625000000000111e-01
11 26 7.65625000000000111e-01
12 26 7.65625000000000111e-01
13 26 7.65625000000000111e-01
14 26 7.65625000000000111e-01
15 26 7.65625000000000111e-01
16 26 7.65625000000000111e-01
17 26 7.65625000000000111e-01
18 26 7.65625000000000111e-01
19 26 7.65625000000000111e-01
20 26 7.65625000000000111e-01
21 26 7.65625000000000111e-01
22 26 7.65625000000000111e-01
23 26 7.65625000000000111e-01
24 26 7.65625000000000111e-01
25 26 7.65625000000000111e-01
26 26 7.65625000000000111e-01
27 26 7.65625000000000111e-01
28 26 7.65625000000000111e-01
29 26 7.65625000000000111e-01
30 26 7.65625000000000111e-01
31 26 7.65625000000000111e-01
32 26 7.65625000000000111e-01
33 26 7.65625000000000111e-01
34 26 7.65625000000000111e-01
1 27 7.96875000000000111e-01
2 27 7.96875000000000111e-01
3 27 7.96875000000000111e-01
4 27 7.96875000000000111e-01
5 27 7.96875000000000111e-01
6 27 7.96875000000000111e-01
7 27 7.96875000000000111e-01
8 27 7.96875000000000111e-01
9 27 7.96875000000000111e-01
10 27 7.96875000000000111e-01
11 27 7.96875000000000111e-01
12 27 7.96875000000000111e-01
13 27 7.96875000000000111e-01
14 27 7.96875000000000111e-01
15 27 7.96875000000000111e-01
16 27 7.96875000000000111e-01
17 27 7.96875000000000111e-01
18 27 7.96875000000000111e-01
19 27 7.96875000000000111e-01
20 27 7.96875000000000111e-01
21 27 7.96875000000000111e-01
22 27 7.96875000000000111e-01
23 27 7.96875000000000111e-01
24 27 7.96875000000000111e-01
25 27 7.96875000000000111e-01
26 27 7.96875000000000111e-01
27 27 7.96875000000000111e-01
28 27 7.96875000000000111e-01
29 27 7.96875000000000111e-01
30 27 7.96875000000000111e-01
31 27 7.96875000000000111e-01
32 27 7.96875000000000111e-01
33 27 7.96875000000000111e-01
34 27 7.96875000000000111e-01
1 28 8.28125000000000111e-01
2 28 8.28125000000000111e-01
3 28 8.28125000000000111e-01
4 28 8.28125000000000111e-01
5 28 8.28125000000000111e-01
6 28 8.28125000000000111e-01
7 28 8.28125000000000111e-01
8 28 8.28125000000000111e-01
9 28 8.28125000000000111e-01
10 28 8.28125000000000111e-01
11 28 8.28125000000000111e-01
12 28 8.28125000000000111e-01
13 28 8.28125000000000111e-01
14 28 8.28125000000000111e-01
15 28 8.28125000000000111e-01
16 28 8.28125000000000111e-01
17 28 8.28125000000000111e-01
18 28 8.28125000000000111e-01
19 28 8.28125000000000111e-01
20 28 8.28125000000000111e-01
21 28 8.28125000000000111e-01
22 28 8.28125000000000111e-01
23 28 8.28125000000000111e-01
24 28 8.28125000000000111e-01
25 28 8.28125000000000111e-01
26 28 8.28125000000000111e-01
27 28 8.28125000000000111e-01
28 28 8.28125000000000111e-01
29 28 8.28125000000000111e-01
30 28 8.28125000000000111e-01
31 28 8.28125000000000111e-01
32 28 8.28125000000000111e-01
33 28 8.28125000000000111e-01
34 28 8.28125000000000111e-01
1 29 8.59375000000000111e-01
2 29 8.59375000000000111e-01
3 29 8.59375000000000111e-01
4 29 8.59375000000000111e-01
5 29 8.59375000000000111e-01
6 29 8.59375000000000111e-01
7 29 8.59375000000000111e-01
8 29 8.59375000000000111e-01
9 29 8.59375000000000111e-01
10 29 8.59375000000000111e-01
11 29 8.59375000000000111e-01
12 29 8.59375000000000111e-01
13 29 8.59375000000000111e-01
14 29 8.59375000000000111e-01
15 29 8.59375000000000111e-01
16 29 8.59375000000000111e-01
17 29 8.59375000000000111e-01
18 29 8.59375000000000111e-01
19 29 8.59375000000000111e-01
20 29 8.59375000000000111e-01
21 29 8.59375000000000111e-01
22 29 8.59375000000000111e-01
23 29 8.59375000000000111e-01
24 29 8.59375000000000111e-01
25 29 8.59375000000000111e-01
26 29 8.59375000000000111e-01
27 29 8.59375000000000111e-01
28 29 8.59375000000000111e-01
29 29 8.59375000000000111e-01
30 29 8.59375000000000111e-01
31 29 8.59375000000000111e-01
32 29 8.59375000000000111e-01
33 29 8.59375000000000111e-01
34 29 8.59375000000000111e-01
1 30 8.90625000000000111e-01
2 30 8.90625000000000111e-01
3 30 8.90625000000000111e-01
4 30 8.90625000000000111e-01
5 30 8.90625000000000111e-01
6 30 8.90625000000000111e-01
7 30 8.90625000000000111e-01
8 30 8.90625000000000111e-01
9 30 8.90625000000000111e-01
10 30 8.90625000000000111e-01
11 30 8.90625000000000111e-01
12 30 8.90625000000000111e-01
13 30 8.90625000000000111e-01
14 30 8.90625000000000111e-01
15 30 8.90625000000000111e-01
16 30 8.90625000000000111e-01
17 30 8.90625000000000111e-01
18 30 8.90625000000000111e-01
19 30 8.90625000000000111e-01
20 30 8.90625000000000111e-01
21 30 8.90625000000000111e-01
22 30 8.90625000000000111e-01
23 30 8.90625000000000111e-01
24 30 8.90625000000000111e-01
25 30 8.90625000000000111e-01
26 30 8.90625000000000111e-01
27 30 8.90625000000000111e-01
28 30 8.90625000000000111e-01
29 30 8.90625000000000111e-01
30 30 8.90625000000000111e-01
31 30 8.90625000000000111e-01
32 30 8.90625000000000111e-01
33 30 8.90625000000000111e-01
34 30 8.90625000000000111e-01
1 31 9.21875000000000111e-01
2 31 9.21875000000000111e-01
3 31 9.21875000000000111e-01
4 31 9.21875000000000111e-01
5 31 9.21875000000000111e-01
6 31 9.21875000000000111e-01
7 31 9.21875000000000111e-01
8 31 9.21875000000000111e-01
9 31 9.21875000000000111e-01
10 31 9.21875000000000111e-01
11 31 9.21875000000000111e-01
12 31 9.21875000000000111e-01
13 31 9.21875000000000111e-01
14 31 9.21875000000000111e-01
15 31 9.21875000000000111e-01
16 31 9.21875000000000111e-01
17 31 9.21875000000000111e-01
18 31 9.21875000000000111e-01
19 31 9.21875000000000111e-01
20 31 9.21875000000000111e-01
21 31 9.21875000000000111e-01
22 31 9.21875000000000111e-01
23 31 9.21875000000000111e-01
24 31 9.21875000000000111e-01
25 31 9.21875000000000111e-01
26 31 9.21875000000000111e-01
27 31 9.21875000000000111e-01
28 31 9.21875000000000111e-01
29 31 9.21875000000000111e-01
30 31 9.21875000000000111e-01
31 31 9.21875000000000111e-01
32 31 9.21875000000000111e-01
33 31 9.21875000000000111e-01
34 31 9.21875000000000111e-01
1 32 9.53125000000000000e-01
2 32 9.53125000000000000e-01
3 32 9.53125000000000000e-01
4 32 9.53125000000000000e-01
5 32 9.53125000000000000e-01
6 32 9.53125000000000000e-01
7 32 9.53125000000000000e-01
8 32 9.53125000000000000e-01
9 32 9.53125000000000000e-01
10 32 9.53125000000000000e-01
11 32 9.53125000000000000e-01
12 32 9.53125000000000000e-01
13 32 9.53125000000000000e-01
14 32 9.53125000000000000e-01
15 32 9.53125000000000000e-01
16 32 9.53125000000000000e-01
17 32 9.53125000000000000e-01
18 32 9.53125000000000000e-01
19 32 9.53125000000000000e-01
20 32 9.53125000000000000e-01
21 32 9.53125000000000000e-01
22 32 9.53125000000000000e-01
23 32 9.53125000000000000e-01
24 32 9.53125000000000000e-01
25 32 9.53125000000000000e-01
26 32 9.53125000000000000e-01
27 32 9.53125000000000000e-01
28 32 9.53125000000000000e-01
29 32 9.53125000000000000e-01
30 32 9.53125000000000000e-01
31 32 9.53125000000000000e-01
32 32 9.53125000000000000e-01
33 32 9.53125000000000000e-01
34 32 9.53125000000000000e-01
1 33 9.84375000000000000e-01
2 33 9.84375000000000000e-01
3 33 9.84375000000000000e-01
4 33 9.84375000000000000e-01
5 33 9.84375000000000000e-01
6 33 9.84375000000000000e-01
7 33 9.84375000000000000e-01
8 33 9.84375000000000000e-01
9 33 9.84375000000000000e-01
10 33 9.84375000000000000e-01
11 33 9.84375000000000000e-01
12 33 9.84375000000000000e-01
13 33 9.84375000000000000e-01
14 33 9.84375000000000000e-01
15 33 9.84375000000000000e-01
16 33 9.84375000000000000e-01
17 33 9.84375000000000000e-01
18 33 9.84375000000000000e-01
19 33 9.84375000000000000e-01
20 33 9.84375000000000000e-01
21 33 9.84375000000000000e-01
22 33 9.84375000000000000e-01
23 33 9.84375000000000000e-01
24 33 9.84375000000000000e-01
25 33 9.84375000000000000e-01
26 33 9.84375000000000000e-01
27 33 9.84375000000000000e-01
28 33 9.84375000000000000e-01
29 33 9.84375000000000000e-01
30 33 9.84375000000000000e-01
31 33 9.84375000000000000e-01
32 33 9.84375000000000000e-01
33 33 9.84375000000000000e-01
34 33 9.84375000000000000e-01
1 34 1.00000000000000000e+00
2 34 1.00000000000000000e+00
3 34 1.00000000000000000e+00
4 34 1.00000000000000000e+00
5 34 1.00000000000000000e+00
6 34 1.00000000000000000e+00
7 34 1.00000000000000000e+00
8 34 1.00000000000000000e+00
9 34 1.00000000000000000e+00
10 34 1.00000000000000000e+00
11 34 1.00000000000000000e+00
12 34 1.00000000000000000e+00
13 34 1.00000000000000000e+00
14 34 1.00000000000000000e+00
15 34 1.00000000000000000e+00
16 34 1.00000000000000000e+00
17 34 1.00000000000000000e+00
18 34 1.00000000000000000e+00
19 34 1.00000000000000000e+00
20 34 1.00000000000000000e+00
21 34 1.00000000000000000e+00
22 34 1.00000000000000000e+00
23 34 1.00000000000000000e+00
24 34 1.00000000000000000e+00
25 34 1.00000000000000000e+00
26 34 1.00000000000000000e+00
27 34 1.00000000000000000e+00
28 34 1.00000000000000000e+00
29 34 1.00000000000000000e+00
30 34 1.00000000000000000e+00
31 34 1.00000000000000000e+00
32 34 1.00000000000000000e+00
33 34 1.00000000000000000e+00
34 34 1.00000000000000000e+00
