%%MatrixMarket matrix coordinate  real general
34 34 1156
1 1 1.00000000000000000e+00
2 1 1.00000000000000000e+00
3 1 1.00000000000000000e+00
4 1 1.00000000000000000e+00
5 1 1.00000000000000000e+00
6 1 1.00000000000000000e+00
7 1 1.00000000000000000e+00
8 1 1.00000000000000000e+00
9 1 1.00000000000000000e+00
10 1 1.00000000000000000e+00
11 1 1.00000000000000000e+00
12 1 1.00000000000000000e+00
13 1 1.00000000000000000e+00
14 1 1.00000000000000000e+00
15 1 1.00000000000000000e+00
16 1 1.00000000000000000e+00
17 1 1.00000000000000000e+00
18 1 1.00000000000000000e+00
19 1 1.00000000000000000e+00
20 1 1.00000000000000000e+00
21 1 1.00000000000000000e+00
22 1 1.00000000000000000e+00
23 1 1.00000000000000000e+00
24 1 1.00000000000000000e+00
25 1 1.00000000000000000e+00
26 1 1.00000000000000000e+00
27 1 1.00000000000000000e+00
28 1 1.00000000000000000e+00
29 1 1.00000000000000000e+00
30 1 1.00000000000000000e+00
31 1 1.00000000000000000e+00
32 1 1.00000000000000000e+00
33 1 1.00000000000000000e+00
34 1 1.00000000000000000e+00
1 2 1.00000000000000000e+00
2 2 1.00000000000000000e+00
3 2 1.00000000000000000e+00
4 2 1.00000000000000000e+00
5 2 1.00000000000000000e+00
6 2 1.00000000000000000e+00
7 2 1.00000000000000000e+00
8 2 1.00000000000000000e+00
9 2 1.00000000000000000e+00
10 2 1.00000000000000000e+00
11 2 1.00000000000000000e+00
12 2 1.00000000000000000e+00
13 2 1.00000000000000000e+00
14 2 1.00000000000000000e+00
15 2 1.00000000000000000e+00
16 2 1.00000000000000000e+00
17 2 1.00000000000000000e+00
18 2 1.00000000000000000e+00
19 2 1.00000000000000000e+00
20 2 1.00000000000000000e+00
21 2 1.00000000000000000e+00
22 2 1.00000000000000000e+00
23 2 1.00000000000000000e+00
24 2 1.00000000000000000e+00
25 2 1.00000000000000000e+00
26 2 1.00000000000000000e+00
27 2 1.00000000000000000e+00
28 2 1.00000000000000000e+00
29 2 1.00000000000000000e+00
30 2 1.00000000000000000e+00
31 2 1.00000000000000000e+00
32 2 1.00000000000000000e+00
33 2 1.00000000000000000e+00
34 2 1.00000000000000000e+00
1 3 1.00000000000000000e+00
2 3 1.00000000000000000e+00
3 3 1.00000000000000000e+00
4 3 1.00000000000000000e+00
5 3 1.00000000000000000e+00
6 3 1.00000000000000000e+00
7 3 1.00000000000000000e+00
8 3 1.00000000000000000e+00
9 3 1.00000000000000000e+00
10 3 1.00000000000000000e+00
11 3 1.00000000000000000e+00
12 3 1.00000000000000000e+00
13 3 1.00000000000000000e+00
14 3 1.00000000000000000e+00
15 3 1.00000000000000000e+00
16 3 1.00000000000000000e+00
17 3 1.00000000000000000e+00
18 3 1.00000000000000000e+00
19 3 1.00000000000000000e+00
20 3 1.00000000000000000e+00
21 3 1.00000000000000000e+00
22 3 1.00000000000000000e+00
23 3 1.00000000000000000e+00
24 3 1.00000000000000000e+00
25 3 1.00000000000000000e+00
26 3 1.00000000000000000e+00
27 3 1.00000000000000000e+00
28 3 1.00000000000000000e+00
29 3 1.00000000000000000e+00
30 3 1.00000000000000000e+00
31 3 1.00000000000000000e+00
32 3 1.00000000000000000e+00
33 3 1.00000000000000000e+00
34 3 1.00000000000000000e+00
1 4 1.00000000000000000e+00
2 4 1.00000000000000000e+00
3 4 1.00000000000000000e+00
4 4 1.00000000000000000e+00
5 4 1.00000000000000000e+00
6 4 1.00000000000000000e+00
7 4 1.00000000000000000e+00
8 4 1.00000000000000000e+00
9 4 1.00000000000000000e+00
10 4 1.00000000000000000e+00
11 4 1.00000000000000000e+00
12 4 1.00000000000000000e+00
13 4 1.00000000000000000e+00
14 4 1.00000000000000000e+00
15 4 1.00000000000000000e+00
16 4 1.00000000000000000e+00
17 4 1.00000000000000000e+00
18 4 1.00000000000000000e+00
19 4 1.00000000000000000e+00
20 4 1.00000000000000000e+00
21 4 1.00000000000000000e+00
22 4 1.00000000000000000e+00
23 4 1.00000000000000000e+00
24 4 1.00000000000000000e+00
25 4 1.00000000000000000e+00
26 4 1.00000000000000000e+00
27 4 1.00000000000000000e+00
28 4 1.00000000000000000e+00
29 4 1.00000000000000000e+00
30 4 1.00000000000000000e+00
31 4 1.00000000000000000e+00
32 4 1.00000000000000000e+00
33 4 1.00000000000000000e+00
34 4 1.00000000000000000e+00
1 5 1.00000000000000000e+00
2 5 1.00000000000000000e+00
3 5 1.00000000000000000e+00
4 5 1.00000000000000000e+00
5 5 1.00000000000000000e+00
6 5 1.00000000000000000e+00
7 5 1.00000000000000000e+00
8 5 1.00000000000000000e+00
9 5 1.00000000000000000e+00
10 5 1.00000000000000000e+00
11 5 1.00000000000000000e+00
12 5 1.00000000000000000e+00
13 5 1.00000000000000000e+00
14 5 1.00000000000000000e+00
15 5 1.00000000000000000e+00
16 5 1.00000000000000000e+00
17 5 1.00000000000000000e+00
18 5 1.00000000000000000e+00
19 5 1.00000000000000000e+00
20 5 1.00000000000000000e+00
21 5 1.00000000000000000e+00
22 5 1.00000000000000000e+00
23 5 1.00000000000000000e+00
24 5 1.00000000000000000e+00
25 5 1.00000000000000000e+00
26 5 1.00000000000000000e+00
27 5 1.00000000000000000e+00
28 5 1.00000000000000000e+00
29 5 1.00000000000000000e+00
30 5 1.00000000000000000e+00
31 5 1.00000000000000000e+00
32 5 1.00000000000000000e+00
33 5 1.00000000000000000e+00
34 5 1.00000000000000000e+00
1 6 1.00000000000000000e+00
2 6 1.00000000000000000e+00
3 6 1.00000000000000000e+00
4 6 1.00000000000000000e+00
5 6 1.00000000000000000e+00
6 6 1.00000000000000000e+00
7 6 1.00000000000000000e+00
8 6 1.00000000000000000e+00
9 6 1.00000000000000000e+00
10 6 1.00000000000000000e+00
11 6 1.00000000000000000e+00
12 6 1.00000000000000000e+00
13 6 1.00000000000000000e+00
14 6 1.00000000000000000e+00
15 6 1.00000000000000000e+00
16 6 1.00000000000000000e+00
17 6 1.00000000000000000e+00
18 6 1.00000000000000000e+00
19 6 1.00000000000000000e+00
20 6 1.00000000000000000e+00
21 6 1.00000000000000000e+00
22 6 1.00000000000000000e+00
23 6 1.00000000000000000e+00
24 6 1.00000000000000000e+00
25 6 1.00000000000000000e+00
26 6 1.00000000000000000e+00
27 6 1.00000000000000000e+00
28 6 1.00000000000000000e+00
29 6 1.00000000000000000e+00
30 6 1.00000000000000000e+00
31 6 1.00000000000000000e+00
32 6 1.00000000000000000e+00
33 6 1.00000000000000000e+00
34 6 1.00000000000000000e+00
1 7 1.00000000000000000e+00
2 7 1.00000000000000000e+00
3 7 1.00000000000000000e+00
4 7 1.00000000000000000e+00
5 7 1.00000000000000000e+00
6 7 1.00000000000000000e+00
7 7 1.00000000000000000e+00
8 7 1.00000000000000000e+00
9 7 1.00000000000000000e+00
10 7 1.00000000000000000e+00
11 7 1.00000000000000000e+00
12 7 1.00000000000000000e+00
13 7 1.00000000000000000e+00
14 7 1.00000000000000000e+00
15 7 1.00000000000000000e+00
16 7 1.00000000000000000e+00
17 7 1.00000000000000000e+00
18 7 1.00000000000000000e+00
19 7 1.00000000000000000e+00
20 7 1.00000000000000000e+00
21 7 1.00000000000000000e+00
22 7 1.00000000000000000e+00
23 7 1.00000000000000000e+00
24 7 1.00000000000000000e+00
25 7 1.00000000000000000e+00
26 7 1.00000000000000000e+00
27 7 1.00000000000000000e+00
28 7 1.00000000000000000e+00
29 7 1.00000000000000000e+00
30 7 1.00000000000000000e+00
31 7 1.00000000000000000e+00
32 7 1.00000000000000000e+00
33 7 1.00000000000000000e+00
34 7 1.00000000000000000e+00
1 8 1.00000000000000000e+00
2 8 1.00000000000000000e+00
3 8 1.00000000000000000e+00
4 8 1.00000000000000000e+00
5 8 1.00000000000000000e+00
6 8 1.00000000000000000e+00
7 8 1.00000000000000000e+00
8 8 1.00000000000000000e+00
9 8 1.00000000000000000e+00
10 8 1.00000000000000000e+00
11 8 1.00000000000000000e+00
12 8 1.00000000000000000e+00
13 8 1.00000000000000000e+00
14 8 1.00000000000000000e+00
15 8 1.00000000000000000e+00
16 8 1.00000000000000000e+00
17 8 1.00000000000000000e+00
18 8 1.00000000000000000e+00
19 8 1.00000000000000000e+00
20 8 1.00000000000000000e+00
21 8 1.00000000000000000e+00
22 8 1.00000000000000000e+00
23 8 1.00000000000000000e+00
24 8 1.00000000000000000e+00
25 8 1.00000000000000000e+00
26 8 1.00000000000000000e+00
27 8 1.00000000000000000e+00
28 8 1.00000000000000000e+00
29 8 1.00000000000000000e+00
30 8 1.00000000000000000e+00
31 8 1.00000000000000000e+00
32 8 1.00000000000000000e+00
33 8 1.00000000000000000e+00
34 8 1.00000000000000000e+00
1 9 1.00000000000000000e+00
2 9 1.00000000000000000e+00
3 9 1.00000000000000000e+00
4 9 1.00000000000000000e+00
5 9 1.00000000000000000e+00
6 9 1.00000000000000000e+00
7 9 1.00000000000000000e+00
8 9 1.00000000000000000e+00
9 9 1.00000000000000000e+00
10 9 1.00000000000000000e+00
11 9 1.00000000000000000e+00
12 9 1.00000000000000000e+00
13 9 1.00000000000000000e+00
14 9 1.00000000000000000e+00
15 9 1.00000000000000000e+00
16 9 1.00000000000000000e+00
17 9 1.00000000000000000e+00
18 9 1.00000000000000000e+00
19 9 1.00000000000000000e+00
20 9 1.00000000000000000e+00
21 9 1.00000000000000000e+00
22 9 1.00000000000000000e+00
23 9 1.00000000000000000e+00
24 9 1.00000000000000000e+00
25 9 1.00000000000000000e+00
26 9 1.00000000000000000e+00
27 9 1.00000000000000000e+00
28 9 1.00000000000000000e+00
29 9 1.00000000000000000e+00
30 9 1.00000000000000000e+00
31 9 1.00000000000000000e+00
32 9 1.00000000000000000e+00
33 9 1.00000000000000000e+00
34 9 1.00000000000000000e+00
1 10 1.00000000000000000e+00
2 10 1.00000000000000000e+00
3 10 1.00000000000000000e+00
4 10 1.00000000000000000e+00
5 10 1.00000000000000000e+00
6 10 1.00000000000000000e+00
7 10 1.00000000000000000e+00
8 10 1.00000000000000000e+00
9 10 1.00000000000000000e+00
10 10 1.00000000000000000e+00
11 10 1.00000000000000000e+00
12 10 1.00000000000000000e+00
13 10 1.00000000000000000e+00
14 10 1.00000000000000000e+00
15 10 1.00000000000000000e+00
16 10 1.00000000000000000e+00
17 10 1.00000000000000000e+00
18 10 1.00000000000000000e+00
19 10 1.00000000000000000e+00
20 10 1.00000000000000000e+00
21 10 1.00000000000000000e+00
22 10 1.00000000000000000e+00
23 10 1.00000000000000000e+00
24 10 1.00000000000000000e+00
25 10 1.00000000000000000e+00
26 10 1.00000000000000000e+00
27 10 1.00000000000000000e+00
28 10 1.00000000000000000e+00
29 10 1.00000000000000000e+00
30 10 1.00000000000000000e+00
31 10 1.00000000000000000e+00
32 10 1.00000000000000000e+00
33 10 1.00000000000000000e+00
34 10 1.00000000000000000e+00
1 11 1.00000000000000000e+00
2 11 1.00000000000000000e+00
3 11 1.00000000000000000e+00
4 11 1.00000000000000000e+00
5 11 1.00000000000000000e+00
6 11 1.00000000000000000e+00
7 11 1.00000000000000000e+00
8 11 1.00000000000000000e+00
9 11 1.00000000000000000e+00
10 11 1.00000000000000000e+00
11 11 1.00000000000000000e+00
12 11 1.00000000000000000e+00
13 11 1.00000000000000000e+00
14 11 1.00000000000000000e+00
15 11 1.00000000000000000e+00
16 11 1.00000000000000000e+00
17 11 1.00000000000000000e+00
18 11 1.00000000000000000e+00
19 11 1.00000000000000000e+00
20 11 1.00000000000000000e+00
21 11 1.00000000000000000e+00
22 11 1.00000000000000000e+00
23 11 1.00000000000000000e+00
24 11 1.00000000000000000e+00
25 11 1.00000000000000000e+00
26 11 1.00000000000000000e+00
27 11 1.00000000000000000e+00
28 11 1.00000000000000000e+00
29 11 1.00000000000000000e+00
30 11 1.00000000000000000e+00
31 11 1.00000000000000000e+00
32 11 1.00000000000000000e+00
33 11 1.00000000000000000e+00
34 11 1.00000000000000000e+00
1 12 1.00000000000000000e+00
2 12 1.00000000000000000e+00
3 12 1.00000000000000000e+00
4 12 1.00000000000000000e+00
5 12 1.00000000000000000e+00
6 12 1.00000000000000000e+00
7 12 1.00000000000000000e+00
8 12 1.00000000000000000e+00
9 12 1.00000000000000000e+00
10 12 1.00000000000000000e+00
11 12 1.00000000000000000e+00
12 12 1.00000000000000000e+00
13 12 1.00000000000000000e+00
14 12 1.00000000000000000e+00
15 12 1.00000000000000000e+00
16 12 1.00000000000000000e+00
17 12 1.00000000000000000e+00
18 12 1.00000000000000000e+00
19 12 1.00000000000000000e+00
20 12 1.00000000000000000e+00
21 12 1.00000000000000000e+00
22 12 1.00000000000000000e+00
23 12 1.00000000000000000e+00
24 12 1.00000000000000000e+00
25 12 1.00000000000000000e+00
26 12 1.00000000000000000e+00
27 12 1.00000000000000000e+00
28 12 1.00000000000000000e+00
29 12 1.00000000000000000e+00
30 12 1.00000000000000000e+00
31 12 1.00000000000000000e+00
32 12 1.00000000000000000e+00
33 12 1.00000000000000000e+00
34 12 1.00000000000000000e+00
1 13 1.00000000000000000e+00
2 13 1.00000000000000000e+00
3 13 1.00000000000000000e+00
4 13 1.00000000000000000e+00
5 13 1.00000000000000000e+00
6 13 1.00000000000000000e+00
7 13 1.00000000000000000e+00
8 13 1.00000000000000000e+00
9 13 1.00000000000000000e+00
10 13 1.00000000000000000e+00
11 13 1.00000000000000000e+00
12 13 1.00000000000000000e+00
13 13 1.00000000000000000e+00
14 13 1.00000000000000000e+00
15 13 1.00000000000000000e+00
16 13 1.00000000000000000e+00
17 13 1.00000000000000000e+00
18 13 1.00000000000000000e+00
19 13 1.00000000000000000e+00
20 13 1.00000000000000000e+00
21 13 1.00000000000000000e+00
22 13 1.00000000000000000e+00
23 13 1.00000000000000000e+00
24 13 1.00000000000000000e+00
25 13 1.00000000000000000e+00
26 13 1.00000000000000000e+00
27 13 1.00000000000000000e+00
28 13 1.00000000000000000e+00
29 13 1.00000000000000000e+00
30 13 1.00000000000000000e+00
31 13 1.00000000000000000e+00
32 13 1.00000000000000000e+00
33 13 1.00000000000000000e+00
34 13 1.00000000000000000e+00
1 14 1.00000000000000000e+00
2 14 1.00000000000000000e+00
3 14 1.00000000000000000e+00
4 14 1.00000000000000000e+00
5 14 1.00000000000000000e+00
6 14 1.00000000000000000e+00
7 14 1.00000000000000000e+00
8 14 1.00000000000000000e+00
9 14 1.00000000000000000e+00
10 14 1.00000000000000000e+00
11 14 1.00000000000000000e+00
12 14 1.00000000000000000e+00
13 14 1.00000000000000000e+00
14 14 1.00000000000000000e+00
15 14 1.00000000000000000e+00
16 14 1.00000000000000000e+00
17 14 1.00000000000000000e+00
18 14 1.00000000000000000e+00
19 14 1.00000000000000000e+00
20 14 1.00000000000000000e+00
21 14 1.00000000000000000e+00
22 14 1.00000000000000000e+00
23 14 1.00000000000000000e+00
24 14 1.00000000000000000e+00
25 14 1.00000000000000000e+00
26 14 1.00000000000000000e+00
27 14 1.00000000000000000e+00
28 14 1.00000000000000000e+00
29 14 1.00000000000000000e+00
30 14 1.00000000000000000e+00
31 14 1.00000000000000000e+00
32 14 1.00000000000000000e+00
33 14 1.00000000000000000e+00
34 14 1.00000000000000000e+00
1 15 1.00000000000000000e+00
2 15 1.00000000000000000e+00
3 15 1.00000000000000000e+00
4 15 1.00000000000000000e+00
5 15 1.00000000000000000e+00
6 15 1.00000000000000000e+00
7 15 1.00000000000000000e+00
8 15 1.00000000000000000e+00
9 15 1.00000000000000000e+00
10 15 1.00000000000000000e+00
11 15 1.00000000000000000e+00
12 15 1.00000000000000000e+00
13 15 1.00000000000000000e+00
14 15 1.00000000000000000e+00
15 15 1.00000000000000000e+00
16 15 1.00000000000000000e+00
17 15 1.00000000000000000e+00
18 15 1.00000000000000000e+00
19 15 1.00000000000000000e+00
20 15 1.00000000000000000e+00
21 15 1.00000000000000000e+00
22 15 1.00000000000000000e+00
23 15 1.00000000000000000e+00
24 15 1.00000000000000000e+00
25 15 1.00000000000000000e+00
26 15 1.00000000000000000e+00
27 15 1.00000000000000000e+00
28 15 1.00000000000000000e+00
29 15 1.00000000000000000e+00
30 15 1.00000000000000000e+00
31 15 1.00000000000000000e+00
32 15 1.00000000000000000e+00
33 15 1.00000000000000000e+00
34 15 1.00000000000000000e+00
1 16 1.00000000000000000e+00
2 16 1.00000000000000000e+00
3 16 1.00000000000000000e+00
4 16 1.00000000000000000e+00
5 16 1.00000000000000000e+00
6 16 1.00000000000000000e+00
7 16 1.00000000000000000e+00
8 16 1.00000000000000000e+00
9 16 1.00000000000000000e+00
10 16 1.00000000000000000e+00
11 16 1.00000000000000000e+00
12 16 1.00000000000000000e+00
13 16 1.00000000000000000e+00
14 16 1.00000000000000000e+00
15 16 1.00000000000000000e+00
16 16 1.00000000000000000e+00
17 16 1.00000000000000000e+00
18 16 1.00000000000000000e+00
19 16 1.00000000000000000e+00
20 16 1.00000000000000000e+00
21 16 1.00000000000000000e+00
22 16 1.00000000000000000e+00
23 16 1.00000000000000000e+00
24 16 1.00000000000000000e+00
25 16 1.00000000000000000e+00
26 16 1.00000000000000000e+00
27 16 1.00000000000000000e+00
28 16 1.00000000000000000e+00
29 16 1.00000000000000000e+00
30 16 1.00000000000000000e+00
31 16 1.00000000000000000e+00
32 16 1.00000000000000000e+00
33 16 1.00000000000000000e+00
34 16 1.00000000000000000e+00
1 17 1.00000000000000000e+00
2 17 1.00000000000000000e+00
3 17 1.00000000000000000e+00
4 17 1.00000000000000000e+00
5 17 1.00000000000000000e+00
6 17 1.00000000000000000e+00
7 17 1.00000000000000000e+00
8 17 1.00000000000000000e+00
9 17 1.00000000000000000e+00
10 17 1.00000000000000000e+00
11 17 1.00000000000000000e+00
12 17 1.00000000000000000e+00
13 17 1.00000000000000000e+00
14 17 1.00000000000000000e+00
15 17 1.00000000000000000e+00
16 17 1.00000000000000000e+00
17 17 1.00000000000000000e+00
18 17 1.00000000000000000e+00
19 17 1.00000000000000000e+00
20 17 1.00000000000000000e+00
21 17 1.00000000000000000e+00
22 17 1.00000000000000000e+00
23 17 1.00000000000000000e+00
24 17 1.00000000000000000e+00
25 17 1.00000000000000000e+00
26 17 1.00000000000000000e+00
27 17 1.00000000000000000e+00
28 17 1.00000000000000000e+00
29 17 1.00000000000000000e+00
30 17 1.00000000000000000e+00
31 17 1.00000000000000000e+00
32 17 1.00000000000000000e+00
33 17 1.00000000000000000e+00
34 17 1.00000000000000000e+00
1 18 1.00000000000000000e+00
2 18 1.00000000000000000e+00
3 18 1.00000000000000000e+00
4 18 1.00000000000000000e+00
5 18 1.00000000000000000e+00
6 18 1.00000000000000000e+00
7 18 1.00000000000000000e+00
8 18 1.00000000000000000e+00
9 18 1.00000000000000000e+00
10 18 1.00000000000000000e+00
11 18 1.00000000000000000e+00
12 18 1.00000000000000000e+00
13 18 1.00000000000000000e+00
14 18 1.00000000000000000e+00
15 18 1.00000000000000000e+00
16 18 1.00000000000000000e+00
17 18 1.00000000000000000e+00
18 18 1.00000000000000000e+00
19 18 1.00000000000000000e+00
20 18 1.00000000000000000e+00
21 18 1.00000000000000000e+00
22 18 1.00000000000000000e+00
23 18 1.00000000000000000e+00
24 18 1.00000000000000000e+00
25 18 1.00000000000000000e+00
26 18 1.00000000000000000e+00
27 18 1.00000000000000000e+00
28 18 1.00000000000000000e+00
29 18 1.00000000000000000e+00
30 18 1.00000000000000000e+00
31 18 1.00000000000000000e+00
32 18 1.00000000000000000e+00
33 18 1.00000000000000000e+00
34 18 1.00000000000000000e+00
1 19 1.00000000000000000e+00
2 19 1.00000000000000000e+00
3 19 1.00000000000000000e+00
4 19 1.00000000000000000e+00
5 19 1.00000000000000000e+00
6 19 1.00000000000000000e+00
7 19 1.00000000000000000e+00
8 19 1.00000000000000000e+00
9 19 1.00000000000000000e+00
10 19 1.00000000000000000e+00
11 19 1.00000000000000000e+00
12 19 1.00000000000000000e+00
13 19 1.00000000000000000e+00
14 19 1.00000000000000000e+00
15 19 1.00000000000000000e+00
16 19 1.00000000000000000e+00
17 19 1.00000000000000000e+00
18 19 1.00000000000000000e+00
19 19 1.00000000000000000e+00
20 19 1.00000000000000000e+00
21 19 1.00000000000000000e+00
22 19 1.00000000000000000e+00
23 19 1.00000000000000000e+00
24 19 1.00000000000000000e+00
25 19 1.00000000000000000e+00
26 19 1.00000000000000000e+00
27 19 1.00000000000000000e+00
28 19 1.00000000000000000e+00
29 19 1.00000000000000000e+00
30 19 1.00000000000000000e+00
31 19 1.00000000000000000e+00
32 19 1.00000000000000000e+00
33 19 1.00000000000000000e+00
34 19 1.00000000000000000e+00
1 20 1.00000000000000000e+00
2 20 1.00000000000000000e+00
3 20 1.00000000000000000e+00
4 20 1.00000000000000000e+00
5 20 1.00000000000000000e+00
6 20 1.00000000000000000e+00
7 20 1.00000000000000000e+00
8 20 1.00000000000000000e+00
9 20 1.00000000000000000e+00
10 20 1.00000000000000000e+00
11 20 1.00000000000000000e+00
12 20 1.00000000000000000e+00
13 20 1.00000000000000000e+00
14 20 1.00000000000000000e+00
15 20 1.00000000000000000e+00
16 20 1.00000000000000000e+00
17 20 1.00000000000000000e+00
18 20 1.00000000000000000e+00
19 20 1.00000000000000000e+00
20 20 1.00000000000000000e+00
21 20 1.00000000000000000e+00
22 20 1.00000000000000000e+00
23 20 1.00000000000000000e+00
24 20 1.00000000000000000e+00
25 20 1.00000000000000000e+00
26 20 1.00000000000000000e+00
27 20 1.00000000000000000e+00
28 20 1.00000000000000000e+00
29 20 1.00000000000000000e+00
30 20 1.00000000000000000e+00
31 20 1.00000000000000000e+00
32 20 1.00000000000000000e+00
33 20 1.00000000000000000e+00
34 20 1.00000000000000000e+00
1 21 1.00000000000000000e+00
2 21 1.00000000000000000e+00
3 21 1.00000000000000000e+00
4 21 1.00000000000000000e+00
5 21 1.00000000000000000e+00
6 21 1.00000000000000000e+00
7 21 1.00000000000000000e+00
8 21 1.00000000000000000e+00
9 21 1.00000000000000000e+00
10 21 1.00000000000000000e+00
11 21 1.00000000000000000e+00
12 21 1.00000000000000000e+00
13 21 1.00000000000000000e+00
14 21 1.00000000000000000e+00
15 21 1.00000000000000000e+00
16 21 1.00000000000000000e+00
17 21 1.00000000000000000e+00
18 21 1.00000000000000000e+00
19 21 1.00000000000000000e+00
20 21 1.00000000000000000e+00
21 21 1.00000000000000000e+00
22 21 1.00000000000000000e+00
23 21 1.00000000000000000e+00
24 21 1.00000000000000000e+00
25 21 1.00000000000000000e+00
26 21 1.00000000000000000e+00
27 21 1.00000000000000000e+00
28 21 1.00000000000000000e+00
29 21 1.00000000000000000e+00
30 21 1.00000000000000000e+00
31 21 1.00000000000000000e+00
32 21 1.00000000000000000e+00
33 21 1.00000000000000000e+00
34 21 1.00000000000000000e+00
1 22 1.00000000000000000e+00
2 22 1.00000000000000000e+00
3 22 1.00000000000000000e+00
4 22 1.00000000000000000e+00
5 22 1.00000000000000000e+00
6 22 1.00000000000000000e+00
7 22 1.00000000000000000e+00
8 22 1.00000000000000000e+00
9 22 1.00000000000000000e+00
10 22 1.00000000000000000e+00
11 22 1.00000000000000000e+00
12 22 1.00000000000000000e+00
13 22 1.00000000000000000e+00
14 22 1.00000000000000000e+00
15 22 1.00000000000000000e+00
16 22 1.00000000000000000e+00
17 22 1.00000000000000000e+00
18 22 1.00000000000000000e+00
19 22 1.00000000000000000e+00
20 22 1.00000000000000000e+00
21 22 1.00000000000000000e+00
22 22 1.00000000000000000e+00
23 22 1.00000000000000000e+00
24 22 1.00000000000000000e+00
25 22 1.00000000000000000e+00
26 22 1.00000000000000000e+00
27 22 1.00000000000000000e+00
28 22 1.00000000000000000e+00
29 22 1.00000000000000000e+00
30 22 1.00000000000000000e+00
31 22 1.00000000000000000e+00
32 22 1.00000000000000000e+00
33 22 1.00000000000000000e+00
34 22 1.00000000000000000e+00
1 23 1.00000000000000000e+00
2 23 1.00000000000000000e+00
3 23 1.00000000000000000e+00
4 23 1.00000000000000000e+00
5 23 1.00000000000000000e+00
6 23 1.00000000000000000e+00
7 23 1.00000000000000000e+00
8 23 1.00000000000000000e+00
9 23 1.00000000000000000e+00
10 23 1.00000000000000000e+00
11 23 1.00000000000000000e+00
12 23 1.00000000000000000e+00
13 23 1.00000000000000000e+00
14 23 1.00000000000000000e+00
15 23 1.00000000000000000e+00
16 23 1.00000000000000000e+00
17 23 1.00000000000000000e+00
18 23 1.00000000000000000e+00
19 23 1.00000000000000000e+00
20 23 1.00000000000000000e+00
21 23 1.00000000000000000e+00
22 23 1.00000000000000000e+00
23 23 1.00000000000000000e+00
24 23 1.00000000000000000e+00
25 23 1.00000000000000000e+00
26 23 1.00000000000000000e+00
27 23 1.00000000000000000e+00
28 23 1.00000000000000000e+00
29 23 1.00000000000000000e+00
30 23 1.00000000000000000e+00
31 23 1.00000000000000000e+00
32 23 1.00000000000000000e+00
33 23 1.00000000000000000e+00
34 23 1.00000000000000000e+00
1 24 1.00000000000000000e+00
2 24 1.00000000000000000e+00
3 24 1.00000000000000000e+00
4 24 1.00000000000000000e+00
5 24 1.00000000000000000e+00
6 24 1.00000000000000000e+00
7 24 1.00000000000000000e+00
8 24 1.00000000000000000e+00
9 24 1.00000000000000000e+00
10 24 1.00000000000000000e+00
11 24 1.00000000000000000e+00
12 24 1.00000000000000000e+00
13 24 1.00000000000000000e+00
14 24 1.00000000000000000e+00
15 24 1.00000000000000000e+00
16 24 1.00000000000000000e+00
17 24 1.00000000000000000e+00
18 24 1.00000000000000000e+00
19 24 1.00000000000000000e+00
20 24 1.00000000000000000e+00
21 24 1.00000000000000000e+00
22 24 1.00000000000000000e+00
23 24 1.00000000000000000e+00
24 24 1.00000000000000000e+00
25 24 1.00000000000000000e+00
26 24 1.00000000000000000e+00
27 24 1.00000000000000000e+00
28 24 1.00000000000000000e+00
29 24 1.00000000000000000e+00
30 24 1.00000000000000000e+00
31 24 1.00000000000000000e+00
32 24 1.00000000000000000e+00
33 24 1.00000000000000000e+00
34 24 1.00000000000000000e+00
1 25 1.00000000000000000e+00
2 25 1.00000000000000000e+00
3 25 1.00000000000000000e+00
4 25 1.00000000000000000e+00
5 25 1.00000000000000000e+00
6 25 1.00000000000000000e+00
7 25 1.00000000000000000e+00
8 25 1.00000000000000000e+00
9 25 1.00000000000000000e+00
10 25 1.00000000000000000e+00
11 25 1.00000000000000000e+00
12 25 1.00000000000000000e+00
13 25 1.00000000000000000e+00
14 25 1.00000000000000000e+00
15 25 1.00000000000000000e+00
16 25 1.00000000000000000e+00
17 25 1.00000000000000000e+00
18 25 1.00000000000000000e+00
19 25 1.00000000000000000e+00
20 25 1.00000000000000000e+00
21 25 1.00000000000000000e+00
22 25 1.00000000000000000e+00
23 25 1.00000000000000000e+00
24 25 1.00000000000000000e+00
25 25 1.00000000000000000e+00
26 25 1.00000000000000000e+00
27 25 1.00000000000000000e+00
28 25 1.00000000000000000e+00
29 25 1.00000000000000000e+00
30 25 1.00000000000000000e+00
31 25 1.00000000000000000e+00
32 25 1.00000000000000000e+00
33 25 1.00000000000000000e+00
34 25 1.00000000000000000e+00
1 26 1.00000000000000000e+00
2 26 1.00000000000000000e+00
3 26 1.00000000000000000e+00
4 26 1.00000000000000000e+00
5 26 1.00000000000000000e+00
6 26 1.00000000000000000e+00
7 26 1.00000000000000000e+00
8 26 1.00000000000000000e+00
9 26 1.00000000000000000e+00
10 26 1.00000000000000000e+00
11 26 1.00000000000000000e+00
12 26 1.00000000000000000e+00
13 26 1.00000000000000000e+00
14 26 1.00000000000000000e+00
15 26 1.00000000000000000e+00
16 26 1.00000000000000000e+00
17 26 1.00000000000000000e+00
18 26 1.00000000000000000e+00
19 26 1.00000000000000000e+00
20 26 1.00000000000000000e+00
21 26 1.00000000000000000e+00
22 26 1.00000000000000000e+00
23 26 1.00000000000000000e+00
24 26 1.00000000000000000e+00
25 26 1.00000000000000000e+00
26 26 1.00000000000000000e+00
27 26 1.00000000000000000e+00
28 26 1.00000000000000000e+00
29 26 1.00000000000000000e+00
30 26 1.00000000000000000e+00
31 26 1.00000000000000000e+00
32 26 1.00000000000000000e+00
33 26 1.00000000000000000e+00
34 26 1.00000000000000000e+00
1 27 1.00000000000000000e+00
2 27 1.00000000000000000e+00
3 27 1.00000000000000000e+00
4 27 1.00000000000000000e+00
5 27 1.00000000000000000e+00
6 27 1.00000000000000000e+00
7 27 1.00000000000000000e+00
8 27 1.00000000000000000e+00
9 27 1.00000000000000000e+00
10 27 1.00000000000000000e+00
11 27 1.00000000000000000e+00
12 27 1.00000000000000000e+00
13 27 1.00000000000000000e+00
14 27 1.00000000000000000e+00
15 27 1.00000000000000000e+00
16 27 1.00000000000000000e+00
17 27 1.00000000000000000e+00
18 27 1.00000000000000000e+00
19 27 1.00000000000000000e+00
20 27 1.00000000000000000e+00
21 27 1.00000000000000000e+00
22 27 1.00000000000000000e+00
23 27 1.00000000000000000e+00
24 27 1.00000000000000000e+00
25 27 1.00000000000000000e+00
26 27 1.00000000000000000e+00
27 27 1.00000000000000000e+00
28 27 1.00000000000000000e+00
29 27 1.00000000000000000e+00
30 27 1.00000000000000000e+00
31 27 1.00000000000000000e+00
32 27 1.00000000000000000e+00
33 27 1.00000000000000000e+00
34 27 1.00000000000000000e+00
1 28 1.00000000000000000e+00
2 28 1.00000000000000000e+00
3 28 1.00000000000000000e+00
4 28 1.00000000000000000e+00
5 28 1.00000000000000000e+00
6 28 1.00000000000000000e+00
7 28 1.00000000000000000e+00
8 28 1.00000000000000000e+00
9 28 1.00000000000000000e+00
10 28 1.00000000000000000e+00
11 28 1.00000000000000000e+00
12 28 1.00000000000000000e+00
13 28 1.00000000000000000e+00
14 28 1.00000000000000000e+00
15 28 1.00000000000000000e+00
16 28 1.00000000000000000e+00
17 28 1.00000000000000000e+00
18 28 1.00000000000000000e+00
19 28 1.00000000000000000e+00
20 28 1.00000000000000000e+00
21 28 1.00000000000000000e+00
22 28 1.00000000000000000e+00
23 28 1.00000000000000000e+00
24 28 1.00000000000000000e+00
25 28 1.00000000000000000e+00
26 28 1.00000000000000000e+00
27 28 1.00000000000000000e+00
28 28 1.00000000000000000e+00
29 28 1.00000000000000000e+00
30 28 1.00000000000000000e+00
31 28 1.00000000000000000e+00
32 28 1.00000000000000000e+00
33 28 1.00000000000000000e+00
34 28 1.00000000000000000e+00
1 29 1.00000000000000000e+00
2 29 1.00000000000000000e+00
3 29 1.00000000000000000e+00
4 29 1.00000000000000000e+00
5 29 1.00000000000000000e+00
6 29 1.00000000000000000e+00
7 29 1.00000000000000000e+00
8 29 1.00000000000000000e+00
9 29 1.00000000000000000e+00
10 29 1.00000000000000000e+00
11 29 1.00000000000000000e+00
12 29 1.00000000000000000e+00
13 29 1.00000000000000000e+00
14 29 1.00000000000000000e+00
15 29 1.00000000000000000e+00
16 29 1.00000000000000000e+00
17 29 1.00000000000000000e+00
18 29 1.00000000000000000e+00
19 29 1.00000000000000000e+00
20 29 1.00000000000000000e+00
21 29 1.00000000000000000e+00
22 29 1.00000000000000000e+00
23 29 1.00000000000000000e+00
24 29 1.00000000000000000e+00
25 29 1.00000000000000000e+00
26 29 1.00000000000000000e+00
27 29 1.00000000000000000e+00
28 29 1.00000000000000000e+00
29 29 1.00000000000000000e+00
30 29 1.00000000000000000e+00
31 29 1.00000000000000000e+00
32 29 1.00000000000000000e+00
33 29 1.00000000000000000e+00
34 29 1.00000000000000000e+00
1 30 1.00000000000000000e+00
2 30 1.00000000000000000e+00
3 30 1.00000000000000000e+00
4 30 1.00000000000000000e+00
5 30 1.00000000000000000e+00
6 30 1.00000000000000000e+00
7 30 1.00000000000000000e+00
8 30 1.00000000000000000e+00
9 30 1.00000000000000000e+00
10 30 1.00000000000000000e+00
11 30 1.00000000000000000e+00
12 30 1.00000000000000000e+00
13 30 1.00000000000000000e+00
14 30 1.00000000000000000e+00
15 30 1.00000000000000000e+00
16 30 1.00000000000000000e+00
17 30 1.00000000000000000e+00
18 30 1.00000000000000000e+00
19 30 1.00000000000000000e+00
20 30 1.00000000000000000e+00
21 30 1.00000000000000000e+00
22 30 1.00000000000000000e+00
23 30 1.00000000000000000e+00
24 30 1.00000000000000000e+00
25 30 1.00000000000000000e+00
26 30 1.00000000000000000e+00
27 30 1.00000000000000000e+00
28 30 1.00000000000000000e+00
29 30 1.00000000000000000e+00
30 30 1.00000000000000000e+00
31 30 1.00000000000000000e+00
32 30 1.00000000000000000e+00
33 30 1.00000000000000000e+00
34 30 1.00000000000000000e+00
1 31 1.00000000000000000e+00
2 31 1.00000000000000000e+00
3 31 1.00000000000000000e+00
4 31 1.00000000000000000e+00
5 31 1.00000000000000000e+00
6 31 1.00000000000000000e+00
7 31 1.00000000000000000e+00
8 31 1.00000000000000000e+00
9 31 1.00000000000000000e+00
10 31 1.00000000000000000e+00
11 31 1.00000000000000000e+00
12 31 1.00000000000000000e+00
13 31 1.00000000000000000e+00
14 31 1.00000000000000000e+00
15 31 1.00000000000000000e+00
16 31 1.00000000000000000e+00
17 31 1.00000000000000000e+00
18 31 1.00000000000000000e+00
19 31 1.00000000000000000e+00
20 31 1.00000000000000000e+00
21 31 1.00000000000000000e+00
22 31 1.00000000000000000e+00
23 31 1.00000000000000000e+00
24 31 1.00000000000000000e+00
25 31 1.00000000000000000e+00
26 31 1.00000000000000000e+00
27 31 1.00000000000000000e+00
28 31 1.00000000000000000e+00
29 31 1.00000000000000000e+00
30 31 1.00000000000000000e+00
31 31 1.00000000000000000e+00
32 31 1.00000000000000000e+00
33 31 1.00000000000000000e+00
34 31 1.00000000000000000e+00
1 32 1.00000000000000000e+00
2 32 1.00000000000000000e+00
3 32 1.00000000000000000e+00
4 32 1.00000000000000000e+00
5 32 1.00000000000000000e+00
6 32 1.00000000000000000e+00
7 32 1.00000000000000000e+00
8 32 1.00000000000000000e+00
9 32 1.00000000000000000e+00
10 32 1.00000000000000000e+00
11 32 1.00000000000000000e+00
12 32 1.00000000000000000e+00
13 32 1.00000000000000000e+00
14 32 1.00000000000000000e+00
15 32 1.00000000000000000e+00
16 32 1.00000000000000000e+00
17 32 1.00000000000000000e+00
18 32 1.00000000000000000e+00
19 32 1.00000000000000000e+00
20 32 1.00000000000000000e+00
21 32 1.00000000000000000e+00
22 32 1.00000000000000000e+00
23 32 1.00000000000000000e+00
24 32 1.00000000000000000e+00
25 32 1.00000000000000000e+00
26 32 1.00000000000000000e+00
27 32 1.00000000000000000e+00
28 32 1.00000000000000000e+00
29 32 1.00000000000000000e+00
30 32 1.00000000000000000e+00
31 32 1.00000000000000000e+00
32 32 1.00000000000000000e+00
33 32 1.00000000000000000e+00
34 32 1.00000000000000000e+00
1 33 1.00000000000000000e+00
2 33 1.00000000000000000e+00
3 33 1.00000000000000000e+00
4 33 1.00000000000000000e+00
5 33 1.00000000000000000e+00
6 33 1.00000000000000000e+00
7 33 1.00000000000000000e+00
8 33 1.00000000000000000e+00
9 33 1.00000000000000000e+00
10 33 1.00000000000000000e+00
11 33 1.00000000000000000e+00
12 33 1.00000000000000000e+00
13 33 1.00000000000000000e+00
14 33 1.00000000000000000e+00
15 33 1.00000000000000000e+00
16 33 1.00000000000000000e+00
17 33 1.00000000000000000e+00
18 33 1.00000000000000000e+00
19 33 1.00000000000000000e+00
20 33 1.00000000000000000e+00
21 33 1.00000000000000000e+00
22 33 1.00000000000000000e+00
23 33 1.00000000000000000e+00
24 33 1.00000000000000000e+00
25 33 1.00000000000000000e+00
26 33 1.00000000000000000e+00
27 33 1.00000000000000000e+00
28 33 1.00000000000000000e+00
29 33 1.00000000000000000e+00
30 33 1.00000000000000000e+00
31 33 1.00000000000000000e+00
32 33 1.00000000000000000e+00
33 33 1.00000000000000000e+00
34 33 1.00000000000000000e+00
1 34 1.00000000000000000e+00
2 34 1.00000000000000000e+00
3 34 1.00000000000000000e+00
4 34 1.00000000000000000e+00
5 34 1.00000000000000000e+00
6 34 1.00000000000000000e+00
7 34 1.00000000000000000e+00
8 34 1.00000000000000000e+00
9 34 1.00000000000000000e+00
10 34 1.00000000000000000e+00
11 34 1.00000000000000000e+00
12 34 1.00000000000000000e+00
13 34 1.00000000000000000e+00
14 34 1.00000000000000000e+00
15 34 1.00000000000000000e+00
16 34 1.00000000000000000e+00
17 34 1.00000000000000000e+00
18 34 1.00000000000000000e+00
19 34 1.00000000000000000e+00
20 34 1.00000000000000000e+00
21 34 1.00000000000000000e+00
22 34 1.00000000000000000e+00
23 34 1.00000000000000000e+00
24 34 1.00000000000000000e+00
25 34 1.00000000000000000e+00
26 34 1.00000000000000000e+00
27 34 1.00000000000000000e+00
28 34 1.00000000000000000e+00
29 34 1.00000000000000000e+00
30 34 1.00000000000000000e+00
31 34 1.00000000000000000e+00
32 34 1.00000000000000000e+00
33 34 1.00000000000000000e+00
34 34 1.00000000000000000e+00
