%%MatrixMarket matrix coordinate  real general
133 66 8778
1 1 0.00000000000000000e+00
2 1 0.00000000000000000e+00
3 1 0.00000000000000000e+00
4 1 0.00000000000000000e+00
5 1 0.00000000000000000e+00
6 1 0.00000000000000000e+00
7 1 0.00000000000000000e+00
8 1 0.00000000000000000e+00
9 1 0.00000000000000000e+00
10 1 0.00000000000000000e+00
11 1 0.00000000000000000e+00
12 1 0.00000000000000000e+00
13 1 0.00000000000000000e+00
14 1 0.00000000000000000e+00
15 1 0.00000000000000000e+00
16 1 0.00000000000000000e+00
17 1 0.00000000000000000e+00
18 1 0.00000000000000000e+00
19 1 0.00000000000000000e+00
20 1 0.00000000000000000e+00
21 1 0.00000000000000000e+00
22 1 0.00000000000000000e+00
23 1 0.00000000000000000e+00
24 1 0.00000000000000000e+00
25 1 0.00000000000000000e+00
26 1 0.00000000000000000e+00
27 1 0.00000000000000000e+00
28 1 0.00000000000000000e+00
29 1 0.00000000000000000e+00
30 1 0.00000000000000000e+00
31 1 0.00000000000000000e+00
32 1 0.00000000000000000e+00
33 1 0.00000000000000000e+00
34 1 0.00000000000000000e+00
35 1 0.00000000000000000e+00
36 1 0.00000000000000000e+00
37 1 0.00000000000000000e+00
38 1 0.00000000000000000e+00
39 1 0.00000000000000000e+00
40 1 0.00000000000000000e+00
41 1 0.00000000000000000e+00
42 1 0.00000000000000000e+00
43 1 0.00000000000000000e+00
44 1 0.00000000000000000e+00
45 1 0.00000000000000000e+00
46 1 0.00000000000000000e+00
47 1 0.00000000000000000e+00
48 1 0.00000000000000000e+00
49 1 0.00000000000000000e+00
50 1 0.00000000000000000e+00
51 1 0.00000000000000000e+00
52 1 0.00000000000000000e+00
53 1 0.00000000000000000e+00
54 1 0.00000000000000000e+00
55 1 0.00000000000000000e+00
56 1 0.00000000000000000e+00
57 1 0.00000000000000000e+00
58 1 0.00000000000000000e+00
59 1 0.00000000000000000e+00
60 1 0.00000000000000000e+00
61 1 0.00000000000000000e+00
62 1 0.00000000000000000e+00
63 1 0.00000000000000000e+00
64 1 0.00000000000000000e+00
65 1 0.00000000000000000e+00
66 1 0.00000000000000000e+00
67 1 0.00000000000000000e+00
68 1 0.00000000000000000e+00
69 1 0.00000000000000000e+00
70 1 0.00000000000000000e+00
71 1 0.00000000000000000e+00
72 1 0.00000000000000000e+00
73 1 0.00000000000000000e+00
74 1 0.00000000000000000e+00
75 1 0.00000000000000000e+00
76 1 0.00000000000000000e+00
77 1 0.00000000000000000e+00
78 1 0.00000000000000000e+00
79 1 0.00000000000000000e+00
80 1 0.00000000000000000e+00
81 1 0.00000000000000000e+00
82 1 0.00000000000000000e+00
83 1 0.00000000000000000e+00
84 1 0.00000000000000000e+00
85 1 0.00000000000000000e+00
86 1 0.00000000000000000e+00
87 1 0.00000000000000000e+00
88 1 0.00000000000000000e+00
89 1 0.00000000000000000e+00
90 1 0.00000000000000000e+00
91 1 0.00000000000000000e+00
92 1 0.00000000000000000e+00
93 1 0.00000000000000000e+00
94 1 0.00000000000000000e+00
95 1 0.00000000000000000e+00
96 1 0.00000000000000000e+00
97 1 0.00000000000000000e+00
98 1 0.00000000000000000e+00
99 1 0.00000000000000000e+00
100 1 0.00000000000000000e+00
101 1 0.00000000000000000e+00
102 1 0.00000000000000000e+00
103 1 0.00000000000000000e+00
104 1 0.00000000000000000e+00
105 1 0.00000000000000000e+00
106 1 0.00000000000000000e+00
107 1 0.00000000000000000e+00
108 1 0.00000000000000000e+00
109 1 0.00000000000000000e+00
110 1 0.00000000000000000e+00
111 1 0.00000000000000000e+00
112 1 0.00000000000000000e+00
113 1 0.00000000000000000e+00
114 1 0.00000000000000000e+00
115 1 0.00000000000000000e+00
116 1 0.00000000000000000e+00
117 1 0.00000000000000000e+00
118 1 0.00000000000000000e+00
119 1 0.00000000000000000e+00
120 1 0.00000000000000000e+00
121 1 0.00000000000000000e+00
122 1 0.00000000000000000e+00
123 1 0.00000000000000000e+00
124 1 0.00000000000000000e+00
125 1 0.00000000000000000e+00
126 1 0.00000000000000000e+00
127 1 0.00000000000000000e+00
128 1 0.00000000000000000e+00
129 1 0.00000000000000000e+00
130 1 0.00000000000000000e+00
131 1 0.00000000000000000e+00
132 1 0.00000000000000000e+00
133 1 0.00000000000000000e+00
1 2 0.00000000000000000e+00
2 2 -3.53987427460614916e-04
3 2 -1.06749142838781551e-03
4 2 -1.79103105576590058e-03
5 2 -2.52248368764677530e-03
6 2 -3.25952708152508173e-03
7 2 -3.99965216659056277e-03
8 2 -4.74018059155508539e-03
9 2 -5.47828706764826728e-03
10 2 -6.21102637762144683e-03
11 2 -6.93536473712730826e-03
12 2 -7.64821500338996613e-03
13 2 -8.34647503816687147e-03
14 2 -9.02706835927318332e-03
15 2 -9.68698606928914893e-03
16 2 -1.03233289426309920e-02
17 2 -1.09333484922334370e-02
18 2 -1.15144858311490225e-02
19 2 -1.20644071953007557e-02
20 2 -1.25810351002724041e-02
21 2 -1.30625742621109878e-02
22 2 -1.35075316106347647e-02
23 2 -1.39147299516763755e-02
24 2 -1.42833150780949901e-02
25 2 -1.46127563736166127e-02
26 2 -1.49028411845148930e-02
27 2 -1.51536634394445670e-02
28 2 -1.53656071676130917e-02
29 2 -1.55393256933468050e-02
30 2 -1.56757173678133861e-02
31 2 -1.57758987363451932e-02
32 2 -1.58411760355005558e-02
33 2 -1.58730158730158860e-02
34 2 -1.58730158730158791e-02
35 2 -1.58730158730158860e-02
36 2 -1.58411760355005489e-02
37 2 -1.57758987363451897e-02
38 2 -1.56757173678133861e-02
39 2 -1.55393256933468050e-02
40 2 -1.53656071676130934e-02
41 2 -1.51536634394445566e-02
42 2 -1.49028411845149016e-02
43 2 -1.46127563736166127e-02
44 2 -1.42833150780949918e-02
45 2 -1.39147299516763755e-02
46 2 -1.35075316106347612e-02
47 2 -1.30625742621109878e-02
48 2 -1.25810351002724041e-02
49 2 -1.20644071953007574e-02
50 2 -1.15144858311490225e-02
51 2 -1.09333484922334370e-02
52 2 -1.03233289426309816e-02
53 2 -9.68698606928914893e-03
54 2 -9.02706835927318332e-03
55 2 -8.34647503816687668e-03
56 2 -7.64821500338996613e-03
57 2 -6.93536473712731260e-03
58 2 -6.21102637762144683e-03
59 2 -5.47828706764826902e-03
60 2 -4.74018059155508799e-03
61 2 -3.99965216659056277e-03
62 2 -3.25952708152508173e-03
63 2 -2.52248368764677704e-03
64 2 -1.79103105576590253e-03
65 2 -1.06749142838781768e-03
66 2 -3.53987427460616651e-04
67 2 -1.94388380817040204e-18
68 2 3.53987427460613507e-04
69 2 1.06749142838781443e-03
70 2 1.79103105576589971e-03
71 2 2.52248368764677357e-03
72 2 3.25952708152508173e-03
73 2 3.99965216659056277e-03
74 2 4.74018059155508539e-03
75 2 5.47828706764826728e-03
76 2 6.21102637762144683e-03
77 2 6.93536473712730826e-03
78 2 7.64821500338996613e-03
79 2 8.34647503816687147e-03
80 2 9.02706835927318332e-03
81 2 9.68698606928914893e-03
82 2 1.03233289426309920e-02
83 2 1.09333484922334370e-02
84 2 1.15144858311490225e-02
85 2 1.20644071953007557e-02
86 2 1.25810351002724041e-02
87 2 1.30625742621109878e-02
88 2 1.35075316106347647e-02
89 2 1.39147299516763755e-02
90 2 1.42833150780949901e-02
91 2 1.46127563736166127e-02
92 2 1.49028411845148930e-02
93 2 1.51536634394445670e-02
94 2 1.53656071676130917e-02
95 2 1.55393256933468050e-02
96 2 1.56757173678133861e-02
97 2 1.57758987363451932e-02
98 2 1.58411760355005558e-02
99 2 1.58730158730158860e-02
100 2 1.58730158730158791e-02
101 2 1.58730158730158860e-02
102 2 1.58411760355005489e-02
103 2 1.57758987363451897e-02
104 2 1.56757173678133861e-02
105 2 1.55393256933468050e-02
106 2 1.53656071676130934e-02
107 2 1.51536634394445566e-02
108 2 1.49028411845149016e-02
109 2 1.46127563736166127e-02
110 2 1.42833150780949918e-02
111 2 1.39147299516763755e-02
112 2 1.35075316106347612e-02
113 2 1.30625742621109878e-02
114 2 1.25810351002724041e-02
115 2 1.20644071953007574e-02
116 2 1.15144858311490225e-02
117 2 1.09333484922334370e-02
118 2 1.03233289426309816e-02
119 2 9.68698606928914893e-03
120 2 9.02706835927318332e-03
121 2 8.34647503816687668e-03
122 2 7.64821500338996613e-03
123 2 6.93536473712731260e-03
124 2 6.21102637762144683e-03
125 2 5.47828706764827075e-03
126 2 4.74018059155509233e-03
127 2 3.99965216659056624e-03
128 2 3.25952708152508781e-03
129 2 2.52248368764677704e-03
130 2 1.79103105576590340e-03
131 2 1.06749142838781985e-03
132 2 3.53987427460618494e-04
133 2 3.88776761634080408e-18
1 3 0.00000000000000000e+00
2 3 -1.07283190656180197e-03
3 3 -3.23525293700749469e-03
4 3 -5.42808900319634823e-03
5 3 -7.64490706153746289e-03
6 3 -9.87866907717069309e-03
7 3 -1.21217707935257490e-02
8 3 -1.43660949146311237e-02
9 3 -1.66030788201704353e-02
10 3 -1.88237964218394040e-02
11 3 -2.10190532104748695e-02
12 3 -2.31794929631910819e-02
13 3 -2.52957140102478030e-02
14 3 -2.73583924378791067e-02
15 3 -2.93584091618886052e-02
16 3 -3.12869774811979154e-02
17 3 -3.31357675388978673e-02
18 3 -3.48970241003400822e-02
19 3 -3.65636742121653452e-02
20 3 -3.81294216293823901e-02
21 3 -3.95888253737058660e-02
22 3 -4.09373603880138631e-02
23 3 -4.21714589425933942e-02
24 3 -4.32885321865294354e-02
25 3 -4.42869719777674239e-02
26 3 -4.51661338253312103e-02
27 3 -4.59263023993811415e-02
28 3 -4.65686415796339320e-02
29 3 -4.70951314002045901e-02
30 3 -4.75084944995859057e-02
31 3 -4.78121147986879449e-02
32 3 -4.80099511168036314e-02
33 3 -4.81064483111566313e-02
34 3 -4.81064483111566243e-02
35 3 -4.81064483111566313e-02
36 3 -4.80099511168036105e-02
37 3 -4.78121147986879380e-02
38 3 -4.75084944995859057e-02
39 3 -4.70951314002045901e-02
40 3 -4.65686415796339320e-02
41 3 -4.59263023993810998e-02
42 3 -4.51661338253312450e-02
43 3 -4.42869719777674239e-02
44 3 -4.32885321865294354e-02
45 3 -4.21714589425933942e-02
46 3 -4.09373603880138492e-02
47 3 -3.95888253737058660e-02
48 3 -3.81294216293823901e-02
49 3 -3.65636742121653452e-02
50 3 -3.48970241003400822e-02
51 3 -3.31357675388978673e-02
52 3 -3.12869774811978946e-02
53 3 -2.93584091618886052e-02
54 3 -2.73583924378791067e-02
55 3 -2.52957140102478203e-02
56 3 -2.31794929631910819e-02
57 3 -2.10190532104748903e-02
58 3 -1.88237964218394040e-02
59 3 -1.66030788201704423e-02
60 3 -1.43660949146311324e-02
61 3 -1.21217707935257490e-02
62 3 -9.87866907717069309e-03
63 3 -7.64490706153746723e-03
64 3 -5.42808900319635256e-03
65 3 -3.23525293700749990e-03
66 3 -1.07283190656180718e-03
67 3 -5.89134079426055269e-18
68 3 1.07283190656179764e-03
69 3 3.23525293700749035e-03
70 3 5.42808900319634476e-03
71 3 7.64490706153745769e-03
72 3 9.87866907717069309e-03
73 3 1.21217707935257490e-02
74 3 1.43660949146311237e-02
75 3 1.66030788201704353e-02
76 3 1.88237964218394040e-02
77 3 2.10190532104748695e-02
78 3 2.31794929631910819e-02
79 3 2.52957140102478030e-02
80 3 2.73583924378791067e-02
81 3 2.93584091618886052e-02
82 3 3.12869774811979154e-02
83 3 3.31357675388978673e-02
84 3 3.48970241003400822e-02
85 3 3.65636742121653452e-02
86 3 3.81294216293823901e-02
87 3 3.95888253737058660e-02
88 3 4.09373603880138631e-02
89 3 4.21714589425933942e-02
90 3 4.32885321865294354e-02
91 3 4.42869719777674239e-02
92 3 4.51661338253312103e-02
93 3 4.59263023993811415e-02
94 3 4.65686415796339320e-02
95 3 4.70951314002045901e-02
96 3 4.75084944995859057e-02
97 3 4.78121147986879449e-02
98 3 4.80099511168036314e-02
99 3 4.81064483111566313e-02
100 3 4.81064483111566243e-02
101 3 4.81064483111566313e-02
102 3 4.80099511168036105e-02
103 3 4.78121147986879380e-02
104 3 4.75084944995859057e-02
105 3 4.70951314002045901e-02
106 3 4.65686415796339320e-02
107 3 4.59263023993810998e-02
108 3 4.51661338253312450e-02
109 3 4.42869719777674239e-02
110 3 4.32885321865294354e-02
111 3 4.21714589425933942e-02
112 3 4.09373603880138492e-02
113 3 3.95888253737058660e-02
114 3 3.81294216293823901e-02
115 3 3.65636742121653452e-02
116 3 3.48970241003400822e-02
117 3 3.31357675388978673e-02
118 3 3.12869774811978946e-02
119 3 2.93584091618886052e-02
120 3 2.73583924378791067e-02
121 3 2.52957140102478203e-02
122 3 2.31794929631910819e-02
123 3 2.10190532104748903e-02
124 3 1.88237964218394040e-02
125 3 1.66030788201704527e-02
126 3 1.43660949146311445e-02
127 3 1.21217707935257612e-02
128 3 9.87866907717070870e-03
129 3 7.64490706153746723e-03
130 3 5.42808900319635430e-03
131 3 3.23525293700750640e-03
132 3 1.07283190656181303e-03
133 3 1.17826815885211054e-17
1 4 0.00000000000000000e+00
2 4 -1.81329779367628611e-03
3 4 -5.46821638765500849e-03
4 4 -9.17454239864876932e-03
5 4 -1.29214027125390766e-02
6 4 -1.66969016604838136e-02
7 4 -2.04881865471286395e-02
8 4 -2.42815375392119517e-02
9 4 -2.80624821173830336e-02
10 4 -3.18159334296110180e-02
11 4 -3.55263509396035390e-02
12 4 -3.91779207829405715e-02
13 4 -4.27547522810427516e-02
14 4 -4.62410861782832014e-02
15 4 -4.96215094214589869e-02
16 4 -5.28811707504782888e-02
17 4 -5.60059910621166016e-02
18 4 -5.89828624782512412e-02
19 4 -6.17998303108806546e-02
20 4 -6.44462526625358412e-02
21 4 -6.69129332053858411e-02
22 4 -6.91922236992494610e-02
23 4 -7.12780939763274501e-02
24 4 -7.31661683673059948e-02
25 4 -7.48537287945239271e-02
26 4 -7.63396859409522094e-02
27 4 -7.76245209553807769e-02
28 4 -7.87102010243833916e-02
29 4 -7.96000727966476584e-02
30 4 -8.02987380689152291e-02
31 4 -8.08119163358083648e-02
32 4 -8.11462987837520411e-02
33 4 -8.13093980992608684e-02
34 4 -8.13093980992608684e-02
35 4 -8.13093980992608684e-02
36 4 -8.11462987837520272e-02
37 4 -8.08119163358083648e-02
38 4 -8.02987380689152291e-02
39 4 -7.96000727966476584e-02
40 4 -7.87102010243833916e-02
41 4 -7.76245209553807353e-02
42 4 -7.63396859409522649e-02
43 4 -7.48537287945239271e-02
44 4 -7.31661683673059948e-02
45 4 -7.12780939763274501e-02
46 4 -6.91922236992494472e-02
47 4 -6.69129332053858411e-02
48 4 -6.44462526625358412e-02
49 4 -6.17998303108806477e-02
50 4 -5.89828624782512412e-02
51 4 -5.60059910621166016e-02
52 4 -5.28811707504782610e-02
53 4 -4.96215094214589869e-02
54 4 -4.62410861782832014e-02
55 4 -4.27547522810427794e-02
56 4 -3.91779207829405715e-02
57 4 -3.55263509396035737e-02
58 4 -3.18159334296110180e-02
59 4 -2.80624821173830509e-02
60 4 -2.42815375392119621e-02
61 4 -2.04881865471286395e-02
62 4 -1.66969016604838136e-02
63 4 -1.29214027125390818e-02
64 4 -9.17454239864877452e-03
65 4 -5.46821638765501716e-03
66 4 -1.81329779367629435e-03
67 4 -9.95752941228576383e-18
68 4 1.81329779367627830e-03
69 4 5.46821638765500155e-03
70 4 9.17454239864876238e-03
71 4 1.29214027125390696e-02
72 4 1.66969016604838136e-02
73 4 2.04881865471286395e-02
74 4 2.42815375392119517e-02
75 4 2.80624821173830336e-02
76 4 3.18159334296110180e-02
77 4 3.55263509396035390e-02
78 4 3.91779207829405715e-02
79 4 4.27547522810427516e-02
80 4 4.62410861782832014e-02
81 4 4.96215094214589869e-02
82 4 5.28811707504782888e-02
83 4 5.60059910621166016e-02
84 4 5.89828624782512412e-02
85 4 6.17998303108806546e-02
86 4 6.44462526625358412e-02
87 4 6.69129332053858411e-02
88 4 6.91922236992494610e-02
89 4 7.12780939763274501e-02
90 4 7.31661683673059948e-02
91 4 7.48537287945239271e-02
92 4 7.63396859409522094e-02
93 4 7.76245209553807769e-02
94 4 7.87102010243833916e-02
95 4 7.96000727966476584e-02
96 4 8.02987380689152291e-02
97 4 8.08119163358083648e-02
98 4 8.11462987837520411e-02
99 4 8.13093980992608684e-02
100 4 8.13093980992608684e-02
101 4 8.13093980992608684e-02
102 4 8.11462987837520272e-02
103 4 8.08119163358083648e-02
104 4 8.02987380689152291e-02
105 4 7.96000727966476584e-02
106 4 7.87102010243833916e-02
107 4 7.76245209553807353e-02
108 4 7.63396859409522649e-02
109 4 7.48537287945239271e-02
110 4 7.31661683673059948e-02
111 4 7.12780939763274501e-02
112 4 6.91922236992494472e-02
113 4 6.69129332053858411e-02
114 4 6.44462526625358412e-02
115 4 6.17998303108806477e-02
116 4 5.89828624782512412e-02
117 4 5.60059910621166016e-02
118 4 5.28811707504782610e-02
119 4 4.96215094214589869e-02
120 4 4.62410861782832014e-02
121 4 4.27547522810427794e-02
122 4 3.91779207829405715e-02
123 4 3.55263509396035737e-02
124 4 3.18159334296110180e-02
125 4 2.80624821173830578e-02
126 4 2.42815375392119830e-02
127 4 2.04881865471286569e-02
128 4 1.66969016604838379e-02
129 4 1.29214027125390818e-02
130 4 9.17454239864877973e-03
131 4 5.46821638765502757e-03
132 4 1.81329779367630410e-03
133 4 1.99150588245715277e-17
1 5 0.00000000000000000e+00
2 5 -2.57508501152721838e-03
3 5 -7.76547686140940333e-03
4 5 -1.30288729742970410e-02
5 5 -1.83498323160186938e-02
6 5 -2.37114617107020663e-02
7 5 -2.90955088981391906e-02
8 5 -3.44824901856262064e-02
9 5 -3.98518529823040368e-02
10 5 -4.51821722764226691e-02
11 5 -5.04513787740045044e-02
12 5 -5.56370150246603204e-02
13 5 -6.07165144933315415e-02
14 5 -6.56674972802029078e-02
15 5 -7.04680751314955833e-02
16 5 -7.50971576022764209e-02
17 5 -7.95347507964432598e-02
18 5 -8.37622400658095817e-02
19 5 -8.77626484207172791e-02
20 5 -9.15208631804130118e-02
21 5 -9.50238245341799015e-02
22 5 -9.82606711283430800e-02
23 5 -1.01222839452390870e-01
24 5 -1.03904115568102737e-01
25 5 -1.06300639502191402e-01
26 5 -1.08410864303039714e-01
27 5 -1.10235473255567332e-01
28 5 -1.11777259984008906e-01
29 5 -1.13040977102581597e-01
30 5 -1.14033159675662077e-01
31 5 -1.14761930023216954e-01
32 5 -1.15236790375896181e-01
33 5 -1.15468409586056683e-01
34 5 -1.15468409586056711e-01
35 5 -1.15468409586056683e-01
36 5 -1.15236790375896153e-01
37 5 -1.14761930023216954e-01
38 5 -1.14033159675662077e-01
39 5 -1.13040977102581597e-01
40 5 -1.11777259984008906e-01
41 5 -1.10235473255567262e-01
42 5 -1.08410864303039756e-01
43 5 -1.06300639502191402e-01
44 5 -1.03904115568102737e-01
45 5 -1.01222839452390870e-01
46 5 -9.82606711283430662e-02
47 5 -9.50238245341799015e-02
48 5 -9.15208631804130118e-02
49 5 -8.77626484207172791e-02
50 5 -8.37622400658095817e-02
51 5 -7.95347507964432598e-02
52 5 -7.50971576022763931e-02
53 5 -7.04680751314955833e-02
54 5 -6.56674972802029078e-02
55 5 -6.07165144933315831e-02
56 5 -5.56370150246603204e-02
57 5 -5.04513787740045461e-02
58 5 -4.51821722764226691e-02
59 5 -3.98518529823040646e-02
60 5 -3.44824901856262203e-02
61 5 -2.90955088981391906e-02
62 5 -2.37114617107020663e-02
63 5 -1.83498323160187007e-02
64 5 -1.30288729742970514e-02
65 5 -7.76547686140941634e-03
66 5 -2.57508501152723009e-03
67 5 -1.41408018202199834e-17
68 5 2.57508501152720710e-03
69 5 7.76547686140939379e-03
70 5 1.30288729742970323e-02
71 5 1.83498323160186869e-02
72 5 2.37114617107020663e-02
73 5 2.90955088981391906e-02
74 5 3.44824901856262064e-02
75 5 3.98518529823040368e-02
76 5 4.51821722764226691e-02
77 5 5.04513787740045044e-02
78 5 5.56370150246603204e-02
79 5 6.07165144933315415e-02
80 5 6.56674972802029078e-02
81 5 7.04680751314955833e-02
82 5 7.50971576022764209e-02
83 5 7.95347507964432598e-02
84 5 8.37622400658095817e-02
85 5 8.77626484207172791e-02
86 5 9.15208631804130118e-02
87 5 9.50238245341799015e-02
88 5 9.82606711283430800e-02
89 5 1.01222839452390870e-01
90 5 1.03904115568102737e-01
91 5 1.06300639502191402e-01
92 5 1.08410864303039714e-01
93 5 1.10235473255567332e-01
94 5 1.11777259984008906e-01
95 5 1.13040977102581597e-01
96 5 1.14033159675662077e-01
97 5 1.14761930023216954e-01
98 5 1.15236790375896181e-01
99 5 1.15468409586056683e-01
100 5 1.15468409586056711e-01
101 5 1.15468409586056683e-01
102 5 1.15236790375896153e-01
103 5 1.14761930023216954e-01
104 5 1.14033159675662077e-01
105 5 1.13040977102581597e-01
106 5 1.11777259984008906e-01
107 5 1.10235473255567262e-01
108 5 1.08410864303039756e-01
109 5 1.06300639502191402e-01
110 5 1.03904115568102737e-01
111 5 1.01222839452390870e-01
112 5 9.82606711283430662e-02
113 5 9.50238245341799015e-02
114 5 9.15208631804130118e-02
115 5 8.77626484207172791e-02
116 5 8.37622400658095817e-02
117 5 7.95347507964432598e-02
118 5 7.50971576022763931e-02
119 5 7.04680751314955833e-02
120 5 6.56674972802029078e-02
121 5 6.07165144933315831e-02
122 5 5.56370150246603204e-02
123 5 5.04513787740045461e-02
124 5 4.51821722764226691e-02
125 5 3.98518529823040785e-02
126 5 3.44824901856262481e-02
127 5 2.90955088981392149e-02
128 5 2.37114617107020940e-02
129 5 1.83498323160187007e-02
130 5 1.30288729742970583e-02
131 5 7.76547686140943022e-03
132 5 2.57508501152724353e-03
133 5 2.82816036404399667e-17
1 6 0.00000000000000000e+00
2 6 -3.35770995800282156e-03
3 6 -1.01255759982583592e-02
4 6 -1.69886339019952072e-02
5 6 -2.39267497652967120e-02
6 6 -3.09178962047581343e-02
7 6 -3.79382736970309345e-02
8 6 -4.49624770268629431e-02
9 6 -5.19637072191984767e-02
10 6 -5.89140277302025103e-02
11 6 -6.57846619222794277e-02
12 6 -7.25463270321551335e-02
13 6 -7.91695980586569897e-02
14 6 -8.56252933584091547e-02
15 6 -9.18848723561112440e-02
16 6 -9.79208347569559823e-02
17 6 -1.03707110080263731e-01
18 6 -1.09219426277033779e-01
19 6 -1.14435646677223612e-01
20 6 -1.19336065524156945e-01
21 6 -1.23903653843529124e-01
22 6 -1.28124249277504126e-01
23 6 -1.31986685676462850e-01
24 6 -1.35482860549750395e-01
25 6 -1.38607740793338624e-01
26 6 -1.41359309303005304e-01
27 6 -1.43738457028978694e-01
28 6 -1.45748826639314238e-01
29 6 -1.47396615172172646e-01
30 6 -1.48690343841663630e-01
31 6 -1.49640603519355153e-01
32 6 -1.50259784372691774e-01
33 6 -1.50561797752809035e-01
34 6 -1.50561797752809090e-01
35 6 -1.50561797752809035e-01
36 6 -1.50259784372691774e-01
37 6 -1.49640603519355153e-01
38 6 -1.48690343841663630e-01
39 6 -1.47396615172172646e-01
40 6 -1.45748826639314238e-01
41 6 -1.43738457028978583e-01
42 6 -1.41359309303005387e-01
43 6 -1.38607740793338624e-01
44 6 -1.35482860549750395e-01
45 6 -1.31986685676462850e-01
46 6 -1.28124249277504126e-01
47 6 -1.23903653843529124e-01
48 6 -1.19336065524156945e-01
49 6 -1.14435646677223612e-01
50 6 -1.09219426277033779e-01
51 6 -1.03707110080263731e-01
52 6 -9.79208347569559406e-02
53 6 -9.18848723561112440e-02
54 6 -8.56252933584091547e-02
55 6 -7.91695980586570314e-02
56 6 -7.25463270321551335e-02
57 6 -6.57846619222794832e-02
58 6 -5.89140277302025103e-02
59 6 -5.19637072191985044e-02
60 6 -4.49624770268629778e-02
61 6 -3.79382736970309345e-02
62 6 -3.09178962047581343e-02
63 6 -2.39267497652967225e-02
64 6 -1.69886339019952176e-02
65 6 -1.01255759982583748e-02
66 6 -3.35770995800283630e-03
67 6 -1.84385023691848713e-17
68 6 3.35770995800280638e-03
69 6 1.01255759982583470e-02
70 6 1.69886339019951968e-02
71 6 2.39267497652967016e-02
72 6 3.09178962047581343e-02
73 6 3.79382736970309345e-02
74 6 4.49624770268629431e-02
75 6 5.19637072191984767e-02
76 6 5.89140277302025103e-02
77 6 6.57846619222794277e-02
78 6 7.25463270321551335e-02
79 6 7.91695980586569897e-02
80 6 8.56252933584091547e-02
81 6 9.18848723561112440e-02
82 6 9.79208347569559823e-02
83 6 1.03707110080263731e-01
84 6 1.09219426277033779e-01
85 6 1.14435646677223612e-01
86 6 1.19336065524156945e-01
87 6 1.23903653843529124e-01
88 6 1.28124249277504126e-01
89 6 1.31986685676462850e-01
90 6 1.35482860549750395e-01
91 6 1.38607740793338624e-01
92 6 1.41359309303005304e-01
93 6 1.43738457028978694e-01
94 6 1.45748826639314238e-01
95 6 1.47396615172172646e-01
96 6 1.48690343841663630e-01
97 6 1.49640603519355153e-01
98 6 1.50259784372691774e-01
99 6 1.50561797752809035e-01
100 6 1.50561797752809090e-01
101 6 1.50561797752809035e-01
102 6 1.50259784372691774e-01
103 6 1.49640603519355153e-01
104 6 1.48690343841663630e-01
105 6 1.47396615172172646e-01
106 6 1.45748826639314238e-01
107 6 1.43738457028978583e-01
108 6 1.41359309303005387e-01
109 6 1.38607740793338624e-01
110 6 1.35482860549750395e-01
111 6 1.31986685676462850e-01
112 6 1.28124249277504126e-01
113 6 1.23903653843529124e-01
114 6 1.19336065524156945e-01
115 6 1.14435646677223612e-01
116 6 1.09219426277033779e-01
117 6 1.03707110080263731e-01
118 6 9.79208347569559406e-02
119 6 9.18848723561112440e-02
120 6 8.56252933584091547e-02
121 6 7.91695980586570314e-02
122 6 7.25463270321551335e-02
123 6 6.57846619222794832e-02
124 6 5.89140277302025103e-02
125 6 5.19637072191985253e-02
126 6 4.49624770268630056e-02
127 6 3.79382736970309623e-02
128 6 3.09178962047581760e-02
129 6 2.39267497652967225e-02
130 6 1.69886339019952280e-02
131 6 1.01255759982583921e-02
132 6 3.35770995800285408e-03
133 6 3.68770047383697427e-17
1 7 0.00000000000000000e+00
2 7 -4.16048027431404049e-03
3 7 -1.25464259074595762e-02
4 7 -2.10503221305139397e-02
5 7 -2.96472213717279727e-02
6 7 -3.83098298817020830e-02
7 7 -4.70086580831148015e-02
8 7 -5.57122268136074350e-02
9 7 -6.43873299271799926e-02
10 7 -7.29993517360536665e-02
11 7 -8.15126356068160141e-02
12 7 -8.98908977744894422e-02
13 7 -9.80976782295788635e-02
14 7 -1.06096818503021814e-01
15 7 -1.13852954462108774e-01
16 7 -1.21332010967678039e-01
17 7 -1.28501684538498029e-01
18 7 -1.35331900098892871e-01
19 7 -1.41795228484282276e-01
20 7 -1.47867252632749774e-01
21 7 -1.53526872237070316e-01
22 7 -1.58756538964853283e-01
23 7 -1.63542417033433890e-01
24 7 -1.67874466786926330e-01
25 7 -1.71746451793271387e-01
26 7 -1.75155872693551040e-01
27 7 -1.78103833448767374e-01
28 7 -1.80594847625839550e-01
29 7 -1.82636593867458341e-01
30 7 -1.84239630662492715e-01
31 7 -1.85417080976534449e-01
32 7 -1.86184297251543562e-01
33 7 -1.86558516801854035e-01
34 7 -1.86558516801854118e-01
35 7 -1.86558516801854063e-01
36 7 -1.86184297251543590e-01
37 7 -1.85417080976534449e-01
38 7 -1.84239630662492715e-01
39 7 -1.82636593867458341e-01
40 7 -1.80594847625839550e-01
41 7 -1.78103833448767263e-01
42 7 -1.75155872693551151e-01
43 7 -1.71746451793271387e-01
44 7 -1.67874466786926330e-01
45 7 -1.63542417033433890e-01
46 7 -1.58756538964853311e-01
47 7 -1.53526872237070316e-01
48 7 -1.47867252632749774e-01
49 7 -1.41795228484282276e-01
50 7 -1.35331900098892871e-01
51 7 -1.28501684538498029e-01
52 7 -1.21332010967677983e-01
53 7 -1.13852954462108774e-01
54 7 -1.06096818503021814e-01
55 7 -9.80976782295789052e-02
56 7 -8.98908977744894422e-02
57 7 -8.15126356068160834e-02
58 7 -7.29993517360536665e-02
59 7 -6.43873299271800342e-02
60 7 -5.57122268136074766e-02
61 7 -4.70086580831148015e-02
62 7 -3.83098298817020830e-02
63 7 -2.96472213717279866e-02
64 7 -2.10503221305139501e-02
65 7 -1.25464259074595970e-02
66 7 -4.16048027431405870e-03
67 7 -2.28468290455068223e-17
68 7 4.16048027431402141e-03
69 7 1.25464259074595623e-02
70 7 2.10503221305139258e-02
71 7 2.96472213717279554e-02
72 7 3.83098298817020830e-02
73 7 4.70086580831148015e-02
74 7 5.57122268136074350e-02
75 7 6.43873299271799926e-02
76 7 7.29993517360536665e-02
77 7 8.15126356068160141e-02
78 7 8.98908977744894422e-02
79 7 9.80976782295788635e-02
80 7 1.06096818503021814e-01
81 7 1.13852954462108774e-01
82 7 1.21332010967678039e-01
83 7 1.28501684538498029e-01
84 7 1.35331900098892871e-01
85 7 1.41795228484282276e-01
86 7 1.47867252632749774e-01
87 7 1.53526872237070316e-01
88 7 1.58756538964853283e-01
89 7 1.63542417033433890e-01
90 7 1.67874466786926330e-01
91 7 1.71746451793271387e-01
92 7 1.75155872693551040e-01
93 7 1.78103833448767374e-01
94 7 1.80594847625839550e-01
95 7 1.82636593867458341e-01
96 7 1.84239630662492715e-01
97 7 1.85417080976534449e-01
98 7 1.86184297251543562e-01
99 7 1.86558516801854035e-01
100 7 1.86558516801854118e-01
101 7 1.86558516801854063e-01
102 7 1.86184297251543590e-01
103 7 1.85417080976534449e-01
104 7 1.84239630662492715e-01
105 7 1.82636593867458341e-01
106 7 1.80594847625839550e-01
107 7 1.78103833448767263e-01
108 7 1.75155872693551151e-01
109 7 1.71746451793271387e-01
110 7 1.67874466786926330e-01
111 7 1.63542417033433890e-01
112 7 1.58756538964853311e-01
113 7 1.53526872237070316e-01
114 7 1.47867252632749774e-01
115 7 1.41795228484282276e-01
116 7 1.35331900098892871e-01
117 7 1.28501684538498029e-01
118 7 1.21332010967677983e-01
119 7 1.13852954462108774e-01
120 7 1.06096818503021814e-01
121 7 9.80976782295789052e-02
122 7 8.98908977744894422e-02
123 7 8.15126356068160834e-02
124 7 7.29993517360536665e-02
125 7 6.43873299271800620e-02
126 7 5.57122268136075044e-02
127 7 4.70086580831148362e-02
128 7 3.83098298817021385e-02
129 7 2.96472213717279866e-02
130 7 2.10503221305139675e-02
131 7 1.25464259074596161e-02
132 7 4.16048027431408125e-03
133 7 4.56936580910136447e-17
1 8 0.00000000000000000e+00
2 8 -4.98246819941876220e-03
3 8 -1.50252288146198992e-02
4 8 -2.52092435698662784e-02
5 8 -3.55046359906411660e-02
6 8 -4.58787198894229156e-02
7 8 -5.62961794200757676e-02
8 8 -6.67193160682323094e-02
9 8 -7.71083631349631926e-02
10 8 -8.74218658957685024e-02
11 8 -9.76171230204262164e-02
12 8 -1.07650682144488821e-01
13 8 -1.17478879838284228e-01
14 8 -1.27058413788049329e-01
15 8 -1.36346932953758077e-01
16 8 -1.45303629955956637e-01
17 8 -1.53889819100361008e-01
18 8 -1.62069483365312572e-01
19 8 -1.69809774394071966e-01
20 8 -1.77081451035017073e-01
21 8 -1.83859244183906173e-01
22 8 -1.90122138476568836e-01
23 8 -1.95853564588649137e-01
24 8 -2.01041499325014333e-01
25 8 -2.05678474118969196e-01
26 8 -2.09761495812150478e-01
27 8 -2.13291886475622999e-01
28 8 -2.16275051423715364e-01
29 8 -2.18720186371945763e-01
30 8 -2.20639935854491681e-01
31 8 -2.22050015547052115e-01
32 8 -2.22968811080324958e-01
33 8 -2.23416965352449259e-01
34 8 -2.23416965352449398e-01
35 8 -2.23416965352449287e-01
36 8 -2.22968811080325013e-01
37 8 -2.22050015547052115e-01
38 8 -2.20639935854491681e-01
39 8 -2.18720186371945763e-01
40 8 -2.16275051423715364e-01
41 8 -2.13291886475622888e-01
42 8 -2.09761495812150617e-01
43 8 -2.05678474118969196e-01
44 8 -2.01041499325014333e-01
45 8 -1.95853564588649137e-01
46 8 -1.90122138476568864e-01
47 8 -1.83859244183906173e-01
48 8 -1.77081451035017073e-01
49 8 -1.69809774394071994e-01
50 8 -1.62069483365312572e-01
51 8 -1.53889819100361008e-01
52 8 -1.45303629955956554e-01
53 8 -1.36346932953758077e-01
54 8 -1.27058413788049329e-01
55 8 -1.17478879838284270e-01
56 8 -1.07650682144488821e-01
57 8 -9.76171230204262996e-02
58 8 -8.74218658957685024e-02
59 8 -7.71083631349632342e-02
60 8 -6.67193160682323511e-02
61 8 -5.62961794200757676e-02
62 8 -4.58787198894229156e-02
63 8 -3.55046359906411799e-02
64 8 -2.52092435698662853e-02
65 8 -1.50252288146199234e-02
66 8 -4.98246819941878388e-03
67 8 -2.73606871494092059e-17
68 8 4.98246819941873965e-03
69 8 1.50252288146198835e-02
70 8 2.52092435698662611e-02
71 8 3.55046359906411452e-02
72 8 4.58787198894229156e-02
73 8 5.62961794200757676e-02
74 8 6.67193160682323094e-02
75 8 7.71083631349631926e-02
76 8 8.74218658957685024e-02
77 8 9.76171230204262164e-02
78 8 1.07650682144488821e-01
79 8 1.17478879838284228e-01
80 8 1.27058413788049329e-01
81 8 1.36346932953758077e-01
82 8 1.45303629955956637e-01
83 8 1.53889819100361008e-01
84 8 1.62069483365312572e-01
85 8 1.69809774394071966e-01
86 8 1.77081451035017073e-01
87 8 1.83859244183906173e-01
88 8 1.90122138476568836e-01
89 8 1.95853564588649137e-01
90 8 2.01041499325014333e-01
91 8 2.05678474118969196e-01
92 8 2.09761495812150478e-01
93 8 2.13291886475622999e-01
94 8 2.16275051423715364e-01
95 8 2.18720186371945763e-01
96 8 2.20639935854491681e-01
97 8 2.22050015547052115e-01
98 8 2.22968811080324958e-01
99 8 2.23416965352449259e-01
100 8 2.23416965352449398e-01
101 8 2.23416965352449287e-01
102 8 2.22968811080325013e-01
103 8 2.22050015547052115e-01
104 8 2.20639935854491681e-01
105 8 2.18720186371945763e-01
106 8 2.16275051423715364e-01
107 8 2.13291886475622888e-01
108 8 2.09761495812150617e-01
109 8 2.05678474118969196e-01
110 8 2.01041499325014333e-01
111 8 1.95853564588649137e-01
112 8 1.90122138476568864e-01
113 8 1.83859244183906173e-01
114 8 1.77081451035017073e-01
115 8 1.69809774394071994e-01
116 8 1.62069483365312572e-01
117 8 1.53889819100361008e-01
118 8 1.45303629955956554e-01
119 8 1.36346932953758077e-01
120 8 1.27058413788049329e-01
121 8 1.17478879838284270e-01
122 8 1.07650682144488821e-01
123 8 9.76171230204262996e-02
124 8 8.74218658957685024e-02
125 8 7.71083631349632620e-02
126 8 6.67193160682323788e-02
127 8 5.62961794200758023e-02
128 8 4.58787198894229781e-02
129 8 3.55046359906411868e-02
130 8 2.52092435698663096e-02
131 8 1.50252288146199460e-02
132 8 4.98246819941881077e-03
133 8 5.47213742988184119e-17
1 9 0.00000000000000000e+00
2 9 -5.82248285857632150e-03
3 9 -1.75583934945168288e-02
4 9 -2.94593728827701566e-02
5 9 -4.14905075519831565e-02
6 9 -5.36136006168090873e-02
7 9 -6.57873821884033816e-02
8 9 -7.79677980059232528e-02
9 9 -9.01083769402834939e-02
10 9 -1.02160675245704435e-01
11 9 -1.14074792400335273e-01
12 9 -1.25799950228172835e-01
13 9 -1.37285123903641282e-01
14 9 -1.48479710599079495e-01
15 9 -1.59334219139687122e-01
16 9 -1.69800962263275235e-01
17 9 -1.79834732096391420e-01
18 9 -1.89393439360623556e-01
19 9 -1.98438697660636598e-01
20 9 -2.06936335959653162e-01
21 9 -2.14856824931963342e-01
22 9 -2.22175606147337307e-01
23 9 -2.28873316791366521e-01
24 9 -2.34935906629355373e-01
25 9 -2.40354647938452404e-01
26 9 -2.45126042931503585e-01
27 9 -2.49251636572933005e-01
28 9 -2.52737745481084186e-01
29 9 -2.55595115714704224e-01
30 9 -2.57838523601620184e-01
31 9 -2.59486334387470818e-01
32 9 -2.60560033411509018e-01
33 9 -2.61083743842364546e-01
34 9 -2.61083743842364768e-01
35 9 -2.61083743842364602e-01
36 9 -2.60560033411509129e-01
37 9 -2.59486334387470818e-01
38 9 -2.57838523601620184e-01
39 9 -2.55595115714704224e-01
40 9 -2.52737745481084186e-01
41 9 -2.49251636572932894e-01
42 9 -2.45126042931503751e-01
43 9 -2.40354647938452404e-01
44 9 -2.34935906629355373e-01
45 9 -2.28873316791366521e-01
46 9 -2.22175606147337307e-01
47 9 -2.14856824931963342e-01
48 9 -2.06936335959653162e-01
49 9 -1.98438697660636626e-01
50 9 -1.89393439360623556e-01
51 9 -1.79834732096391420e-01
52 9 -1.69800962263275179e-01
53 9 -1.59334219139687122e-01
54 9 -1.48479710599079495e-01
55 9 -1.37285123903641337e-01
56 9 -1.25799950228172835e-01
57 9 -1.14074792400335370e-01
58 9 -1.02160675245704435e-01
59 9 -9.01083769402835633e-02
60 9 -7.79677980059233222e-02
61 9 -6.57873821884033816e-02
62 9 -5.36136006168090873e-02
63 9 -4.14905075519831773e-02
64 9 -2.94593728827701705e-02
65 9 -1.75583934945168565e-02
66 9 -5.82248285857634579e-03
67 9 -3.19735371205959205e-17
68 9 5.82248285857629375e-03
69 9 1.75583934945168114e-02
70 9 2.94593728827701393e-02
71 9 4.14905075519831357e-02
72 9 5.36136006168090873e-02
73 9 6.57873821884033816e-02
74 9 7.79677980059232528e-02
75 9 9.01083769402834939e-02
76 9 1.02160675245704435e-01
77 9 1.14074792400335273e-01
78 9 1.25799950228172835e-01
79 9 1.37285123903641282e-01
80 9 1.48479710599079495e-01
81 9 1.59334219139687122e-01
82 9 1.69800962263275235e-01
83 9 1.79834732096391420e-01
84 9 1.89393439360623556e-01
85 9 1.98438697660636598e-01
86 9 2.06936335959653162e-01
87 9 2.14856824931963342e-01
88 9 2.22175606147337307e-01
89 9 2.28873316791366521e-01
90 9 2.34935906629355373e-01
91 9 2.40354647938452404e-01
92 9 2.45126042931503585e-01
93 9 2.49251636572933005e-01
94 9 2.52737745481084186e-01
95 9 2.55595115714704224e-01
96 9 2.57838523601620184e-01
97 9 2.59486334387470818e-01
98 9 2.60560033411509018e-01
99 9 2.61083743842364546e-01
100 9 2.61083743842364768e-01
101 9 2.61083743842364602e-01
102 9 2.60560033411509129e-01
103 9 2.59486334387470818e-01
104 9 2.57838523601620184e-01
105 9 2.55595115714704224e-01
106 9 2.52737745481084186e-01
107 9 2.49251636572932894e-01
108 9 2.45126042931503751e-01
109 9 2.40354647938452404e-01
110 9 2.34935906629355373e-01
111 9 2.28873316791366521e-01
112 9 2.22175606147337307e-01
113 9 2.14856824931963342e-01
114 9 2.06936335959653162e-01
115 9 1.98438697660636626e-01
116 9 1.89393439360623556e-01
117 9 1.79834732096391420e-01
118 9 1.69800962263275179e-01
119 9 1.59334219139687122e-01
120 9 1.48479710599079495e-01
121 9 1.37285123903641337e-01
122 9 1.25799950228172835e-01
123 9 1.14074792400335370e-01
124 9 1.02160675245704435e-01
125 9 9.01083769402835771e-02
126 9 7.79677980059233500e-02
127 9 6.57873821884034371e-02
128 9 5.36136006168091567e-02
129 9 4.14905075519831842e-02
130 9 2.94593728827701948e-02
131 9 1.75583934945168808e-02
132 9 5.82248285857637615e-03
133 9 6.39470742411918409e-17
1 10 0.00000000000000000e+00
2 10 -6.67904196888886078e-03
3 10 -2.01414499457741661e-02
4 10 -3.37932103263038214e-02
5 10 -4.75942734364622339e-02
6 10 -6.15008231575062125e-02
7 10 -7.54655182904422211e-02
8 10 -8.94378236487829575e-02
9 10 -1.03364431626642592e-01
10 10 -1.17189771805172094e-01
11 10 -1.30856602679706502e-01
12 10 -1.44306675977667470e-01
13 10 -1.57481460491706887e-01
14 10 -1.70322909093494401e-01
15 10 -1.82774249845420234e-01
16 10 -1.94780780100301448e-01
17 10 -2.06290641348384235e-01
18 10 -2.17255552458786361e-01
19 10 -2.27631479923517316e-01
20 10 -2.37379225724429238e-01
21 10 -2.46464916407444223e-01
22 10 -2.54860380694057920e-01
23 10 -2.62543407260817596e-01
24 10 -2.69497878910045896e-01
25 10 -2.75713783963111247e-01
26 10 -2.81187110065187096e-01
27 10 -2.85919629464037761e-01
28 10 -2.89918588030547431e-01
29 10 -2.93196312701370865e-01
30 10 -2.95769753584580519e-01
31 10 -2.97659977680177934e-01
32 10 -2.98891631086068699e-01
33 10 -2.99492385786802040e-01
34 10 -2.99492385786802262e-01
35 10 -2.99492385786802096e-01
36 10 -2.98891631086068810e-01
37 10 -2.97659977680177934e-01
38 10 -2.95769753584580519e-01
39 10 -2.93196312701370865e-01
40 10 -2.89918588030547431e-01
41 10 -2.85919629464037650e-01
42 10 -2.81187110065187262e-01
43 10 -2.75713783963111247e-01
44 10 -2.69497878910045896e-01
45 10 -2.62543407260817596e-01
46 10 -2.54860380694057920e-01
47 10 -2.46464916407444223e-01
48 10 -2.37379225724429238e-01
49 10 -2.27631479923517371e-01
50 10 -2.17255552458786361e-01
51 10 -2.06290641348384235e-01
52 10 -1.94780780100301365e-01
53 10 -1.82774249845420234e-01
54 10 -1.70322909093494401e-01
55 10 -1.57481460491706970e-01
56 10 -1.44306675977667470e-01
57 10 -1.30856602679706613e-01
58 10 -1.17189771805172122e-01
59 10 -1.03364431626642675e-01
60 10 -8.94378236487830269e-02
61 10 -7.54655182904422211e-02
62 10 -6.15008231575062125e-02
63 10 -4.75942734364622616e-02
64 10 -3.37932103263038353e-02
65 10 -2.01414499457741938e-02
66 10 -6.67904196888888940e-03
67 10 -3.66772391622811392e-17
68 10 6.67904196888882869e-03
69 10 2.01414499457741453e-02
70 10 3.37932103263037936e-02
71 10 4.75942734364622200e-02
72 10 6.15008231575062125e-02
73 10 7.54655182904422211e-02
74 10 8.94378236487829575e-02
75 10 1.03364431626642592e-01
76 10 1.17189771805172094e-01
77 10 1.30856602679706502e-01
78 10 1.44306675977667470e-01
79 10 1.57481460491706887e-01
80 10 1.70322909093494401e-01
81 10 1.82774249845420234e-01
82 10 1.94780780100301448e-01
83 10 2.06290641348384235e-01
84 10 2.17255552458786361e-01
85 10 2.27631479923517316e-01
86 10 2.37379225724429238e-01
87 10 2.46464916407444223e-01
88 10 2.54860380694057920e-01
89 10 2.62543407260817596e-01
90 10 2.69497878910045896e-01
91 10 2.75713783963111247e-01
92 10 2.81187110065187096e-01
93 10 2.85919629464037761e-01
94 10 2.89918588030547431e-01
95 10 2.93196312701370865e-01
96 10 2.95769753584580519e-01
97 10 2.97659977680177934e-01
98 10 2.98891631086068699e-01
99 10 2.99492385786802040e-01
100 10 2.99492385786802262e-01
101 10 2.99492385786802096e-01
102 10 2.98891631086068810e-01
103 10 2.97659977680177934e-01
104 10 2.95769753584580519e-01
105 10 2.93196312701370865e-01
106 10 2.89918588030547431e-01
107 10 2.85919629464037650e-01
108 10 2.81187110065187262e-01
109 10 2.75713783963111247e-01
110 10 2.69497878910045896e-01
111 10 2.62543407260817596e-01
112 10 2.54860380694057920e-01
113 10 2.46464916407444223e-01
114 10 2.37379225724429238e-01
115 10 2.27631479923517371e-01
116 10 2.17255552458786361e-01
117 10 2.06290641348384235e-01
118 10 1.94780780100301365e-01
119 10 1.82774249845420234e-01
120 10 1.70322909093494401e-01
121 10 1.57481460491706970e-01
122 10 1.44306675977667470e-01
123 10 1.30856602679706613e-01
124 10 1.17189771805172122e-01
125 10 1.03364431626642703e-01
126 10 8.94378236487830547e-02
127 10 7.54655182904422905e-02
128 10 6.15008231575062958e-02
129 10 4.75942734364622685e-02
130 10 3.37932103263038630e-02
131 10 2.01414499457742216e-02
132 10 6.67904196888892410e-03
133 10 7.33544783245622784e-17
1 11 0.00000000000000000e+00
2 11 -7.55034359983641074e-03
3 11 -2.27689642313777564e-02
4 11 -3.82016388718068034e-02
5 11 -5.38030932435717771e-02
6 11 -6.95237952800584896e-02
7 11 -8.53102279768080812e-02
8 11 -1.01105263676345467e-01
9 11 -1.16848640631132927e-01
10 11 -1.32477539089737334e-01
11 11 -1.47927250216609379e-01
12 11 -1.63131927072305893e-01
13 11 -1.78025402872900418e-01
14 11 -1.92542058063085497e-01
15 11 -2.06617714630838056e-01
16 11 -2.20190533799882127e-01
17 11 -2.33201891957873247e-01
18 11 -2.45597209551449119e-01
19 11 -2.57326708765650225e-01
20 11 -2.68346078079928052e-01
21 11 -2.78617025143614139e-01
22 11 -2.88107703648009694e-01
23 11 -2.96793004733991228e-01
24 11 -3.04654708665719975e-01
25 11 -3.11681497710198818e-01
26 11 -3.17868836088535334e-01
27 11 -3.23218727243682225e-01
28 11 -3.27739362292735537e-01
29 11 -3.31444676259267657e-01
30 11 -3.34353830445243194e-01
31 11 -3.36490640105809646e-01
32 11 -3.37882966498382231e-01
33 11 -3.38562091503267992e-01
34 11 -3.38562091503268214e-01
35 11 -3.38562091503268048e-01
36 11 -3.37882966498382342e-01
37 11 -3.36490640105809646e-01
38 11 -3.34353830445243194e-01
39 11 -3.31444676259267657e-01
40 11 -3.27739362292735537e-01
41 11 -3.23218727243682113e-01
42 11 -3.17868836088535500e-01
43 11 -3.11681497710198818e-01
44 11 -3.04654708665719975e-01
45 11 -2.96793004733991228e-01
46 11 -2.88107703648009694e-01
47 11 -2.78617025143614139e-01
48 11 -2.68346078079928052e-01
49 11 -2.57326708765650281e-01
50 11 -2.45597209551449119e-01
51 11 -2.33201891957873247e-01
52 11 -2.20190533799882071e-01
53 11 -2.06617714630838056e-01
54 11 -1.92542058063085497e-01
55 11 -1.78025402872900529e-01
56 11 -1.63131927072305893e-01
57 11 -1.47927250216609518e-01
58 11 -1.32477539089737362e-01
59 11 -1.16848640631133011e-01
60 11 -1.01105263676345536e-01
61 11 -8.53102279768080812e-02
62 11 -6.95237952800584896e-02
63 11 -5.38030932435718118e-02
64 11 -3.82016388718068173e-02
65 11 -2.27689642313777946e-02
66 11 -7.55034359983644196e-03
67 11 -4.14618981672110503e-17
68 11 7.55034359983637344e-03
69 11 2.27689642313777321e-02
70 11 3.82016388718067687e-02
71 11 5.38030932435717632e-02
72 11 6.95237952800584896e-02
73 11 8.53102279768080812e-02
74 11 1.01105263676345467e-01
75 11 1.16848640631132927e-01
76 11 1.32477539089737334e-01
77 11 1.47927250216609379e-01
78 11 1.63131927072305893e-01
79 11 1.78025402872900418e-01
80 11 1.92542058063085497e-01
81 11 2.06617714630838056e-01
82 11 2.20190533799882127e-01
83 11 2.33201891957873247e-01
84 11 2.45597209551449119e-01
85 11 2.57326708765650225e-01
86 11 2.68346078079928052e-01
87 11 2.78617025143614139e-01
88 11 2.88107703648009694e-01
89 11 2.96793004733991228e-01
90 11 3.04654708665719975e-01
91 11 3.11681497710198818e-01
92 11 3.17868836088535334e-01
93 11 3.23218727243682225e-01
94 11 3.27739362292735537e-01
95 11 3.31444676259267657e-01
96 11 3.34353830445243194e-01
97 11 3.36490640105809646e-01
98 11 3.37882966498382231e-01
99 11 3.38562091503267992e-01
100 11 3.38562091503268214e-01
101 11 3.38562091503268048e-01
102 11 3.37882966498382342e-01
103 11 3.36490640105809646e-01
104 11 3.34353830445243194e-01
105 11 3.31444676259267657e-01
106 11 3.27739362292735537e-01
107 11 3.23218727243682113e-01
108 11 3.17868836088535500e-01
109 11 3.11681497710198818e-01
110 11 3.04654708665719975e-01
111 11 2.96793004733991228e-01
112 11 2.88107703648009694e-01
113 11 2.78617025143614139e-01
114 11 2.68346078079928052e-01
115 11 2.57326708765650281e-01
116 11 2.45597209551449119e-01
117 11 2.33201891957873247e-01
118 11 2.20190533799882071e-01
119 11 2.06617714630838056e-01
120 11 1.92542058063085497e-01
121 11 1.78025402872900529e-01
122 11 1.63131927072305893e-01
123 11 1.47927250216609518e-01
124 11 1.32477539089737362e-01
125 11 1.16848640631133052e-01
126 11 1.01105263676345564e-01
127 11 8.53102279768081506e-02
128 11 6.95237952800585729e-02
129 11 5.38030932435718257e-02
130 11 3.82016388718068450e-02
131 11 2.27689642313778223e-02
132 11 7.55034359983648099e-03
133 11 8.29237963344221007e-17
1 12 0.00000000000000000e+00
2 12 -8.43423879991287567e-03
3 12 -2.54344559310222020e-02
4 12 -4.26737857068960266e-02
5 12 -6.01016537313739455e-02
6 12 -7.76627293731339263e-02
7 12 -9.52972305587519580e-02
8 12 -1.12941341873889114e-01
9 12 -1.30527746915985454e-01
10 12 -1.47986271821039544e-01
11 12 -1.65244632491742427e-01
12 12 -1.82229273492614391e-01
13 12 -1.98866282100495451e-01
14 12 -2.15082356883193854e-01
15 12 -2.30805806708783118e-01
16 12 -2.45967553528124300e-01
17 12 -2.60502110845233614e-01
18 12 -2.74348509648494110e-01
19 12 -2.87451144789245383e-01
20 12 -2.99760517335292742e-01
21 12 -3.11233852169785552e-01
22 12 -3.21835574835891258e-01
23 12 -3.31537637058582413e-01
24 12 -3.40319686174314184e-01
25 12 -3.48169079518350799e-01
26 12 -3.55080750322297689e-01
27 12 -3.61056936565931463e-01
28 12 -3.66106788274905059e-01
29 12 -3.70245871802582005e-01
30 12 -3.73495591604845800e-01
31 12 -3.75882550914560964e-01
32 12 -3.77437872619739156e-01
33 12 -3.78196500672947522e-01
34 12 -3.78196500672947744e-01
35 12 -3.78196500672947578e-01
36 12 -3.77437872619739212e-01
37 12 -3.75882550914561020e-01
38 12 -3.73495591604845800e-01
39 12 -3.70245871802582005e-01
40 12 -3.66106788274905059e-01
41 12 -3.61056936565931297e-01
42 12 -3.55080750322297911e-01
43 12 -3.48169079518350799e-01
44 12 -3.40319686174314184e-01
45 12 -3.31537637058582413e-01
46 12 -3.21835574835891258e-01
47 12 -3.11233852169785552e-01
48 12 -2.99760517335292742e-01
49 12 -2.87451144789245383e-01
50 12 -2.74348509648494110e-01
51 12 -2.60502110845233614e-01
52 12 -2.45967553528124272e-01
53 12 -2.30805806708783118e-01
54 12 -2.15082356883193854e-01
55 12 -1.98866282100495562e-01
56 12 -1.82229273492614391e-01
57 12 -1.65244632491742538e-01
58 12 -1.47986271821039572e-01
59 12 -1.30527746915985537e-01
60 12 -1.12941341873889226e-01
61 12 -9.52972305587519580e-02
62 12 -7.76627293731339263e-02
63 12 -6.01016537313739732e-02
64 12 -4.26737857068960336e-02
65 12 -2.54344559310222436e-02
66 12 -8.43423879991291037e-03
67 12 -4.63157133997855107e-17
68 12 8.43423879991283404e-03
69 12 2.54344559310221742e-02
70 12 4.26737857068959781e-02
71 12 6.01016537313739316e-02
72 12 7.76627293731339124e-02
73 12 9.52972305587519580e-02
74 12 1.12941341873889114e-01
75 12 1.30527746915985454e-01
76 12 1.47986271821039544e-01
77 12 1.65244632491742427e-01
78 12 1.82229273492614391e-01
79 12 1.98866282100495451e-01
80 12 2.15082356883193854e-01
81 12 2.30805806708783118e-01
82 12 2.45967553528124300e-01
83 12 2.60502110845233614e-01
84 12 2.74348509648494110e-01
85 12 2.87451144789245383e-01
86 12 2.99760517335292742e-01
87 12 3.11233852169785552e-01
88 12 3.21835574835891258e-01
89 12 3.31537637058582413e-01
90 12 3.40319686174314184e-01
91 12 3.48169079518350799e-01
92 12 3.55080750322297689e-01
93 12 3.61056936565931463e-01
94 12 3.66106788274905059e-01
95 12 3.70245871802582005e-01
96 12 3.73495591604845800e-01
97 12 3.75882550914560964e-01
98 12 3.77437872619739156e-01
99 12 3.78196500672947522e-01
100 12 3.78196500672947744e-01
101 12 3.78196500672947578e-01
102 12 3.77437872619739212e-01
103 12 3.75882550914561020e-01
104 12 3.73495591604845800e-01
105 12 3.70245871802582005e-01
106 12 3.66106788274905059e-01
107 12 3.61056936565931297e-01
108 12 3.55080750322297911e-01
109 12 3.48169079518350799e-01
110 12 3.40319686174314184e-01
111 12 3.31537637058582413e-01
112 12 3.21835574835891258e-01
113 12 3.11233852169785552e-01
114 12 2.99760517335292742e-01
115 12 2.87451144789245383e-01
116 12 2.74348509648494110e-01
117 12 2.60502110845233614e-01
118 12 2.45967553528124272e-01
119 12 2.30805806708783118e-01
120 12 2.15082356883193854e-01
121 12 1.98866282100495562e-01
122 12 1.82229273492614391e-01
123 12 1.65244632491742538e-01
124 12 1.47986271821039572e-01
125 12 1.30527746915985565e-01
126 12 1.12941341873889239e-01
127 12 9.52972305587520413e-02
128 12 7.76627293731340096e-02
129 12 6.01016537313739871e-02
130 12 4.26737857068960683e-02
131 12 2.54344559310222748e-02
132 12 8.43423879991295374e-03
133 12 9.26314267995710213e-17
1 13 0.00000000000000000e+00
2 13 -9.32820608707155170e-03
3 13 -2.81303212139980344e-02
4 13 -4.71968931675928460e-02
5 13 -6.64719870376281469e-02
6 13 -8.58944075527648121e-02
7 13 -1.05398036179434912e-01
8 13 -1.24912293538680025e-01
9 13 -1.44362728184315586e-01
10 13 -1.63671728338816547e-01
11 13 -1.82759348322138554e-01
12 13 -2.01544236363569829e-01
13 13 -2.19944645534851629e-01
14 13 -2.37879504991040797e-01
15 13 -2.55269524867445197e-01
16 13 -2.72038305349719067e-01
17 13 -2.88113418854893943e-01
18 13 -3.03427434104489357e-01
19 13 -3.17918852213008585e-01
20 13 -3.31532927725461113e-01
21 13 -3.44222351677179350e-01
22 13 -3.55947778980522156e-01
23 13 -3.66678188449576947e-01
24 13 -3.76391070188137278e-01
25 13 -3.85072441501979779e-01
26 13 -3.92716698582521284e-01
27 13 -3.99326316618936583e-01
28 13 -4.04911415472308245e-01
29 13 -4.09489211414981014e-01
30 13 -4.13083377617752823e-01
31 13 -4.15723337060531051e-01
32 13 -4.17443511428578162e-01
33 13 -4.18282548476454241e-01
34 13 -4.18282548476454519e-01
35 13 -4.18282548476454352e-01
36 13 -4.17443511428578218e-01
37 13 -4.15723337060531162e-01
38 13 -4.13083377617752823e-01
39 13 -4.09489211414981014e-01
40 13 -4.04911415472308245e-01
41 13 -3.99326316618936417e-01
42 13 -3.92716698582521562e-01
43 13 -3.85072441501979779e-01
44 13 -3.76391070188137278e-01
45 13 -3.66678188449576947e-01
46 13 -3.55947778980522211e-01
47 13 -3.44222351677179350e-01
48 13 -3.31532927725461113e-01
49 13 -3.17918852213008585e-01
50 13 -3.03427434104489357e-01
51 13 -2.88113418854893943e-01
52 13 -2.72038305349719012e-01
53 13 -2.55269524867445197e-01
54 13 -2.37879504991040797e-01
55 13 -2.19944645534851796e-01
56 13 -2.01544236363569829e-01
57 13 -1.82759348322138665e-01
58 13 -1.63671728338816574e-01
59 13 -1.44362728184315642e-01
60 13 -1.24912293538680136e-01
61 13 -1.05398036179434912e-01
62 13 -8.58944075527648121e-02
63 13 -6.64719870376281746e-02
64 13 -4.71968931675928530e-02
65 13 -2.81303212139980760e-02
66 13 -9.32820608707158987e-03
67 13 -5.12248384130887435e-17
68 13 9.32820608707150313e-03
69 13 2.81303212139979962e-02
70 13 4.71968931675927905e-02
71 13 6.64719870376281469e-02
72 13 8.58944075527647982e-02
73 13 1.05398036179434912e-01
74 13 1.24912293538680025e-01
75 13 1.44362728184315586e-01
76 13 1.63671728338816547e-01
77 13 1.82759348322138554e-01
78 13 2.01544236363569829e-01
79 13 2.19944645534851629e-01
80 13 2.37879504991040797e-01
81 13 2.55269524867445197e-01
82 13 2.72038305349719067e-01
83 13 2.88113418854893943e-01
84 13 3.03427434104489357e-01
85 13 3.17918852213008585e-01
86 13 3.31532927725461113e-01
87 13 3.44222351677179350e-01
88 13 3.55947778980522156e-01
89 13 3.66678188449576947e-01
90 13 3.76391070188137278e-01
91 13 3.85072441501979779e-01
92 13 3.92716698582521284e-01
93 13 3.99326316618936583e-01
94 13 4.04911415472308245e-01
95 13 4.09489211414981014e-01
96 13 4.13083377617752823e-01
97 13 4.15723337060531051e-01
98 13 4.17443511428578162e-01
99 13 4.18282548476454241e-01
100 13 4.18282548476454519e-01
101 13 4.18282548476454352e-01
102 13 4.17443511428578218e-01
103 13 4.15723337060531162e-01
104 13 4.13083377617752823e-01
105 13 4.09489211414981014e-01
106 13 4.04911415472308245e-01
107 13 3.99326316618936417e-01
108 13 3.92716698582521562e-01
109 13 3.85072441501979779e-01
110 13 3.76391070188137278e-01
111 13 3.66678188449576947e-01
112 13 3.55947778980522211e-01
113 13 3.44222351677179350e-01
114 13 3.31532927725461113e-01
115 13 3.17918852213008585e-01
116 13 3.03427434104489357e-01
117 13 2.88113418854893943e-01
118 13 2.72038305349719012e-01
119 13 2.55269524867445197e-01
120 13 2.37879504991040797e-01
121 13 2.19944645534851796e-01
122 13 2.01544236363569829e-01
123 13 1.82759348322138665e-01
124 13 1.63671728338816574e-01
125 13 1.44362728184315670e-01
126 13 1.24912293538680177e-01
127 13 1.05398036179435009e-01
128 13 8.58944075527648954e-02
129 13 6.64719870376281885e-02
130 13 4.71968931675928946e-02
131 13 2.81303212139981107e-02
132 13 9.32820608707163844e-03
133 13 1.02449676826177487e-16
1 14 0.00000000000000000e+00
2 14 -1.02293289935413596e-02
3 14 -3.08477651228991831e-02
4 14 -5.17562051243120602e-02
5 14 -7.28933106661003583e-02
6 14 -9.41919748943273460e-02
7 14 -1.15579692096091341e-01
8 14 -1.36979064786732746e-01
9 14 -1.58308449365117759e-01
10 14 -1.79482736604599069e-01
11 14 -2.00414257916473521e-01
12 14 -2.21013802790268887e-01
13 14 -2.41191727384975962e-01
14 14 -2.60859129253868449e-01
15 14 -2.79929058976637835e-01
16 14 -2.98317736367823605e-01
17 14 -3.15945737198643273e-01
18 14 -3.32739116197562801e-01
19 14 -3.48630433566768039e-01
20 14 -3.63559655333513088e-01
21 14 -3.77474902394848100e-01
22 14 -3.90333028850907093e-01
23 14 -4.02100016808699057e-01
24 14 -4.12751181872129280e-01
25 14 -4.22271190591433476e-01
26 14 -4.30653897819186782e-01
27 14 -4.37902017852667136e-01
28 14 -4.44026648151280678e-01
29 14 -4.49046668112867864e-01
30 14 -4.52988037782709962e-01
31 14 -4.55883022457974907e-01
32 14 -4.57769369025874728e-01
33 14 -4.58689458689458651e-01
34 14 -4.58689458689458929e-01
35 14 -4.58689458689458707e-01
36 14 -4.57769369025874895e-01
37 14 -4.55883022457974962e-01
38 14 -4.52988037782709962e-01
39 14 -4.49046668112867864e-01
40 14 -4.44026648151280678e-01
41 14 -4.37902017852666969e-01
42 14 -4.30653897819187059e-01
43 14 -4.22271190591433476e-01
44 14 -4.12751181872129280e-01
45 14 -4.02100016808699057e-01
46 14 -3.90333028850907149e-01
47 14 -3.77474902394848100e-01
48 14 -3.63559655333513088e-01
49 14 -3.48630433566767983e-01
50 14 -3.32739116197562801e-01
51 14 -3.15945737198643273e-01
52 14 -2.98317736367823549e-01
53 14 -2.79929058976637835e-01
54 14 -2.60859129253868449e-01
55 14 -2.41191727384976184e-01
56 14 -2.21013802790268887e-01
57 14 -2.00414257916473659e-01
58 14 -1.79482736604599097e-01
59 14 -1.58308449365117787e-01
60 14 -1.36979064786732857e-01
61 14 -1.15579692096091341e-01
62 14 -9.41919748943273460e-02
63 14 -7.28933106661003860e-02
64 14 -5.17562051243120741e-02
65 14 -3.08477651228992351e-02
66 14 -1.02293289935414013e-02
67 14 -5.61732577386677728e-17
68 14 1.02293289935413059e-02
69 14 3.08477651228991415e-02
70 14 5.17562051243120116e-02
71 14 7.28933106661003583e-02
72 14 9.41919748943273322e-02
73 14 1.15579692096091341e-01
74 14 1.36979064786732746e-01
75 14 1.58308449365117759e-01
76 14 1.79482736604599069e-01
77 14 2.00414257916473521e-01
78 14 2.21013802790268887e-01
79 14 2.41191727384975962e-01
80 14 2.60859129253868449e-01
81 14 2.79929058976637835e-01
82 14 2.98317736367823605e-01
83 14 3.15945737198643273e-01
84 14 3.32739116197562801e-01
85 14 3.48630433566768039e-01
86 14 3.63559655333513088e-01
87 14 3.77474902394848100e-01
88 14 3.90333028850907093e-01
89 14 4.02100016808699057e-01
90 14 4.12751181872129280e-01
91 14 4.22271190591433476e-01
92 14 4.30653897819186782e-01
93 14 4.37902017852667136e-01
94 14 4.44026648151280678e-01
95 14 4.49046668112867864e-01
96 14 4.52988037782709962e-01
97 14 4.55883022457974907e-01
98 14 4.57769369025874728e-01
99 14 4.58689458689458651e-01
100 14 4.58689458689458929e-01
101 14 4.58689458689458707e-01
102 14 4.57769369025874895e-01
103 14 4.55883022457974962e-01
104 14 4.52988037782709962e-01
105 14 4.49046668112867864e-01
106 14 4.44026648151280678e-01
107 14 4.37902017852666969e-01
108 14 4.30653897819187059e-01
109 14 4.22271190591433476e-01
110 14 4.12751181872129280e-01
111 14 4.02100016808699057e-01
112 14 3.90333028850907149e-01
113 14 3.77474902394848100e-01
114 14 3.63559655333513088e-01
115 14 3.48630433566767983e-01
116 14 3.32739116197562801e-01
117 14 3.15945737198643273e-01
118 14 2.98317736367823549e-01
119 14 2.79929058976637835e-01
120 14 2.60859129253868449e-01
121 14 2.41191727384976184e-01
122 14 2.21013802790268887e-01
123 14 2.00414257916473659e-01
124 14 1.79482736604599097e-01
125 14 1.58308449365117815e-01
126 14 1.36979064786732913e-01
127 14 1.15579692096091438e-01
128 14 9.41919748943274432e-02
129 14 7.28933106661004276e-02
130 14 5.17562051243121227e-02
131 14 3.08477651228992664e-02
132 14 1.02293289935414550e-02
133 14 1.12346515477335546e-16
1 15 0.00000000000000000e+00
2 15 -1.11342780441235599e-02
3 15 -3.35767472270211420e-02
4 15 -5.63348757994419427e-02
5 15 -7.93418990654694428e-02
6 15 -1.02524773488145426e-01
7 15 -1.25804579055439264e-01
8 15 -1.49097071227493133e-01
9 15 -1.72313383710523627e-01
10 15 -1.95360877994789767e-01
11 15 -2.18144129791662922e-01
12 15 -2.40566036482908530e-01
13 15 -2.62529023784683568e-01
14 15 -2.83936324395703710e-01
15 15 -3.04693296817772907e-01
16 15 -3.24708749157454513e-01
17 15 -3.43896230832578365e-01
18 15 -3.62175254920313994e-01
19 15 -3.79472415485572645e-01
20 15 -3.95722367582946211e-01
21 15 -4.10868642566515674e-01
22 15 -4.24864277586041839e-01
23 15 -4.37672245317515862e-01
24 15 -4.49265677632085525e-01
25 15 -4.59627884589173252e-01
26 15 -4.68752177404002102e-01
27 15 -4.76641510497199883e-01
28 15 -4.83307963077352687e-01
29 15 -4.88772084729384104e-01
30 15 -4.93062132083067262e-01
31 15 -4.96213224821235033e-01
32 15 -4.98266449151768875e-01
33 15 -4.99267935578330824e-01
34 15 -4.99267935578331157e-01
35 15 -4.99267935578330990e-01
36 15 -4.98266449151769097e-01
37 15 -4.96213224821235199e-01
38 15 -4.93062132083067262e-01
39 15 -4.88772084729384104e-01
40 15 -4.83307963077352687e-01
41 15 -4.76641510497199661e-01
42 15 -4.68752177404002379e-01
43 15 -4.59627884589173252e-01
44 15 -4.49265677632085525e-01
45 15 -4.37672245317515862e-01
46 15 -4.24864277586041950e-01
47 15 -4.10868642566515674e-01
48 15 -3.95722367582946211e-01
49 15 -3.79472415485572645e-01
50 15 -3.62175254920313994e-01
51 15 -3.43896230832578365e-01
52 15 -3.24708749157454457e-01
53 15 -3.04693296817772907e-01
54 15 -2.83936324395703710e-01
55 15 -2.62529023784683790e-01
56 15 -2.40566036482908530e-01
57 15 -2.18144129791663061e-01
58 15 -1.95360877994789822e-01
59 15 -1.72313383710523682e-01
60 15 -1.49097071227493272e-01
61 15 -1.25804579055439264e-01
62 15 -1.02524773488145426e-01
63 15 -7.93418990654694845e-02
64 15 -5.63348757994419636e-02
65 15 -3.35767472270211975e-02
66 15 -1.11342780441236050e-02
67 15 -6.11426879222910011e-17
68 15 1.11342780441235009e-02
69 15 3.35767472270210934e-02
70 15 5.63348757994418872e-02
71 15 7.93418990654694428e-02
72 15 1.02524773488145413e-01
73 15 1.25804579055439264e-01
74 15 1.49097071227493133e-01
75 15 1.72313383710523627e-01
76 15 1.95360877994789767e-01
77 15 2.18144129791662922e-01
78 15 2.40566036482908530e-01
79 15 2.62529023784683568e-01
80 15 2.83936324395703710e-01
81 15 3.04693296817772907e-01
82 15 3.24708749157454513e-01
83 15 3.43896230832578365e-01
84 15 3.62175254920313994e-01
85 15 3.79472415485572645e-01
86 15 3.95722367582946211e-01
87 15 4.10868642566515674e-01
88 15 4.24864277586041839e-01
89 15 4.37672245317515862e-01
90 15 4.49265677632085525e-01
91 15 4.59627884589173252e-01
92 15 4.68752177404002102e-01
93 15 4.76641510497199883e-01
94 15 4.83307963077352687e-01
95 15 4.88772084729384104e-01
96 15 4.93062132083067262e-01
97 15 4.96213224821235033e-01
98 15 4.98266449151768875e-01
99 15 4.99267935578330824e-01
100 15 4.99267935578331157e-01
101 15 4.99267935578330990e-01
102 15 4.98266449151769097e-01
103 15 4.96213224821235199e-01
104 15 4.93062132083067262e-01
105 15 4.88772084729384104e-01
106 15 4.83307963077352687e-01
107 15 4.76641510497199661e-01
108 15 4.68752177404002379e-01
109 15 4.59627884589173252e-01
110 15 4.49265677632085525e-01
111 15 4.37672245317515862e-01
112 15 4.24864277586041950e-01
113 15 4.10868642566515674e-01
114 15 3.95722367582946211e-01
115 15 3.79472415485572645e-01
116 15 3.62175254920313994e-01
117 15 3.43896230832578365e-01
118 15 3.24708749157454457e-01
119 15 3.04693296817772907e-01
120 15 2.83936324395703710e-01
121 15 2.62529023784683790e-01
122 15 2.40566036482908530e-01
123 15 2.18144129791663061e-01
124 15 1.95360877994789822e-01
125 15 1.72313383710523710e-01
126 15 1.49097071227493327e-01
127 15 1.25804579055439347e-01
128 15 1.02524773488145524e-01
129 15 7.93418990654695400e-02
130 15 5.63348757994420191e-02
131 15 3.35767472270212322e-02
132 15 1.11342780441236640e-02
133 15 1.22285375844582002e-16
1 16 0.00000000000000000e+00
2 16 -1.20392987171078613e-02
3 16 -3.63059453170634927e-02
4 16 -6.09139088545223792e-02
5 16 -8.57909978398602585e-02
6 16 -1.10858231583237252e-01
7 16 -1.36030275265832667e-01
8 16 -1.61216036750678610e-01
9 16 -1.86319426479700428e-01
10 16 -2.11240276064156574e-01
11 16 -2.35875404901666363e-01
12 16 -2.60119817641610129e-01
13 16 -2.83868008929654247e-01
14 16 -3.07015345987490862e-01
15 16 -3.29459494630244765e-01
16 16 -3.51101850669902182e-01
17 16 -3.71848936614802617e-01
18 16 -3.91613723373078926e-01
19 16 -4.10316838400176243e-01
20 16 -4.27887625357685930e-01
21 16 -4.44265025693479865e-01
22 16 -4.59398259304851730e-01
23 16 -4.73247289198592991e-01
24 16 -4.85783063340261723e-01
25 16 -4.96987535191107554e-01
26 16 -5.06853472285974882e-01
27 16 -5.15384069187846072e-01
28 16 -5.22592386932188235e-01
29 16 -5.28500645423194970e-01
30 16 -5.33139398056895142e-01
31 16 -5.36546619127697744e-01
32 16 -5.38766734428444805e-01
33 16 -5.39849624060150246e-01
34 16 -5.39849624060150579e-01
35 16 -5.39849624060150468e-01
36 16 -5.38766734428445027e-01
37 16 -5.36546619127697855e-01
38 16 -5.33139398056895142e-01
39 16 -5.28500645423194970e-01
40 16 -5.22592386932188235e-01
41 16 -5.15384069187845961e-01
42 16 -5.06853472285975215e-01
43 16 -4.96987535191107554e-01
44 16 -4.85783063340261723e-01
45 16 -4.73247289198592991e-01
46 16 -4.59398259304851841e-01
47 16 -4.44265025693479865e-01
48 16 -4.27887625357685930e-01
49 16 -4.10316838400176187e-01
50 16 -3.91613723373078926e-01
51 16 -3.71848936614802617e-01
52 16 -3.51101850669902127e-01
53 16 -3.29459494630244765e-01
54 16 -3.07015345987490862e-01
55 16 -2.83868008929654525e-01
56 16 -2.60119817641610129e-01
57 16 -2.35875404901666502e-01
58 16 -2.11240276064156629e-01
59 16 -1.86319426479700456e-01
60 16 -1.61216036750678776e-01
61 16 -1.36030275265832667e-01
62 16 -1.10858231583237252e-01
63 16 -8.57909978398602863e-02
64 16 -6.09139088545224069e-02
65 16 -3.63059453170635552e-02
66 16 -1.20392987171079116e-02
67 16 -6.61125114126165215e-17
68 16 1.20392987171077971e-02
69 16 3.63059453170634441e-02
70 16 6.09139088545223167e-02
71 16 8.57909978398602585e-02
72 16 1.10858231583237238e-01
73 16 1.36030275265832667e-01
74 16 1.61216036750678610e-01
75 16 1.86319426479700428e-01
76 16 2.11240276064156574e-01
77 16 2.35875404901666363e-01
78 16 2.60119817641610129e-01
79 16 2.83868008929654247e-01
80 16 3.07015345987490862e-01
81 16 3.29459494630244765e-01
82 16 3.51101850669902182e-01
83 16 3.71848936614802617e-01
84 16 3.91613723373078926e-01
85 16 4.10316838400176243e-01
86 16 4.27887625357685930e-01
87 16 4.44265025693479865e-01
88 16 4.59398259304851730e-01
89 16 4.73247289198592991e-01
90 16 4.85783063340261723e-01
91 16 4.96987535191107554e-01
92 16 5.06853472285974882e-01
93 16 5.15384069187846072e-01
94 16 5.22592386932188235e-01
95 16 5.28500645423194970e-01
96 16 5.33139398056895142e-01
97 16 5.36546619127697744e-01
98 16 5.38766734428444805e-01
99 16 5.39849624060150246e-01
100 16 5.39849624060150579e-01
101 16 5.39849624060150468e-01
102 16 5.38766734428445027e-01
103 16 5.36546619127697855e-01
104 16 5.33139398056895142e-01
105 16 5.28500645423194970e-01
106 16 5.22592386932188235e-01
107 16 5.15384069187845961e-01
108 16 5.06853472285975215e-01
109 16 4.96987535191107554e-01
110 16 4.85783063340261723e-01
111 16 4.73247289198592991e-01
112 16 4.59398259304851841e-01
113 16 4.44265025693479865e-01
114 16 4.27887625357685930e-01
115 16 4.10316838400176187e-01
116 16 3.91613723373078926e-01
117 16 3.71848936614802617e-01
118 16 3.51101850669902127e-01
119 16 3.29459494630244765e-01
120 16 3.07015345987490862e-01
121 16 2.83868008929654525e-01
122 16 2.60119817641610129e-01
123 16 2.35875404901666502e-01
124 16 2.11240276064156629e-01
125 16 1.86319426479700484e-01
126 16 1.61216036750678804e-01
127 16 1.36030275265832751e-01
128 16 1.10858231583237349e-01
129 16 8.57909978398603695e-02
130 16 6.09139088545224555e-02
131 16 3.63059453170635968e-02
132 16 1.20392987171079741e-02
133 16 1.32225022825233043e-16
1 17 0.00000000000000000e+00
2 17 -1.29402070705047015e-02
3 17 -3.90227422155101367e-02
4 17 -6.54721352607757073e-02
5 17 -9.22107925817542695e-02
6 17 -1.19153823313528001e-01
7 17 -1.46209506978699388e-01
8 17 -1.73279934957957960e-01
9 17 -2.00261827250697633e-01
10 17 -2.27047519804161546e-01
11 17 -2.53526110946097949e-01
12 17 -2.79584748457255283e-01
13 17 -3.05110031950766636e-01
14 17 -3.29989498911208323e-01
15 17 -3.54113157421792335e-01
16 17 -3.77375024680621507e-01
17 17 -3.99674628216089123e-01
18 17 -4.20918426494225451e-01
19 17 -4.41021107472660934e-01
20 17 -4.59906727554402595e-01
21 17 -4.77509659137168141e-01
22 17 -4.93775322210981915e-01
23 17 -5.08660683789058266e-01
24 17 -5.22134517854805247e-01
25 17 -5.34177427435539975e-01
26 17 -5.44781638856155492e-01
27 17 -5.53950585730806688e-01
28 17 -5.61698306460522767e-01
29 17 -5.68048683679010957e-01
30 17 -5.73034557112289122e-01
31 17 -5.76696742695284925e-01
32 17 -5.79082990631075378e-01
33 17 -5.80246913580246826e-01
34 17 -5.80246913580247159e-01
35 17 -5.80246913580247048e-01
36 17 -5.79082990631075600e-01
37 17 -5.76696742695285036e-01
38 17 -5.73034557112289122e-01
39 17 -5.68048683679010957e-01
40 17 -5.61698306460522767e-01
41 17 -5.53950585730806577e-01
42 17 -5.44781638856155714e-01
43 17 -5.34177427435539975e-01
44 17 -5.22134517854805247e-01
45 17 -5.08660683789058266e-01
46 17 -4.93775322210981915e-01
47 17 -4.77509659137168141e-01
48 17 -4.59906727554402595e-01
49 17 -4.41021107472660823e-01
50 17 -4.20918426494225451e-01
51 17 -3.99674628216089123e-01
52 17 -3.77375024680621396e-01
53 17 -3.54113157421792335e-01
54 17 -3.29989498911208323e-01
55 17 -3.05110031950766969e-01
56 17 -2.79584748457255283e-01
57 17 -2.53526110946098115e-01
58 17 -2.27047519804161602e-01
59 17 -2.00261827250697660e-01
60 17 -1.73279934957958154e-01
61 17 -1.46209506978699388e-01
62 17 -1.19153823313528001e-01
63 17 -9.22107925817542973e-02
64 17 -6.54721352607757351e-02
65 17 -3.90227422155102061e-02
66 17 -1.29402070705047570e-02
67 17 -7.10597525431180378e-17
68 17 1.29402070705046338e-02
69 17 3.90227422155100950e-02
70 17 6.54721352607756518e-02
71 17 9.22107925817542695e-02
72 17 1.19153823313527973e-01
73 17 1.46209506978699388e-01
74 17 1.73279934957957960e-01
75 17 2.00261827250697633e-01
76 17 2.27047519804161546e-01
77 17 2.53526110946097949e-01
78 17 2.79584748457255283e-01
79 17 3.05110031950766636e-01
80 17 3.29989498911208323e-01
81 17 3.54113157421792335e-01
82 17 3.77375024680621507e-01
83 17 3.99674628216089123e-01
84 17 4.20918426494225451e-01
85 17 4.41021107472660934e-01
86 17 4.59906727554402595e-01
87 17 4.77509659137168141e-01
88 17 4.93775322210981915e-01
89 17 5.08660683789058266e-01
90 17 5.22134517854805247e-01
91 17 5.34177427435539975e-01
92 17 5.44781638856155492e-01
93 17 5.53950585730806688e-01
94 17 5.61698306460522767e-01
95 17 5.68048683679010957e-01
96 17 5.73034557112289122e-01
97 17 5.76696742695284925e-01
98 17 5.79082990631075378e-01
99 17 5.80246913580246826e-01
100 17 5.80246913580247159e-01
101 17 5.80246913580247048e-01
102 17 5.79082990631075600e-01
103 17 5.76696742695285036e-01
104 17 5.73034557112289122e-01
105 17 5.68048683679010957e-01
106 17 5.61698306460522767e-01
107 17 5.53950585730806577e-01
108 17 5.44781638856155714e-01
109 17 5.34177427435539975e-01
110 17 5.22134517854805247e-01
111 17 5.08660683789058266e-01
112 17 4.93775322210981915e-01
113 17 4.77509659137168141e-01
114 17 4.59906727554402595e-01
115 17 4.41021107472660823e-01
116 17 4.20918426494225451e-01
117 17 3.99674628216089123e-01
118 17 3.77375024680621396e-01
119 17 3.54113157421792335e-01
120 17 3.29989498911208323e-01
121 17 3.05110031950766969e-01
122 17 2.79584748457255283e-01
123 17 2.53526110946098115e-01
124 17 2.27047519804161602e-01
125 17 2.00261827250697688e-01
126 17 1.73279934957958182e-01
127 17 1.46209506978699499e-01
128 17 1.19153823313528071e-01
129 17 9.22107925817543805e-02
130 17 6.54721352607757906e-02
131 17 3.90227422155102477e-02
132 17 1.29402070705048229e-02
133 17 1.42119505086236076e-16
1 18 0.00000000000000000e+00
2 18 -1.38323947920369391e-02
3 18 -4.17132410054833688e-02
4 18 -6.99862388499915972e-02
5 18 -9.85684448577922590e-02
6 18 -1.27369115198328220e-01
7 18 -1.56290205547658989e-01
8 18 -1.85227056786462452e-01
9 18 -2.14069268073799890e-01
10 18 -2.42701752249587149e-01
11 18 -2.71005961310278154e-01
12 18 -2.98861262221073565e-01
13 18 -3.26146435985077532e-01
14 18 -3.52741266140206289e-01
15 18 -3.78528177163235613e-01
16 18 -4.03393879062048655e-01
17 18 -4.27230972095248462e-01
18 18 -4.49939465326038457e-01
19 18 -4.71428164707511810e-01
20 18 -4.91615890563809277e-01
21 18 -5.10432490470083544e-01
22 18 -5.27819621291512941e-01
23 18 -5.43731283048417002e-01
24 18 -5.58134096785812495e-01
25 18 -5.71007328169043316e-01
26 18 -5.82342667551866700e-01
27 18 -5.92143785285637381e-01
28 18 -6.00425687676222730e-01
29 18 -6.07213903991918769e-01
30 18 -6.12543538157467204e-01
31 18 -6.16458220241741461e-01
32 18 -6.19008992678356629e-01
33 18 -6.20253164556961889e-01
34 18 -6.20253164556962333e-01
35 18 -6.20253164556962111e-01
36 18 -6.19008992678356851e-01
37 18 -6.16458220241741572e-01
38 18 -6.12543538157467204e-01
39 18 -6.07213903991918769e-01
40 18 -6.00425687676222730e-01
41 18 -5.92143785285637270e-01
42 18 -5.82342667551866922e-01
43 18 -5.71007328169043316e-01
44 18 -5.58134096785812495e-01
45 18 -5.43731283048417002e-01
46 18 -5.27819621291512941e-01
47 18 -5.10432490470083544e-01
48 18 -4.91615890563809277e-01
49 18 -4.71428164707511699e-01
50 18 -4.49939465326038457e-01
51 18 -4.27230972095248462e-01
52 18 -4.03393879062048599e-01
53 18 -3.78528177163235613e-01
54 18 -3.52741266140206289e-01
55 18 -3.26146435985077809e-01
56 18 -2.98861262221073565e-01
57 18 -2.71005961310278265e-01
58 18 -2.42701752249587205e-01
59 18 -2.14069268073799890e-01
60 18 -1.85227056786462646e-01
61 18 -1.56290205547658989e-01
62 18 -1.27369115198328220e-01
63 18 -9.85684448577923006e-02
64 18 -6.99862388499916249e-02
65 18 -4.17132410054834452e-02
66 18 -1.38323947920369963e-02
67 18 -7.59591052635700337e-17
68 18 1.38323947920368680e-02
69 18 4.17132410054833272e-02
70 18 6.99862388499915417e-02
71 18 9.85684448577922590e-02
72 18 1.27369115198328192e-01
73 18 1.56290205547658989e-01
74 18 1.85227056786462452e-01
75 18 2.14069268073799890e-01
76 18 2.42701752249587149e-01
77 18 2.71005961310278154e-01
78 18 2.98861262221073565e-01
79 18 3.26146435985077532e-01
80 18 3.52741266140206289e-01
81 18 3.78528177163235613e-01
82 18 4.03393879062048655e-01
83 18 4.27230972095248462e-01
84 18 4.49939465326038457e-01
85 18 4.71428164707511810e-01
86 18 4.91615890563809277e-01
87 18 5.10432490470083544e-01
88 18 5.27819621291512941e-01
89 18 5.43731283048417002e-01
90 18 5.58134096785812495e-01
91 18 5.71007328169043316e-01
92 18 5.82342667551866700e-01
93 18 5.92143785285637381e-01
94 18 6.00425687676222730e-01
95 18 6.07213903991918769e-01
96 18 6.12543538157467204e-01
97 18 6.16458220241741461e-01
98 18 6.19008992678356629e-01
99 18 6.20253164556961889e-01
100 18 6.20253164556962333e-01
101 18 6.20253164556962111e-01
102 18 6.19008992678356851e-01
103 18 6.16458220241741572e-01
104 18 6.12543538157467204e-01
105 18 6.07213903991918769e-01
106 18 6.00425687676222730e-01
107 18 5.92143785285637270e-01
108 18 5.82342667551866922e-01
109 18 5.71007328169043316e-01
110 18 5.58134096785812495e-01
111 18 5.43731283048417002e-01
112 18 5.27819621291512941e-01
113 18 5.10432490470083544e-01
114 18 4.91615890563809277e-01
115 18 4.71428164707511699e-01
116 18 4.49939465326038457e-01
117 18 4.27230972095248462e-01
118 18 4.03393879062048599e-01
119 18 3.78528177163235613e-01
120 18 3.52741266140206289e-01
121 18 3.26146435985077809e-01
122 18 2.98861262221073565e-01
123 18 2.71005961310278265e-01
124 18 2.42701752249587205e-01
125 18 2.14069268073799945e-01
126 18 1.85227056786462702e-01
127 18 1.56290205547659100e-01
128 18 1.27369115198328303e-01
129 18 9.85684448577923839e-02
130 18 6.99862388499916943e-02
131 18 4.17132410054834868e-02
132 18 1.38323947920370692e-02
133 18 1.51918210527140067e-16
1 19 0.00000000000000000e+00
2 19 -1.47108454254742740e-02
3 19 -4.43623139631960650e-02
4 19 -7.44308384131174422e-02
5 19 -1.04828207836225137e-01
6 19 -1.35457915554918346e-01
7 19 -1.66215690767501728e-01
8 19 -1.96990227792648021e-01
9 19 -2.27664114589253008e-01
10 19 -2.58114955184102712e-01
11 19 -2.88216672973551191e-01
12 19 -3.17840973909111812e-01
13 19 -3.46858940767644619e-01
14 19 -3.75142722528563233e-01
15 19 -4.02567276827622722e-01
16 19 -4.29012118991897951e-01
17 19 -4.54363028669947544e-01
18 19 -4.78513664824136375e-01
19 19 -5.01367041968730498e-01
20 19 -5.22836824969343472e-01
21 19 -5.42848406247629978e-01
22 19 -5.61339737485066381e-01
23 19 -5.78261897392112867e-01
24 19 -5.93579387224365096e-01
25 19 -6.07270155876666218e-01
26 19 -6.19325365984029763e-01
27 19 -6.29748920989947947e-01
28 19 -6.38556780202215735e-01
29 19 -6.45776094170349091e-01
30 19 -6.51444196155758437e-01
31 19 -6.55607487031810043e-01
32 19 -6.58320250771911586e-01
33 19 -6.59643435980550863e-01
34 19 -6.59643435980551307e-01
35 19 -6.59643435980551085e-01
36 19 -6.58320250771911808e-01
37 19 -6.55607487031810154e-01
38 19 -6.51444196155758437e-01
39 19 -6.45776094170349091e-01
40 19 -6.38556780202215735e-01
41 19 -6.29748920989947836e-01
42 19 -6.19325365984029874e-01
43 19 -6.07270155876666218e-01
44 19 -5.93579387224365096e-01
45 19 -5.78261897392112867e-01
46 19 -5.61339737485066492e-01
47 19 -5.42848406247629978e-01
48 19 -5.22836824969343472e-01
49 19 -5.01367041968730387e-01
50 19 -4.78513664824136375e-01
51 19 -4.54363028669947544e-01
52 19 -4.29012118991897895e-01
53 19 -4.02567276827622722e-01
54 19 -3.75142722528563233e-01
55 19 -3.46858940767644841e-01
56 19 -3.17840973909111812e-01
57 19 -2.88216672973551302e-01
58 19 -2.58114955184102768e-01
59 19 -2.27664114589253092e-01
60 19 -1.96990227792648215e-01
61 19 -1.66215690767501728e-01
62 19 -1.35457915554918346e-01
63 19 -1.04828207836225165e-01
64 19 -7.44308384131174838e-02
65 19 -4.43623139631961483e-02
66 19 -1.47108454254743330e-02
67 19 -8.07830222452144087e-17
68 19 1.47108454254741977e-02
69 19 4.43623139631960234e-02
70 19 7.44308384131173867e-02
71 19 1.04828207836225137e-01
72 19 1.35457915554918346e-01
73 19 1.66215690767501728e-01
74 19 1.96990227792648021e-01
75 19 2.27664114589253008e-01
76 19 2.58114955184102712e-01
77 19 2.88216672973551191e-01
78 19 3.17840973909111812e-01
79 19 3.46858940767644619e-01
80 19 3.75142722528563233e-01
81 19 4.02567276827622722e-01
82 19 4.29012118991897951e-01
83 19 4.54363028669947544e-01
84 19 4.78513664824136375e-01
85 19 5.01367041968730498e-01
86 19 5.22836824969343472e-01
87 19 5.42848406247629978e-01
88 19 5.61339737485066381e-01
89 19 5.78261897392112867e-01
90 19 5.93579387224365096e-01
91 19 6.07270155876666218e-01
92 19 6.19325365984029763e-01
93 19 6.29748920989947947e-01
94 19 6.38556780202215735e-01
95 19 6.45776094170349091e-01
96 19 6.51444196155758437e-01
97 19 6.55607487031810043e-01
98 19 6.58320250771911586e-01
99 19 6.59643435980550863e-01
100 19 6.59643435980551307e-01
101 19 6.59643435980551085e-01
102 19 6.58320250771911808e-01
103 19 6.55607487031810154e-01
104 19 6.51444196155758437e-01
105 19 6.45776094170349091e-01
106 19 6.38556780202215735e-01
107 19 6.29748920989947836e-01
108 19 6.19325365984029874e-01
109 19 6.07270155876666218e-01
110 19 5.93579387224365096e-01
111 19 5.78261897392112867e-01
112 19 5.61339737485066492e-01
113 19 5.42848406247629978e-01
114 19 5.22836824969343472e-01
115 19 5.01367041968730387e-01
116 19 4.78513664824136375e-01
117 19 4.54363028669947544e-01
118 19 4.29012118991897895e-01
119 19 4.02567276827622722e-01
120 19 3.75142722528563233e-01
121 19 3.46858940767644841e-01
122 19 3.17840973909111812e-01
123 19 2.88216672973551302e-01
124 19 2.58114955184102768e-01
125 19 2.27664114589253119e-01
126 19 1.96990227792648270e-01
127 19 1.66215690767501839e-01
128 19 1.35457915554918457e-01
129 19 1.04828207836225276e-01
130 19 7.44308384131175532e-02
131 19 4.43623139631961969e-02
132 19 1.47108454254744128e-02
133 19 1.61566044490428817e-16
1 20 0.00000000000000000e+00
2 20 -1.55701634138273419e-02
3 20 -4.69536901411774857e-02
4 20 -7.87786346468971471e-02
5 20 -1.10951633246194628e-01
6 20 -1.43370541929170398e-01
7 20 -1.75924999028990753e-01
8 20 -2.08497197064370504e-01
9 20 -2.40962865497901912e-01
10 20 -2.73192458729110244e-01
11 20 -3.05052535527076896e-01
12 20 -3.36407307686421131e-01
13 20 -3.67120327425041248e-01
14 20 -3.97056275444448492e-01
15 20 -4.26082805167091738e-01
16 20 -4.54072393939306040e-01
17 20 -4.80904149352417154e-01
18 20 -5.06465518573077311e-01
19 20 -5.30653850814199024e-01
20 20 -5.53377767768698625e-01
21 20 -5.74558303737926268e-01
22 20 -5.94129785918516951e-01
23 20 -6.12040435337167898e-01
24 20 -6.28252679629043076e-01
25 20 -6.42743179597732861e-01
26 20 -6.55502581653214733e-01
27 20 -6.66535017254374806e-01
28 20 -6.75857377954563465e-01
29 20 -6.83498400273030327e-01
30 20 -6.89497598252925892e-01
31 20 -6.93904083224018642e-01
32 20 -6.96775310098807443e-01
33 20 -6.98175787728026243e-01
34 20 -6.98175787728026909e-01
35 20 -6.98175787728026465e-01
36 20 -6.96775310098807665e-01
37 20 -6.93904083224018753e-01
38 20 -6.89497598252925892e-01
39 20 -6.83498400273030327e-01
40 20 -6.75857377954563465e-01
41 20 -6.66535017254374695e-01
42 20 -6.55502581653214844e-01
43 20 -6.42743179597732861e-01
44 20 -6.28252679629043076e-01
45 20 -6.12040435337167898e-01
46 20 -5.94129785918517173e-01
47 20 -5.74558303737926268e-01
48 20 -5.53377767768698625e-01
49 20 -5.30653850814198913e-01
50 20 -5.06465518573077311e-01
51 20 -4.80904149352417154e-01
52 20 -4.54072393939306040e-01
53 20 -4.26082805167091738e-01
54 20 -3.97056275444448492e-01
55 20 -3.67120327425041526e-01
56 20 -3.36407307686421131e-01
57 20 -3.05052535527077007e-01
58 20 -2.73192458729110355e-01
59 20 -2.40962865497902023e-01
60 20 -2.08497197064370726e-01
61 20 -1.75924999028990753e-01
62 20 -1.43370541929170398e-01
63 20 -1.10951633246194656e-01
64 20 -7.87786346468972026e-02
65 20 -4.69536901411775759e-02
66 20 -1.55701634138274061e-02
67 20 -8.55018743683309864e-17
68 20 1.55701634138272638e-02
69 20 4.69536901411774441e-02
70 20 7.87786346468971055e-02
71 20 1.10951633246194628e-01
72 20 1.43370541929170398e-01
73 20 1.75924999028990753e-01
74 20 2.08497197064370504e-01
75 20 2.40962865497901912e-01
76 20 2.73192458729110244e-01
77 20 3.05052535527076896e-01
78 20 3.36407307686421131e-01
79 20 3.67120327425041248e-01
80 20 3.97056275444448492e-01
81 20 4.26082805167091738e-01
82 20 4.54072393939306040e-01
83 20 4.80904149352417154e-01
84 20 5.06465518573077311e-01
85 20 5.30653850814199024e-01
86 20 5.53377767768698625e-01
87 20 5.74558303737926268e-01
88 20 5.94129785918516951e-01
89 20 6.12040435337167898e-01
90 20 6.28252679629043076e-01
91 20 6.42743179597732861e-01
92 20 6.55502581653214733e-01
93 20 6.66535017254374806e-01
94 20 6.75857377954563465e-01
95 20 6.83498400273030327e-01
96 20 6.89497598252925892e-01
97 20 6.93904083224018642e-01
98 20 6.96775310098807443e-01
99 20 6.98175787728026243e-01
100 20 6.98175787728026909e-01
101 20 6.98175787728026465e-01
102 20 6.96775310098807665e-01
103 20 6.93904083224018753e-01
104 20 6.89497598252925892e-01
105 20 6.83498400273030327e-01
106 20 6.75857377954563465e-01
107 20 6.66535017254374695e-01
108 20 6.55502581653214844e-01
109 20 6.42743179597732861e-01
110 20 6.28252679629043076e-01
111 20 6.12040435337167898e-01
112 20 5.94129785918517173e-01
113 20 5.74558303737926268e-01
114 20 5.53377767768698625e-01
115 20 5.30653850814198913e-01
116 20 5.06465518573077311e-01
117 20 4.80904149352417154e-01
118 20 4.54072393939306040e-01
119 20 4.26082805167091738e-01
120 20 3.97056275444448492e-01
121 20 3.67120327425041526e-01
122 20 3.36407307686421131e-01
123 20 3.05052535527077007e-01
124 20 2.73192458729110355e-01
125 20 2.40962865497902023e-01
126 20 2.08497197064370782e-01
127 20 1.75924999028990892e-01
128 20 1.43370541929170509e-01
129 20 1.10951633246194767e-01
130 20 7.87786346468972720e-02
131 20 4.69536901411776245e-02
132 20 1.55701634138274928e-02
133 20 1.71003748736661973e-16
1 21 0.00000000000000000e+00
2 21 -1.64046173586917463e-02
3 21 -4.94700858219993961e-02
4 21 -8.30006290283919479e-02
5 21 -1.16897879640064511e-01
6 21 -1.51054219428913228e-01
7 21 -1.85353372099862856e-01
8 21 -2.19671216498811939e-01
9 21 -2.53876822040065731e-01
10 21 -2.87833700367670253e-01
11 21 -3.21401258716160432e-01
12 21 -3.54436431563878607e-01
13 21 -3.86795458463658537e-01
14 21 -4.18335767930927471e-01
15 21 -4.48917920519498526e-01
16 21 -4.78407559236298907e-01
17 21 -5.06677312668892710e-01
18 21 -5.33608595924197737e-01
19 21 -5.59093256837141173e-01
20 21 -5.83035019850251413e-01
21 21 -6.05350687245149954e-01
22 21 -6.25971066606738069e-01
23 21 -6.44841603963958065e-01
24 21 -6.61922713330970858e-01
25 21 -6.77189804690550679e-01
26 21 -6.90633023164417215e-01
27 21 -7.02256721629310299e-01
28 21 -7.12078696909960840e-01
29 21 -7.20129225605912526e-01
30 21 -7.26449939441954906e-01
31 21 -7.31092581778220230e-01
32 21 -7.34117686716365903e-01
33 21 -7.35593220338982778e-01
34 21 -7.35593220338983333e-01
35 21 -7.35593220338983000e-01
36 21 -7.34117686716366125e-01
37 21 -7.31092581778220341e-01
38 21 -7.26449939441954906e-01
39 21 -7.20129225605912526e-01
40 21 -7.12078696909960840e-01
41 21 -7.02256721629310299e-01
42 21 -6.90633023164417437e-01
43 21 -6.77189804690550679e-01
44 21 -6.61922713330970858e-01
45 21 -6.44841603963958065e-01
46 21 -6.25971066606738402e-01
47 21 -6.05350687245149954e-01
48 21 -5.83035019850251413e-01
49 21 -5.59093256837141173e-01
50 21 -5.33608595924197737e-01
51 21 -5.06677312668892710e-01
52 21 -4.78407559236298852e-01
53 21 -4.48917920519498526e-01
54 21 -4.18335767930927471e-01
55 21 -3.86795458463658759e-01
56 21 -3.54436431563878607e-01
57 21 -3.21401258716160543e-01
58 21 -2.87833700367670364e-01
59 21 -2.53876822040065786e-01
60 21 -2.19671216498812105e-01
61 21 -1.85353372099862856e-01
62 21 -1.51054219428913228e-01
63 21 -1.16897879640064539e-01
64 21 -8.30006290283920034e-02
65 21 -4.94700858219994932e-02
66 21 -1.64046173586918156e-02
67 21 -9.00841882762629438e-17
68 21 1.64046173586916665e-02
69 21 4.94700858219993614e-02
70 21 8.30006290283919063e-02
71 21 1.16897879640064511e-01
72 21 1.51054219428913228e-01
73 21 1.85353372099862856e-01
74 21 2.19671216498811939e-01
75 21 2.53876822040065731e-01
76 21 2.87833700367670253e-01
77 21 3.21401258716160432e-01
78 21 3.54436431563878607e-01
79 21 3.86795458463658537e-01
80 21 4.18335767930927471e-01
81 21 4.48917920519498526e-01
82 21 4.78407559236298907e-01
83 21 5.06677312668892710e-01
84 21 5.33608595924197737e-01
85 21 5.59093256837141173e-01
86 21 5.83035019850251413e-01
87 21 6.05350687245149954e-01
88 21 6.25971066606738069e-01
89 21 6.44841603963958065e-01
90 21 6.61922713330970858e-01
91 21 6.77189804690550679e-01
92 21 6.90633023164417215e-01
93 21 7.02256721629310299e-01
94 21 7.12078696909960840e-01
95 21 7.20129225605912526e-01
96 21 7.26449939441954906e-01
97 21 7.31092581778220230e-01
98 21 7.34117686716365903e-01
99 21 7.35593220338982778e-01
100 21 7.35593220338983333e-01
101 21 7.35593220338983000e-01
102 21 7.34117686716366125e-01
103 21 7.31092581778220341e-01
104 21 7.26449939441954906e-01
105 21 7.20129225605912526e-01
106 21 7.12078696909960840e-01
107 21 7.02256721629310299e-01
108 21 6.90633023164417437e-01
109 21 6.77189804690550679e-01
110 21 6.61922713330970858e-01
111 21 6.44841603963958065e-01
112 21 6.25971066606738402e-01
113 21 6.05350687245149954e-01
114 21 5.83035019850251413e-01
115 21 5.59093256837141173e-01
116 21 5.33608595924197737e-01
117 21 5.06677312668892710e-01
118 21 4.78407559236298852e-01
119 21 4.48917920519498526e-01
120 21 4.18335767930927471e-01
121 21 3.86795458463658759e-01
122 21 3.54436431563878607e-01
123 21 3.21401258716160543e-01
124 21 2.87833700367670364e-01
125 21 2.53876822040065786e-01
126 21 2.19671216498812161e-01
127 21 1.85353372099863023e-01
128 21 1.51054219428913311e-01
129 21 1.16897879640064664e-01
130 21 8.30006290283920728e-02
131 21 4.94700858219995418e-02
132 21 1.64046173586919058e-02
133 21 1.80168376552525888e-16
1 22 0.00000000000000000e+00
2 22 -1.72081985065542474e-02
3 22 -5.18933808907280844e-02
4 22 -8.70664197316786820e-02
5 22 -1.22624129161763004e-01
6 22 -1.58453619267632823e-01
7 22 -1.94432917953047679e-01
8 22 -2.30431823981859324e-01
9 22 -2.66312993125918440e-01
10 22 -3.01933251139112901e-01
11 22 -3.37145118311077630e-01
12 22 -3.71798521047147446e-01
13 22 -4.05742656786181155e-01
14 22 -4.38827970171034198e-01
15 22 -4.70908191306032398e-01
16 22 -5.01842381712881203e-01
17 22 -5.31496930683001967e-01
18 22 -5.59747444435337860e-01
19 22 -5.86480472964637789e-01
20 22 -6.11595024649574937e-01
21 22 -6.35003826326633880e-01
22 22 -6.56634296186185629e-01
23 22 -6.76429207927686238e-01
24 22 -6.94347036443447418e-01
25 22 -7.10361987172801190e-01
26 22 -7.24463722495673701e-01
27 22 -7.36656808514728589e-01
28 22 -7.46959913833204814e-01
29 22 -7.55404798151658508e-01
30 22 -7.62035132527370762e-01
31 22 -7.66905194972018811e-01
32 22 -7.70078484853796486e-01
33 22 -7.71626297577854392e-01
34 22 -7.71626297577854947e-01
35 22 -7.71626297577854614e-01
36 22 -7.70078484853796708e-01
37 22 -7.66905194972018922e-01
38 22 -7.62035132527370762e-01
39 22 -7.55404798151658508e-01
40 22 -7.46959913833204814e-01
41 22 -7.36656808514728811e-01
42 22 -7.24463722495673923e-01
43 22 -7.10361987172801190e-01
44 22 -6.94347036443447418e-01
45 22 -6.76429207927686238e-01
46 22 -6.56634296186185962e-01
47 22 -6.35003826326633880e-01
48 22 -6.11595024649574937e-01
49 22 -5.86480472964637789e-01
50 22 -5.59747444435337860e-01
51 22 -5.31496930683001967e-01
52 22 -5.01842381712881203e-01
53 22 -4.70908191306032398e-01
54 22 -4.38827970171034198e-01
55 22 -4.05742656786181377e-01
56 22 -3.71798521047147446e-01
57 22 -3.37145118311077741e-01
58 22 -3.01933251139113012e-01
59 22 -2.66312993125918496e-01
60 22 -2.30431823981859490e-01
61 22 -1.94432917953047679e-01
62 22 -1.58453619267632823e-01
63 22 -1.22624129161763032e-01
64 22 -8.70664197316787236e-02
65 22 -5.18933808907281816e-02
66 22 -1.72081985065543203e-02
67 22 -9.44969675466642888e-17
68 22 1.72081985065541676e-02
69 22 5.18933808907280497e-02
70 22 8.70664197316786403e-02
71 22 1.22624129161763004e-01
72 22 1.58453619267632823e-01
73 22 1.94432917953047679e-01
74 22 2.30431823981859324e-01
75 22 2.66312993125918440e-01
76 22 3.01933251139112901e-01
77 22 3.37145118311077630e-01
78 22 3.71798521047147446e-01
79 22 4.05742656786181155e-01
80 22 4.38827970171034198e-01
81 22 4.70908191306032398e-01
82 22 5.01842381712881203e-01
83 22 5.31496930683001967e-01
84 22 5.59747444435337860e-01
85 22 5.86480472964637789e-01
86 22 6.11595024649574937e-01
87 22 6.35003826326633880e-01
88 22 6.56634296186185629e-01
89 22 6.76429207927686238e-01
90 22 6.94347036443447418e-01
91 22 7.10361987172801190e-01
92 22 7.24463722495673701e-01
93 22 7.36656808514728589e-01
94 22 7.46959913833204814e-01
95 22 7.55404798151658508e-01
96 22 7.62035132527370762e-01
97 22 7.66905194972018811e-01
98 22 7.70078484853796486e-01
99 22 7.71626297577854392e-01
100 22 7.71626297577854947e-01
101 22 7.71626297577854614e-01
102 22 7.70078484853796708e-01
103 22 7.66905194972018922e-01
104 22 7.62035132527370762e-01
105 22 7.55404798151658508e-01
106 22 7.46959913833204814e-01
107 22 7.36656808514728811e-01
108 22 7.24463722495673923e-01
109 22 7.10361987172801190e-01
110 22 6.94347036443447418e-01
111 22 6.76429207927686238e-01
112 22 6.56634296186185962e-01
113 22 6.35003826326633880e-01
114 22 6.11595024649574937e-01
115 22 5.86480472964637789e-01
116 22 5.59747444435337860e-01
117 22 5.31496930683001967e-01
118 22 5.01842381712881203e-01
119 22 4.70908191306032398e-01
120 22 4.38827970171034198e-01
121 22 4.05742656786181377e-01
122 22 3.71798521047147446e-01
123 22 3.37145118311077741e-01
124 22 3.01933251139113012e-01
125 22 2.66312993125918496e-01
126 22 2.30431823981859546e-01
127 22 1.94432917953047818e-01
128 22 1.58453619267632878e-01
129 22 1.22624129161763157e-01
130 22 8.70664197316788069e-02
131 22 5.18933808907282301e-02
132 22 1.72081985065544174e-02
133 22 1.88993935093328578e-16
1 23 0.00000000000000000e+00
2 23 -1.79746949277223324e-02
3 23 -5.42048425303590653e-02
4 23 -9.09445769427796313e-02
5 23 -1.28086116139397216e-01
6 23 -1.65511541806329182e-01
7 23 -2.03093448903542889e-01
8 23 -2.40695836704519162e-01
9 23 -2.78175243323917298e-01
10 23 -3.15382117174777654e-01
11 23 -3.52162409429686241e-01
12 23 -3.88359361838801542e-01
13 23 -4.23815454715806672e-01
14 23 -4.58374471131982486e-01
15 23 -4.91883625962793836e-01
16 23 -5.24195702975817635e-01
17 23 -5.55171140105631289e-01
18 23 -5.84680002759455975e-01
19 23 -6.12603787583605008e-01
20 23 -6.38837004536054853e-01
21 23 -6.63288493087190956e-01
22 23 -6.85882438451120291e-01
23 23 -7.06559065324011137e-01
24 23 -7.25274998965489304e-01
25 23 -7.42003295860309331e-01
26 23 -7.56733157924811661e-01
27 23 -7.69469354647351222e-01
28 23 -7.80231386177686503e-01
29 23 -7.89052426873276813e-01
30 23 -7.95978093010079268e-01
31 23 -8.01065080278860919e-01
32 23 -8.04379716469305506e-01
33 23 -8.05996472663139008e-01
34 23 -8.05996472663139563e-01
35 23 -8.05996472663139230e-01
36 23 -8.04379716469305839e-01
37 23 -8.01065080278861030e-01
38 23 -7.95978093010079268e-01
39 23 -7.89052426873276813e-01
40 23 -7.80231386177686503e-01
41 23 -7.69469354647351556e-01
42 23 -7.56733157924811883e-01
43 23 -7.42003295860309331e-01
44 23 -7.25274998965489304e-01
45 23 -7.06559065324011137e-01
46 23 -6.85882438451120735e-01
47 23 -6.63288493087190956e-01
48 23 -6.38837004536054853e-01
49 23 -6.12603787583605119e-01
50 23 -5.84680002759455975e-01
51 23 -5.55171140105631289e-01
52 23 -5.24195702975817635e-01
53 23 -4.91883625962793836e-01
54 23 -4.58374471131982486e-01
55 23 -4.23815454715806839e-01
56 23 -3.88359361838801542e-01
57 23 -3.52162409429686296e-01
58 23 -3.15382117174777710e-01
59 23 -2.78175243323917354e-01
60 23 -2.40695836704519328e-01
61 23 -2.03093448903542889e-01
62 23 -1.65511541806329210e-01
63 23 -1.28086116139397244e-01
64 23 -9.09445769427796591e-02
65 23 -5.42048425303591694e-02
66 23 -1.79746949277224052e-02
67 23 -9.87061000370970767e-17
68 23 1.79746949277222491e-02
69 23 5.42048425303590237e-02
70 23 9.09445769427795897e-02
71 23 1.28086116139397216e-01
72 23 1.65511541806329182e-01
73 23 2.03093448903542889e-01
74 23 2.40695836704519162e-01
75 23 2.78175243323917298e-01
76 23 3.15382117174777654e-01
77 23 3.52162409429686241e-01
78 23 3.88359361838801542e-01
79 23 4.23815454715806672e-01
80 23 4.58374471131982486e-01
81 23 4.91883625962793836e-01
82 23 5.24195702975817635e-01
83 23 5.55171140105631289e-01
84 23 5.84680002759455975e-01
85 23 6.12603787583605008e-01
86 23 6.38837004536054853e-01
87 23 6.63288493087190956e-01
88 23 6.85882438451120291e-01
89 23 7.06559065324011137e-01
90 23 7.25274998965489304e-01
91 23 7.42003295860309331e-01
92 23 7.56733157924811661e-01
93 23 7.69469354647351222e-01
94 23 7.80231386177686503e-01
95 23 7.89052426873276813e-01
96 23 7.95978093010079268e-01
97 23 8.01065080278860919e-01
98 23 8.04379716469305506e-01
99 23 8.05996472663139008e-01
100 23 8.05996472663139563e-01
101 23 8.05996472663139230e-01
102 23 8.04379716469305839e-01
103 23 8.01065080278861030e-01
104 23 7.95978093010079268e-01
105 23 7.89052426873276813e-01
106 23 7.80231386177686503e-01
107 23 7.69469354647351556e-01
108 23 7.56733157924811883e-01
109 23 7.42003295860309331e-01
110 23 7.25274998965489304e-01
111 23 7.06559065324011137e-01
112 23 6.85882438451120735e-01
113 23 6.63288493087190956e-01
114 23 6.38837004536054853e-01
115 23 6.12603787583605119e-01
116 23 5.84680002759455975e-01
117 23 5.55171140105631289e-01
118 23 5.24195702975817635e-01
119 23 4.91883625962793836e-01
120 23 4.58374471131982486e-01
121 23 4.23815454715806839e-01
122 23 3.88359361838801542e-01
123 23 3.52162409429686296e-01
124 23 3.15382117174777710e-01
125 23 2.78175243323917354e-01
126 23 2.40695836704519356e-01
127 23 2.03093448903543028e-01
128 23 1.65511541806329265e-01
129 23 1.28086116139397382e-01
130 23 9.09445769427797562e-02
131 23 5.42048425303592180e-02
132 23 1.79746949277225058e-02
133 23 1.97412200074194153e-16
1 24 0.00000000000000000e+00
2 24 -1.86977811549708280e-02
3 24 -5.63853955378777541e-02
4 24 -9.46030963944139436e-02
5 24 -1.33238765842469825e-01
6 24 -1.72169741948921790e-01
7 24 -2.11263494422371412e-01
8 24 -2.50378551497562052e-01
9 24 -2.89365680102835754e-01
10 24 -3.28069312488331211e-01
11 24 -3.66329202748693572e-01
12 24 -4.03982286561465287e-01
13 24 -4.40864707536638312e-01
14 24 -4.76813964449149308e-01
15 24 -5.11671125932776083e-01
16 24 -5.45283053538861973e-01
17 24 -5.77504570897666047e-01
18 24 -6.08200516406167679e-01
19 24 -6.37247619556451705e-01
20 24 -6.64536146651911519e-01
21 24 -6.89971269956134892e-01
22 24 -7.13474124805179799e-01
23 24 -7.34982531253627336e-01
24 24 -7.54451369681566120e-01
25 24 -7.71852612689719608e-01
26 24 -7.87175027808999395e-01
27 24 -8.00423576394790448e-01
28 24 -8.11618543049092422e-01
29 24 -8.20794436667785399e-01
30 24 -8.27998708578882137e-01
31 24 -8.33290335228028090e-01
32 24 -8.36738312639966897e-01
33 24 -8.38420107719927810e-01
34 24 -8.38420107719928365e-01
35 24 -8.38420107719928032e-01
36 24 -8.36738312639967230e-01
37 24 -8.33290335228028201e-01
38 24 -8.27998708578882137e-01
39 24 -8.20794436667785399e-01
40 24 -8.11618543049092422e-01
41 24 -8.00423576394790670e-01
42 24 -7.87175027808999506e-01
43 24 -7.71852612689719608e-01
44 24 -7.54451369681566120e-01
45 24 -7.34982531253627336e-01
46 24 -7.13474124805180243e-01
47 24 -6.89971269956134892e-01
48 24 -6.64536146651911519e-01
49 24 -6.37247619556451594e-01
50 24 -6.08200516406167679e-01
51 24 -5.77504570897666047e-01
52 24 -5.45283053538862084e-01
53 24 -5.11671125932776083e-01
54 24 -4.76813964449149308e-01
55 24 -4.40864707536638367e-01
56 24 -4.03982286561465287e-01
57 24 -3.66329202748693628e-01
58 24 -3.28069312488331211e-01
59 24 -2.89365680102835809e-01
60 24 -2.50378551497562218e-01
61 24 -2.11263494422371412e-01
62 24 -1.72169741948921817e-01
63 24 -1.33238765842469825e-01
64 24 -9.46030963944139713e-02
65 24 -5.63853955378778721e-02
66 24 -1.86977811549709043e-02
67 24 -1.02676850125998921e-16
68 24 1.86977811549707378e-02
69 24 5.63853955378777194e-02
70 24 9.46030963944139019e-02
71 24 1.33238765842469825e-01
72 24 1.72169741948921790e-01
73 24 2.11263494422371412e-01
74 24 2.50378551497562052e-01
75 24 2.89365680102835754e-01
76 24 3.28069312488331211e-01
77 24 3.66329202748693572e-01
78 24 4.03982286561465287e-01
79 24 4.40864707536638312e-01
80 24 4.76813964449149308e-01
81 24 5.11671125932776083e-01
82 24 5.45283053538861973e-01
83 24 5.77504570897666047e-01
84 24 6.08200516406167679e-01
85 24 6.37247619556451705e-01
86 24 6.64536146651911519e-01
87 24 6.89971269956134892e-01
88 24 7.13474124805179799e-01
89 24 7.34982531253627336e-01
90 24 7.54451369681566120e-01
91 24 7.71852612689719608e-01
92 24 7.87175027808999395e-01
93 24 8.00423576394790448e-01
94 24 8.11618543049092422e-01
95 24 8.20794436667785399e-01
96 24 8.27998708578882137e-01
97 24 8.33290335228028090e-01
98 24 8.36738312639966897e-01
99 24 8.38420107719927810e-01
100 24 8.38420107719928365e-01
101 24 8.38420107719928032e-01
102 24 8.36738312639967230e-01
103 24 8.33290335228028201e-01
104 24 8.27998708578882137e-01
105 24 8.20794436667785399e-01
106 24 8.11618543049092422e-01
107 24 8.00423576394790670e-01
108 24 7.87175027808999506e-01
109 24 7.71852612689719608e-01
110 24 7.54451369681566120e-01
111 24 7.34982531253627336e-01
112 24 7.13474124805180243e-01
113 24 6.89971269956134892e-01
114 24 6.64536146651911519e-01
115 24 6.37247619556451594e-01
116 24 6.08200516406167679e-01
117 24 5.77504570897666047e-01
118 24 5.45283053538862084e-01
119 24 5.11671125932776083e-01
120 24 4.76813964449149308e-01
121 24 4.40864707536638367e-01
122 24 4.03982286561465287e-01
123 24 3.66329202748693628e-01
124 24 3.28069312488331211e-01
125 24 2.89365680102835809e-01
126 24 2.50378551497562274e-01
127 24 2.11263494422371578e-01
128 24 1.72169741948921873e-01
129 24 1.33238765842470019e-01
130 24 9.46030963944140685e-02
131 24 5.63853955378779137e-02
132 24 1.86977811549710084e-02
133 24 2.05353700251997843e-16
1 25 0.00000000000000000e+00
2 25 -1.93711222165856185e-02
3 25 -5.84159360483463494e-02
4 25 -9.80099257304887506e-02
5 25 -1.38036935812320127e-01
6 25 -1.78369887081704676e-01
7 25 -2.18871476590725783e-01
8 25 -2.59395137918893792e-01
9 25 -2.99786263840576772e-01
10 25 -3.39883684328671221e-01
11 25 -3.79521382731703494e-01
12 25 -4.18530422484777953e-01
13 25 -4.56741046431657194e-01
14 25 -4.93984901383000108e-01
15 25 -5.30097332565407364e-01
16 25 -5.64919686736528925e-01
17 25 -5.98301559461854704e-01
18 25 -6.30102921723534548e-01
19 25 -6.60196063818757506e-01
20 25 -6.88467300341184640e-01
21 25 -7.14818388635372282e-01
22 25 -7.39167623977582178e-01
23 25 -7.61450587209618557e-01
24 25 -7.81620533872102508e-01
25 25 -7.99648427248201510e-01
26 25 -8.15522630367212731e-01
27 25 -8.29248283251940443e-01
28 25 -8.40846400989746612e-01
29 25 -8.50352735204533139e-01
30 25 -8.57816446032824031e-01
31 25 -8.63298633769196022e-01
32 25 -8.66870779110566314e-01
33 25 -8.68613138686131103e-01
34 25 -8.68613138686131658e-01
35 25 -8.68613138686131214e-01
36 25 -8.66870779110566647e-01
37 25 -8.63298633769196133e-01
38 25 -8.57816446032824031e-01
39 25 -8.50352735204533139e-01
40 25 -8.40846400989746612e-01
41 25 -8.29248283251940665e-01
42 25 -8.15522630367212842e-01
43 25 -7.99648427248201510e-01
44 25 -7.81620533872102508e-01
45 25 -7.61450587209618557e-01
46 25 -7.39167623977582622e-01
47 25 -7.14818388635372282e-01
48 25 -6.88467300341184640e-01
49 25 -6.60196063818757395e-01
50 25 -6.30102921723534548e-01
51 25 -5.98301559461854704e-01
52 25 -5.64919686736529036e-01
53 25 -5.30097332565407364e-01
54 25 -4.93984901383000108e-01
55 25 -4.56741046431657249e-01
56 25 -4.18530422484777953e-01
57 25 -3.79521382731703549e-01
58 25 -3.39883684328671221e-01
59 25 -2.99786263840576772e-01
60 25 -2.59395137918893959e-01
61 25 -2.18871476590725783e-01
62 25 -1.78369887081704703e-01
63 25 -1.38036935812320127e-01
64 25 -9.80099257304887783e-02
65 25 -5.84159360483464674e-02
66 25 -1.93711222165856983e-02
67 25 -1.06374429998930694e-16
68 25 1.93711222165855283e-02
69 25 5.84159360483463147e-02
70 25 9.80099257304887089e-02
71 25 1.38036935812320100e-01
72 25 1.78369887081704676e-01
73 25 2.18871476590725783e-01
74 25 2.59395137918893792e-01
75 25 2.99786263840576772e-01
76 25 3.39883684328671221e-01
77 25 3.79521382731703494e-01
78 25 4.18530422484777953e-01
79 25 4.56741046431657194e-01
80 25 4.93984901383000108e-01
81 25 5.30097332565407364e-01
82 25 5.64919686736528925e-01
83 25 5.98301559461854704e-01
84 25 6.30102921723534548e-01
85 25 6.60196063818757506e-01
86 25 6.88467300341184640e-01
87 25 7.14818388635372282e-01
88 25 7.39167623977582178e-01
89 25 7.61450587209618557e-01
90 25 7.81620533872102508e-01
91 25 7.99648427248201510e-01
92 25 8.15522630367212731e-01
93 25 8.29248283251940443e-01
94 25 8.40846400989746612e-01
95 25 8.50352735204533139e-01
96 25 8.57816446032824031e-01
97 25 8.63298633769196022e-01
98 25 8.66870779110566314e-01
99 25 8.68613138686131103e-01
100 25 8.68613138686131658e-01
101 25 8.68613138686131214e-01
102 25 8.66870779110566647e-01
103 25 8.63298633769196133e-01
104 25 8.57816446032824031e-01
105 25 8.50352735204533139e-01
106 25 8.40846400989746612e-01
107 25 8.29248283251940665e-01
108 25 8.15522630367212842e-01
109 25 7.99648427248201510e-01
110 25 7.81620533872102508e-01
111 25 7.61450587209618557e-01
112 25 7.39167623977582622e-01
113 25 7.14818388635372282e-01
114 25 6.88467300341184640e-01
115 25 6.60196063818757395e-01
116 25 6.30102921723534548e-01
117 25 5.98301559461854704e-01
118 25 5.64919686736529036e-01
119 25 5.30097332565407364e-01
120 25 4.93984901383000108e-01
121 25 4.56741046431657249e-01
122 25 4.18530422484777953e-01
123 25 3.79521382731703549e-01
124 25 3.39883684328671221e-01
125 25 2.99786263840576772e-01
126 25 2.59395137918894014e-01
127 25 2.18871476590725950e-01
128 25 1.78369887081704787e-01
129 25 1.38036935812320322e-01
130 25 9.80099257304888755e-02
131 25 5.84159360483465090e-02
132 25 1.93711222165858059e-02
133 25 2.12748859997861387e-16
1 26 0.00000000000000000e+00
2 26 -1.99884900706093840e-02
3 26 -6.02776826562986257e-02
4 26 -1.01133553615581198e-01
5 26 -1.42436245562454461e-01
6 26 -1.84054629203449643e-01
7 26 -2.25847025673480306e-01
8 26 -2.67662197403143620e-01
9 26 -3.09340609753205209e-01
10 26 -3.50715956123024142e-01
11 26 -3.91616928823121657e-01
12 26 -4.31869207191420135e-01
13 26 -4.71297623821822664e-01
14 26 -5.09728460020292040e-01
15 26 -5.46991813379194447e-01
16 26 -5.82923974293896086e-01
17 26 -6.17369744861448244e-01
18 26 -6.50184633265548206e-01
19 26 -6.81236859627982860e-01
20 26 -7.10409115328715646e-01
21 26 -7.37600026667199926e-01
22 26 -7.62725284947175841e-01
23 26 -7.85718417937992353e-01
24 26 -8.06531191409763148e-01
25 26 -8.25133643230216984e-01
26 26 -8.41513765552274307e-01
27 26 -8.55676862213969325e-01
28 26 -8.67644618064552064e-01
29 26 -8.77453924150983111e-01
30 26 -8.85155507369195349e-01
31 26 -8.90812415312291606e-01
32 26 -8.94498406804597468e-01
33 26 -8.96296296296296036e-01
34 26 -8.96296296296296591e-01
35 26 -8.96296296296296147e-01
36 26 -8.94498406804597801e-01
37 26 -8.90812415312291606e-01
38 26 -8.85155507369195349e-01
39 26 -8.77453924150983111e-01
40 26 -8.67644618064552064e-01
41 26 -8.55676862213969436e-01
42 26 -8.41513765552274418e-01
43 26 -8.25133643230216984e-01
44 26 -8.06531191409763148e-01
45 26 -7.85718417937992353e-01
46 26 -7.62725284947176285e-01
47 26 -7.37600026667199926e-01
48 26 -7.10409115328715646e-01
49 26 -6.81236859627982638e-01
50 26 -6.50184633265548206e-01
51 26 -6.17369744861448244e-01
52 26 -5.82923974293896308e-01
53 26 -5.46991813379194447e-01
54 26 -5.09728460020292040e-01
55 26 -4.71297623821822775e-01
56 26 -4.31869207191420135e-01
57 26 -3.91616928823121713e-01
58 26 -3.50715956123024142e-01
59 26 -3.09340609753205209e-01
60 26 -2.67662197403143787e-01
61 26 -2.25847025673480306e-01
62 26 -1.84054629203449671e-01
63 26 -1.42436245562454461e-01
64 26 -1.01133553615581254e-01
65 26 -6.02776826562987506e-02
66 26 -1.99884900706094708e-02
67 26 -1.09764639034688707e-16
68 26 1.99884900706092938e-02
69 26 6.02776826562985979e-02
70 26 1.01133553615581170e-01
71 26 1.42436245562454433e-01
72 26 1.84054629203449643e-01
73 26 2.25847025673480306e-01
74 26 2.67662197403143620e-01
75 26 3.09340609753205209e-01
76 26 3.50715956123024142e-01
77 26 3.91616928823121657e-01
78 26 4.31869207191420135e-01
79 26 4.71297623821822664e-01
80 26 5.09728460020292040e-01
81 26 5.46991813379194447e-01
82 26 5.82923974293896086e-01
83 26 6.17369744861448244e-01
84 26 6.50184633265548206e-01
85 26 6.81236859627982860e-01
86 26 7.10409115328715646e-01
87 26 7.37600026667199926e-01
88 26 7.62725284947175841e-01
89 26 7.85718417937992353e-01
90 26 8.06531191409763148e-01
91 26 8.25133643230216984e-01
92 26 8.41513765552274307e-01
93 26 8.55676862213969325e-01
94 26 8.67644618064552064e-01
95 26 8.77453924150983111e-01
96 26 8.85155507369195349e-01
97 26 8.90812415312291606e-01
98 26 8.94498406804597468e-01
99 26 8.96296296296296036e-01
100 26 8.96296296296296591e-01
101 26 8.96296296296296147e-01
102 26 8.94498406804597801e-01
103 26 8.90812415312291606e-01
104 26 8.85155507369195349e-01
105 26 8.77453924150983111e-01
106 26 8.67644618064552064e-01
107 26 8.55676862213969436e-01
108 26 8.41513765552274418e-01
109 26 8.25133643230216984e-01
110 26 8.06531191409763148e-01
111 26 7.85718417937992353e-01
112 26 7.62725284947176285e-01
113 26 7.37600026667199926e-01
114 26 7.10409115328715646e-01
115 26 6.81236859627982638e-01
116 26 6.50184633265548206e-01
117 26 6.17369744861448244e-01
118 26 5.82923974293896308e-01
119 26 5.46991813379194447e-01
120 26 5.09728460020292040e-01
121 26 4.71297623821822775e-01
122 26 4.31869207191420135e-01
123 26 3.91616928823121713e-01
124 26 3.50715956123024142e-01
125 26 3.09340609753205209e-01
126 26 2.67662197403143842e-01
127 26 2.25847025673480473e-01
128 26 1.84054629203449754e-01
129 26 1.42436245562454683e-01
130 26 1.01133553615581337e-01
131 26 6.02776826562987922e-02
132 26 1.99884900706095783e-02
133 26 2.19529278069377414e-16
1 27 0.00000000000000000e+00
2 27 -2.05438894814994333e-02
3 27 -6.19525560118579510e-02
4 27 -1.03943646619149357e-01
5 27 -1.46393973564685975e-01
6 27 -1.89168764001529793e-01
7 27 -2.32122402381136600e-01
8 27 -2.75099448852858031e-01
9 27 -3.17935935954153259e-01
10 27 -3.60460936095617468e-01
11 27 -4.02498381638947189e-01
12 27 -4.43869108254900280e-01
13 27 -4.84393081342618825e-01
14 27 -5.23891755267161696e-01
15 27 -5.62190506719177363e-01
16 27 -5.99121077265298507e-01
17 27 -6.34523956679656664e-01
18 27 -6.68250638301937538e-01
19 27 -7.00165680623336506e-01
20 27 -7.30148515491044314e-01
21 27 -7.58094952438797098e-01
22 27 -7.83918340172166772e-01
23 27 -8.07550359465675660e-01
24 27 -8.28941435854994246e-01
25 27 -8.48060774681204665e-01
26 27 -8.64896034447653284e-01
27 27 -8.79452666364612612e-01
28 27 -8.91752957815713954e-01
29 27 -9.01834824901119658e-01
30 27 -9.09750404012328651e-01
31 27 -9.15564494580423438e-01
32 27 -9.19352904889565448e-01
33 27 -9.21200750469043039e-01
34 27 -9.21200750469043483e-01
35 27 -9.21200750469043150e-01
36 27 -9.19352904889565781e-01
37 27 -9.15564494580423327e-01
38 27 -9.09750404012328651e-01
39 27 -9.01834824901119658e-01
40 27 -8.91752957815713954e-01
41 27 -8.79452666364612723e-01
42 27 -8.64896034447653395e-01
43 27 -8.48060774681204665e-01
44 27 -8.28941435854994246e-01
45 27 -8.07550359465675660e-01
46 27 -7.83918340172167216e-01
47 27 -7.58094952438797098e-01
48 27 -7.30148515491044314e-01
49 27 -7.00165680623336284e-01
50 27 -6.68250638301937538e-01
51 27 -6.34523956679656664e-01
52 27 -5.99121077265298840e-01
53 27 -5.62190506719177363e-01
54 27 -5.23891755267161696e-01
55 27 -4.84393081342618936e-01
56 27 -4.43869108254900280e-01
57 27 -4.02498381638947189e-01
58 27 -3.60460936095617468e-01
59 27 -3.17935935954153259e-01
60 27 -2.75099448852858197e-01
61 27 -2.32122402381136600e-01
62 27 -1.89168764001529821e-01
63 27 -1.46393973564686003e-01
64 27 -1.03943646619149413e-01
65 27 -6.19525560118580759e-02
66 27 -2.05438894814995270e-02
67 27 -1.12814555043405342e-16
68 27 2.05438894814993431e-02
69 27 6.19525560118579233e-02
70 27 1.03943646619149344e-01
71 27 1.46393973564685947e-01
72 27 1.89168764001529793e-01
73 27 2.32122402381136600e-01
74 27 2.75099448852858031e-01
75 27 3.17935935954153259e-01
76 27 3.60460936095617468e-01
77 27 4.02498381638947189e-01
78 27 4.43869108254900280e-01
79 27 4.84393081342618825e-01
80 27 5.23891755267161696e-01
81 27 5.62190506719177363e-01
82 27 5.99121077265298507e-01
83 27 6.34523956679656664e-01
84 27 6.68250638301937538e-01
85 27 7.00165680623336506e-01
86 27 7.30148515491044314e-01
87 27 7.58094952438797098e-01
88 27 7.83918340172166772e-01
89 27 8.07550359465675660e-01
90 27 8.28941435854994246e-01
91 27 8.48060774681204665e-01
92 27 8.64896034447653284e-01
93 27 8.79452666364612612e-01
94 27 8.91752957815713954e-01
95 27 9.01834824901119658e-01
96 27 9.09750404012328651e-01
97 27 9.15564494580423438e-01
98 27 9.19352904889565448e-01
99 27 9.21200750469043039e-01
100 27 9.21200750469043483e-01
101 27 9.21200750469043150e-01
102 27 9.19352904889565781e-01
103 27 9.15564494580423327e-01
104 27 9.09750404012328651e-01
105 27 9.01834824901119658e-01
106 27 8.91752957815713954e-01
107 27 8.79452666364612723e-01
108 27 8.64896034447653395e-01
109 27 8.48060774681204665e-01
110 27 8.28941435854994246e-01
111 27 8.07550359465675660e-01
112 27 7.83918340172167216e-01
113 27 7.58094952438797098e-01
114 27 7.30148515491044314e-01
115 27 7.00165680623336284e-01
116 27 6.68250638301937538e-01
117 27 6.34523956679656664e-01
118 27 5.99121077265298840e-01
119 27 5.62190506719177363e-01
120 27 5.23891755267161696e-01
121 27 4.84393081342618936e-01
122 27 4.43869108254900280e-01
123 27 4.02498381638947189e-01
124 27 3.60460936095617468e-01
125 27 3.17935935954153259e-01
126 27 2.75099448852858253e-01
127 27 2.32122402381136766e-01
128 27 1.89168764001529904e-01
129 27 1.46393973564686225e-01
130 27 1.03943646619149496e-01
131 27 6.19525560118581176e-02
132 27 2.05438894814996345e-02
133 27 2.25629110086810684e-16
1 28 0.00000000000000000e+00
2 28 -2.10316894520290558e-02
3 28 -6.34235751693565108e-02
4 28 -1.06411714206994523e-01
5 28 -1.49869993821457520e-01
6 28 -1.93660441080895362e-01
7 28 -2.37633982899652818e-01
8 28 -2.81631488618939607e-01
9 28 -3.25485097486024166e-01
10 28 -3.69019823358074039e-01
11 28 -4.12055417996571083e-01
12 28 -4.54408462943345914e-01
13 28 -4.95894648804635518e-01
14 28 -5.36331190507025601e-01
15 28 -5.75539318435508207e-01
16 28 -6.13346778980490726e-01
17 28 -6.49590274459812544e-01
18 28 -6.84117772028666193e-01
19 28 -7.16790614216436528e-01
20 28 -7.47485370065710808e-01
21 28 -7.76095375182081160e-01
22 28 -8.02531920798073672e-01
23 28 -8.26725065497037614e-01
24 28 -8.48624057704424728e-01
25 28 -8.68197371564153886e-01
26 28 -8.85432372539555534e-01
27 28 -9.00334641275993386e-01
28 28 -9.12926994355091614e-01
29 28 -9.23248248167707564e-01
30 28 -9.31351777046688145e-01
31 28 -9.37303919039287003e-01
32 28 -9.41182282443183249e-01
33 28 -9.43074003795066340e-01
34 28 -9.43074003795066673e-01
35 28 -9.43074003795066451e-01
36 28 -9.41182282443183582e-01
37 28 -9.37303919039286892e-01
38 28 -9.31351777046688145e-01
39 28 -9.23248248167707564e-01
40 28 -9.12926994355091614e-01
41 28 -9.00334641275993719e-01
42 28 -8.85432372539555645e-01
43 28 -8.68197371564153886e-01
44 28 -8.48624057704424728e-01
45 28 -8.26725065497037614e-01
46 28 -8.02531920798074228e-01
47 28 -7.76095375182081160e-01
48 28 -7.47485370065710808e-01
49 28 -7.16790614216436306e-01
50 28 -6.84117772028666193e-01
51 28 -6.49590274459812655e-01
52 28 -6.13346778980491059e-01
53 28 -5.75539318435508207e-01
54 28 -5.36331190507025601e-01
55 28 -4.95894648804635629e-01
56 28 -4.54408462943345914e-01
57 28 -4.12055417996571083e-01
58 28 -3.69019823358074039e-01
59 28 -3.25485097486024166e-01
60 28 -2.81631488618939718e-01
61 28 -2.37633982899652818e-01
62 28 -1.93660441080895390e-01
63 28 -1.49869993821457520e-01
64 28 -1.06411714206994606e-01
65 28 -6.34235751693566358e-02
66 28 -2.10316894520291495e-02
67 28 -1.15493256010670704e-16
68 28 2.10316894520289621e-02
69 28 6.34235751693564831e-02
70 28 1.06411714206994509e-01
71 28 1.49869993821457492e-01
72 28 1.93660441080895362e-01
73 28 2.37633982899652818e-01
74 28 2.81631488618939607e-01
75 28 3.25485097486024166e-01
76 28 3.69019823358074039e-01
77 28 4.12055417996571083e-01
78 28 4.54408462943345914e-01
79 28 4.95894648804635518e-01
80 28 5.36331190507025601e-01
81 28 5.75539318435508207e-01
82 28 6.13346778980490726e-01
83 28 6.49590274459812544e-01
84 28 6.84117772028666193e-01
85 28 7.16790614216436528e-01
86 28 7.47485370065710808e-01
87 28 7.76095375182081160e-01
88 28 8.02531920798073672e-01
89 28 8.26725065497037614e-01
90 28 8.48624057704424728e-01
91 28 8.68197371564153886e-01
92 28 8.85432372539555534e-01
93 28 9.00334641275993386e-01
94 28 9.12926994355091614e-01
95 28 9.23248248167707564e-01
96 28 9.31351777046688145e-01
97 28 9.37303919039287003e-01
98 28 9.41182282443183249e-01
99 28 9.43074003795066340e-01
100 28 9.43074003795066673e-01
101 28 9.43074003795066451e-01
102 28 9.41182282443183582e-01
103 28 9.37303919039286892e-01
104 28 9.31351777046688145e-01
105 28 9.23248248167707564e-01
106 28 9.12926994355091614e-01
107 28 9.00334641275993719e-01
108 28 8.85432372539555645e-01
109 28 8.68197371564153886e-01
110 28 8.48624057704424728e-01
111 28 8.26725065497037614e-01
112 28 8.02531920798074228e-01
113 28 7.76095375182081160e-01
114 28 7.47485370065710808e-01
115 28 7.16790614216436306e-01
116 28 6.84117772028666193e-01
117 28 6.49590274459812655e-01
118 28 6.13346778980491059e-01
119 28 5.75539318435508207e-01
120 28 5.36331190507025601e-01
121 28 4.95894648804635629e-01
122 28 4.54408462943345914e-01
123 28 4.12055417996571083e-01
124 28 3.69019823358074039e-01
125 28 3.25485097486024166e-01
126 28 2.81631488618939774e-01
127 28 2.37633982899652985e-01
128 28 1.93660441080895501e-01
129 28 1.49869993821457742e-01
130 28 1.06411714206994676e-01
131 28 6.34235751693566774e-02
132 28 2.10316894520292605e-02
133 28 2.30986512021341408e-16
1 29 0.00000000000000000e+00
2 29 -2.14467555189069084e-02
3 29 -6.46752565405997043e-02
4 29 -1.08511778102782341e-01
5 29 -1.52827718592944140e-01
6 29 -1.97482382146192070e-01
7 29 -2.42323753679297066e-01
8 29 -2.87189562046975155e-01
9 29 -3.31908633719241231e-01
10 29 -3.76302529154512955e-01
11 29 -4.20187442866643779e-01
12 29 -4.63376336584695681e-01
13 29 -5.05681263519282553e-01
14 29 -5.46915831284240594e-01
15 29 -5.86897742197967198e-01
16 29 -6.25451343179401098e-01
17 29 -6.62410113822556990e-01
18 29 -6.97619020873408102e-01
19 29 -7.30936670418739110e-01
20 29 -7.62237195557883940e-01
21 29 -7.91411826845827115e-01
22 29 -8.18370104823630040e-01
23 29 -8.43040707761909758e-01
24 29 -8.65371882490099109e-01
25 29 -8.85331480980839802e-01
26 29 -9.02906619351471207e-01
27 29 -9.18102988382899499e-01
28 29 -9.30943854948144356e-01
29 29 -9.41468801490011886e-01
30 29 -9.49732255698210515e-01
31 29 -9.55801864819258662e-01
32 29 -9.59756768771533153e-01
33 29 -9.61685823754789282e-01
34 29 -9.61685823754789504e-01
35 29 -9.61685823754789393e-01
36 29 -9.59756768771533486e-01
37 29 -9.55801864819258551e-01
38 29 -9.49732255698210515e-01
39 29 -9.41468801490011886e-01
40 29 -9.30943854948144356e-01
41 29 -9.18102988382899721e-01
42 29 -9.02906619351471318e-01
43 29 -8.85331480980839802e-01
44 29 -8.65371882490099109e-01
45 29 -8.43040707761909758e-01
46 29 -8.18370104823630373e-01
47 29 -7.91411826845827115e-01
48 29 -7.62237195557883940e-01
49 29 -7.30936670418738887e-01
50 29 -6.97619020873408102e-01
51 29 -6.62410113822557101e-01
52 29 -6.25451343179401431e-01
53 29 -5.86897742197967198e-01
54 29 -5.46915831284240594e-01
55 29 -5.05681263519282664e-01
56 29 -4.63376336584695681e-01
57 29 -4.20187442866643779e-01
58 29 -3.76302529154512955e-01
59 29 -3.31908633719241231e-01
60 29 -2.87189562046975266e-01
61 29 -2.42323753679297066e-01
62 29 -1.97482382146192098e-01
63 29 -1.52827718592944140e-01
64 29 -1.08511778102782411e-01
65 29 -6.46752565405998292e-02
66 29 -2.14467555189070055e-02
67 29 -1.17772546584668839e-16
68 29 2.14467555189068182e-02
69 29 6.46752565405996765e-02
70 29 1.08511778102782314e-01
71 29 1.52827718592944112e-01
72 29 1.97482382146192070e-01
73 29 2.42323753679297066e-01
74 29 2.87189562046975155e-01
75 29 3.31908633719241231e-01
76 29 3.76302529154512955e-01
77 29 4.20187442866643779e-01
78 29 4.63376336584695681e-01
79 29 5.05681263519282553e-01
80 29 5.46915831284240594e-01
81 29 5.86897742197967198e-01
82 29 6.25451343179401098e-01
83 29 6.62410113822556990e-01
84 29 6.97619020873408102e-01
85 29 7.30936670418739110e-01
86 29 7.62237195557883940e-01
87 29 7.91411826845827115e-01
88 29 8.18370104823630040e-01
89 29 8.43040707761909758e-01
90 29 8.65371882490099109e-01
91 29 8.85331480980839802e-01
92 29 9.02906619351471207e-01
93 29 9.18102988382899499e-01
94 29 9.30943854948144356e-01
95 29 9.41468801490011886e-01
96 29 9.49732255698210515e-01
97 29 9.55801864819258662e-01
98 29 9.59756768771533153e-01
99 29 9.61685823754789282e-01
100 29 9.61685823754789504e-01
101 29 9.61685823754789393e-01
102 29 9.59756768771533486e-01
103 29 9.55801864819258551e-01
104 29 9.49732255698210515e-01
105 29 9.41468801490011886e-01
106 29 9.30943854948144356e-01
107 29 9.18102988382899721e-01
108 29 9.02906619351471318e-01
109 29 8.85331480980839802e-01
110 29 8.65371882490099109e-01
111 29 8.43040707761909758e-01
112 29 8.18370104823630373e-01
113 29 7.91411826845827115e-01
114 29 7.62237195557883940e-01
115 29 7.30936670418738887e-01
116 29 6.97619020873408102e-01
117 29 6.62410113822557101e-01
118 29 6.25451343179401431e-01
119 29 5.86897742197967198e-01
120 29 5.46915831284240594e-01
121 29 5.05681263519282664e-01
122 29 4.63376336584695681e-01
123 29 4.20187442866643779e-01
124 29 3.76302529154512955e-01
125 29 3.31908633719241231e-01
126 29 2.87189562046975322e-01
127 29 2.42323753679297205e-01
128 29 1.97482382146192209e-01
129 29 1.52827718592944362e-01
130 29 1.08511778102782480e-01
131 29 6.46752565405998708e-02
132 29 2.14467555189071166e-02
133 29 2.35545093169337678e-16
1 30 0.00000000000000000e+00
2 30 -2.17845776304816247e-02
3 30 -6.56939995253798814e-02
4 30 -1.10221019296728576e-01
5 30 -1.55235009642478439e-01
6 30 -2.00593058503584137e-01
7 30 -2.46140756306127195e-01
8 30 -2.91713275864078969e-01
9 30 -3.37136747379326807e-01
10 30 -3.82229920590379080e-01
11 30 -4.26806094768618027e-01
12 30 -4.70675285478890815e-01
13 30 -5.13646585456917992e-01
14 30 -5.55530666326081946e-01
15 30 -5.96142358912740811e-01
16 30 -6.35303243307317245e-01
17 30 -6.72844176130149796e-01
18 30 -7.08607682095306113e-01
19 30 -7.42450140099995326e-01
20 30 -7.74243700630278253e-01
21 30 -8.03877880941262002e-01
22 30 -8.31260796686901116e-01
23 30 -8.56320002701813410e-01
24 30 -8.79002930616817890e-01
25 30 -8.99276926019594081e-01
26 30 -9.17128902084875963e-01
27 30 -9.32564639232844828e-01
28 30 -9.45607770828513217e-01
29 30 -9.56298502804072581e-01
30 30 -9.64692120175974610e-01
31 30 -9.70857335747513539e-01
32 30 -9.74874536022560800e-01
33 30 -9.76833976833976880e-01
34 30 -9.76833976833976991e-01
35 30 -9.76833976833976991e-01
36 30 -9.74874536022561133e-01
37 30 -9.70857335747513539e-01
38 30 -9.64692120175974610e-01
39 30 -9.56298502804072692e-01
40 30 -9.45607770828513217e-01
41 30 -9.32564639232844939e-01
42 30 -9.17128902084876074e-01
43 30 -8.99276926019594081e-01
44 30 -8.79002930616817890e-01
45 30 -8.56320002701813410e-01
46 30 -8.31260796686901560e-01
47 30 -8.03877880941262002e-01
48 30 -7.74243700630278253e-01
49 30 -7.42450140099995326e-01
50 30 -7.08607682095306113e-01
51 30 -6.72844176130149907e-01
52 30 -6.35303243307317689e-01
53 30 -5.96142358912740811e-01
54 30 -5.55530666326081946e-01
55 30 -5.13646585456918103e-01
56 30 -4.70675285478890815e-01
57 30 -4.26806094768618027e-01
58 30 -3.82229920590379080e-01
59 30 -3.37136747379326807e-01
60 30 -2.91713275864079136e-01
61 30 -2.46140756306127195e-01
62 30 -2.00593058503584165e-01
63 30 -1.55235009642478439e-01
64 30 -1.10221019296728617e-01
65 30 -6.56939995253800063e-02
66 30 -2.17845776304817253e-02
67 30 -1.19627660302810950e-16
68 30 2.17845776304815310e-02
69 30 6.56939995253798537e-02
70 30 1.10221019296728534e-01
71 30 1.55235009642478411e-01
72 30 2.00593058503584137e-01
73 30 2.46140756306127195e-01
74 30 2.91713275864078969e-01
75 30 3.37136747379326807e-01
76 30 3.82229920590379080e-01
77 30 4.26806094768618027e-01
78 30 4.70675285478890815e-01
79 30 5.13646585456917992e-01
80 30 5.55530666326081946e-01
81 30 5.96142358912740811e-01
82 30 6.35303243307317245e-01
83 30 6.72844176130149796e-01
84 30 7.08607682095306113e-01
85 30 7.42450140099995326e-01
86 30 7.74243700630278253e-01
87 30 8.03877880941262002e-01
88 30 8.31260796686901116e-01
89 30 8.56320002701813410e-01
90 30 8.79002930616817890e-01
91 30 8.99276926019594081e-01
92 30 9.17128902084875963e-01
93 30 9.32564639232844828e-01
94 30 9.45607770828513217e-01
95 30 9.56298502804072581e-01
96 30 9.64692120175974610e-01
97 30 9.70857335747513539e-01
98 30 9.74874536022560800e-01
99 30 9.76833976833976880e-01
100 30 9.76833976833976991e-01
101 30 9.76833976833976991e-01
102 30 9.74874536022561133e-01
103 30 9.70857335747513539e-01
104 30 9.64692120175974610e-01
105 30 9.56298502804072692e-01
106 30 9.45607770828513217e-01
107 30 9.32564639232844939e-01
108 30 9.17128902084876074e-01
109 30 8.99276926019594081e-01
110 30 8.79002930616817890e-01
111 30 8.56320002701813410e-01
112 30 8.31260796686901560e-01
113 30 8.03877880941262002e-01
114 30 7.74243700630278253e-01
115 30 7.42450140099995326e-01
116 30 7.08607682095306113e-01
117 30 6.72844176130149907e-01
118 30 6.35303243307317689e-01
119 30 5.96142358912740811e-01
120 30 5.55530666326081946e-01
121 30 5.13646585456918103e-01
122 30 4.70675285478890815e-01
123 30 4.26806094768618027e-01
124 30 3.82229920590379080e-01
125 30 3.37136747379326807e-01
126 30 2.91713275864079191e-01
127 30 2.46140756306127334e-01
128 30 2.00593058503584276e-01
129 30 1.55235009642478661e-01
130 30 1.10221019296728687e-01
131 30 6.56939995253800341e-02
132 30 2.17845776304818328e-02
133 30 2.39255320605621899e-16
1 31 0.00000000000000000e+00
2 31 -2.20413880318049253e-02
3 31 -6.64684420079846155e-02
4 31 -1.11520374495621674e-01
5 31 -1.57065018275279744e-01
6 31 -2.02957776550028779e-01
7 31 -2.49042419468076703e-01
8 31 -2.95152176756110329e-01
9 31 -3.41111128928692831e-01
10 31 -3.86735889031430746e-01
11 31 -4.31837555389245065e-01
12 31 -4.76223903910108992e-01
13 31 -5.19701776793974890e-01
14 31 -5.62079613741384598e-01
15 31 -6.03170062687175546e-01
16 31 -6.42792600394849534e-01
17 31 -6.80776089515436333e-01
18 31 -7.16961198344574280e-01
19 31 -7.51202612682930870e-01
20 31 -7.83370975845506079e-01
21 31 -8.13354502646820743e-01
22 31 -8.41060225549951079e-01
23 31 -8.66414845360012009e-01
24 31 -8.89365173998585723e-01
25 31 -9.09878172102453031e-01
26 31 -9.27940598570561437e-01
27 31 -9.43558301966346713e-01
28 31 -9.56755194259900410e-01
29 31 -9.67571955356411939e-01
30 31 -9.76064522007129343e-01
31 31 -9.82302417045400555e-01
32 31 -9.86366974622128523e-01
33 31 -9.88349514563106823e-01
34 31 -9.88349514563106823e-01
35 31 -9.88349514563106823e-01
36 31 -9.86366974622128634e-01
37 31 -9.82302417045400555e-01
38 31 -9.76064522007129343e-01
39 31 -9.67571955356412050e-01
40 31 -9.56755194259900410e-01
41 31 -9.43558301966346935e-01
42 31 -9.27940598570561548e-01
43 31 -9.09878172102453031e-01
44 31 -8.89365173998585723e-01
45 31 -8.66414845360012009e-01
46 31 -8.41060225549951412e-01
47 31 -8.13354502646820743e-01
48 31 -7.83370975845506079e-01
49 31 -7.51202612682930981e-01
50 31 -7.16961198344574280e-01
51 31 -6.80776089515436444e-01
52 31 -6.42792600394850089e-01
53 31 -6.03170062687175546e-01
54 31 -5.62079613741384598e-01
55 31 -5.19701776793975001e-01
56 31 -4.76223903910108992e-01
57 31 -4.31837555389245065e-01
58 31 -3.86735889031430746e-01
59 31 -3.41111128928692831e-01
60 31 -2.95152176756110440e-01
61 31 -2.49042419468076731e-01
62 31 -2.02957776550028807e-01
63 31 -1.57065018275279744e-01
64 31 -1.11520374495621716e-01
65 31 -6.64684420079847404e-02
66 31 -2.20413880318050363e-02
67 31 -1.21037906944854888e-16
68 31 2.20413880318048316e-02
69 31 6.64684420079845878e-02
70 31 1.11520374495621619e-01
71 31 1.57065018275279716e-01
72 31 2.02957776550028779e-01
73 31 2.49042419468076703e-01
74 31 2.95152176756110329e-01
75 31 3.41111128928692831e-01
76 31 3.86735889031430746e-01
77 31 4.31837555389245065e-01
78 31 4.76223903910108992e-01
79 31 5.19701776793974890e-01
80 31 5.62079613741384598e-01
81 31 6.03170062687175546e-01
82 31 6.42792600394849534e-01
83 31 6.80776089515436333e-01
84 31 7.16961198344574280e-01
85 31 7.51202612682930870e-01
86 31 7.83370975845506079e-01
87 31 8.13354502646820743e-01
88 31 8.41060225549951079e-01
89 31 8.66414845360012009e-01
90 31 8.89365173998585723e-01
91 31 9.09878172102453031e-01
92 31 9.27940598570561437e-01
93 31 9.43558301966346713e-01
94 31 9.56755194259900410e-01
95 31 9.67571955356411939e-01
96 31 9.76064522007129343e-01
97 31 9.82302417045400555e-01
98 31 9.86366974622128523e-01
99 31 9.88349514563106823e-01
100 31 9.88349514563106823e-01
101 31 9.88349514563106823e-01
102 31 9.86366974622128634e-01
103 31 9.82302417045400555e-01
104 31 9.76064522007129343e-01
105 31 9.67571955356412050e-01
106 31 9.56755194259900410e-01
107 31 9.43558301966346935e-01
108 31 9.27940598570561548e-01
109 31 9.09878172102453031e-01
110 31 8.89365173998585723e-01
111 31 8.66414845360012009e-01
112 31 8.41060225549951412e-01
113 31 8.13354502646820743e-01
114 31 7.83370975845506079e-01
115 31 7.51202612682930981e-01
116 31 7.16961198344574280e-01
117 31 6.80776089515436444e-01
118 31 6.42792600394850089e-01
119 31 6.03170062687175546e-01
120 31 5.62079613741384598e-01
121 31 5.19701776793975001e-01
122 31 4.76223903910108992e-01
123 31 4.31837555389245065e-01
124 31 3.86735889031430746e-01
125 31 3.41111128928692831e-01
126 31 2.95152176756110551e-01
127 31 2.49042419468076842e-01
128 31 2.02957776550028918e-01
129 31 1.57065018275279994e-01
130 31 1.11520374495621785e-01
131 31 6.64684420079847682e-02
132 31 2.20413880318051404e-02
133 31 2.42075813889709776e-16
1 32 0.00000000000000000e+00
2 32 -2.22142636495898105e-02
3 32 -6.69897691112844723e-02
4 32 -1.12395054148677717e-01
5 32 -1.58296914924780818e-01
6 32 -2.04549620537109150e-01
7 32 -2.50995715787621643e-01
8 32 -2.97467122385833893e-01
9 32 -3.43786541069786511e-01
10 32 -3.89769146539507061e-01
11 32 -4.35224555521129097e-01
12 32 -4.79959036265367012e-01
13 32 -5.23777915991629706e-01
14 32 -5.66488131949476559e-01
15 32 -6.07900862628900196e-01
16 32 -6.47834168908614116e-01
17 32 -6.86115571170509031e-01
18 32 -7.22584488035439620e-01
19 32 -7.57094465571768627e-01
20 32 -7.89515132520604124e-01
21 32 -8.19733826939841426e-01
22 32 -8.47656852127026905e-01
23 32 -8.73210333985024123e-01
24 32 -8.96340667269223346e-01
25 32 -9.17014553481167671e-01
26 32 -9.35218647666838154e-01
27 32 -9.50958844261283742e-01
28 32 -9.64259242781614012e-01
29 32 -9.75160842194763844e-01
30 32 -9.83720017976639438e-01
31 32 -9.90006838243978060e-01
32 32 -9.94103275069920689e-01
33 32 -9.96101364522417154e-01
34 32 -9.96101364522417154e-01
35 32 -9.96101364522417154e-01
36 32 -9.94103275069920800e-01
37 32 -9.90006838243978060e-01
38 32 -9.83720017976639438e-01
39 32 -9.75160842194763955e-01
40 32 -9.64259242781614012e-01
41 32 -9.50958844261283964e-01
42 32 -9.35218647666838265e-01
43 32 -9.17014553481167671e-01
44 32 -8.96340667269223346e-01
45 32 -8.73210333985024123e-01
46 32 -8.47656852127027238e-01
47 32 -8.19733826939841537e-01
48 32 -7.89515132520604124e-01
49 32 -7.57094465571768627e-01
50 32 -7.22584488035439620e-01
51 32 -6.86115571170509142e-01
52 32 -6.47834168908614672e-01
53 32 -6.07900862628900196e-01
54 32 -5.66488131949476559e-01
55 32 -5.23777915991629928e-01
56 32 -4.79959036265367012e-01
57 32 -4.35224555521129097e-01
58 32 -3.89769146539507061e-01
59 32 -3.43786541069786511e-01
60 32 -2.97467122385833949e-01
61 32 -2.50995715787621698e-01
62 32 -2.04549620537109178e-01
63 32 -1.58296914924780818e-01
64 32 -1.12395054148677745e-01
65 32 -6.69897691112846111e-02
66 32 -2.22142636495899250e-02
67 32 -1.21987234768868874e-16
68 32 2.22142636495897168e-02
69 32 6.69897691112844584e-02
70 32 1.12395054148677648e-01
71 32 1.58296914924780818e-01
72 32 2.04549620537109150e-01
73 32 2.50995715787621643e-01
74 32 2.97467122385833893e-01
75 32 3.43786541069786511e-01
76 32 3.89769146539507061e-01
77 32 4.35224555521129097e-01
78 32 4.79959036265367012e-01
79 32 5.23777915991629706e-01
80 32 5.66488131949476559e-01
81 32 6.07900862628900196e-01
82 32 6.47834168908614116e-01
83 32 6.86115571170509031e-01
84 32 7.22584488035439620e-01
85 32 7.57094465571768627e-01
86 32 7.89515132520604124e-01
87 32 8.19733826939841426e-01
88 32 8.47656852127026905e-01
89 32 8.73210333985024123e-01
90 32 8.96340667269223346e-01
91 32 9.17014553481167671e-01
92 32 9.35218647666838154e-01
93 32 9.50958844261283742e-01
94 32 9.64259242781614012e-01
95 32 9.75160842194763844e-01
96 32 9.83720017976639438e-01
97 32 9.90006838243978060e-01
98 32 9.94103275069920689e-01
99 32 9.96101364522417154e-01
100 32 9.96101364522417154e-01
101 32 9.96101364522417154e-01
102 32 9.94103275069920800e-01
103 32 9.90006838243978060e-01
104 32 9.83720017976639438e-01
105 32 9.75160842194763955e-01
106 32 9.64259242781614012e-01
107 32 9.50958844261283964e-01
108 32 9.35218647666838265e-01
109 32 9.17014553481167671e-01
110 32 8.96340667269223346e-01
111 32 8.73210333985024123e-01
112 32 8.47656852127027238e-01
113 32 8.19733826939841537e-01
114 32 7.89515132520604124e-01
115 32 7.57094465571768627e-01
116 32 7.22584488035439620e-01
117 32 6.86115571170509142e-01
118 32 6.47834168908614672e-01
119 32 6.07900862628900196e-01
120 32 5.66488131949476559e-01
121 32 5.23777915991629928e-01
122 32 4.79959036265367012e-01
123 32 4.35224555521129097e-01
124 32 3.89769146539507116e-01
125 32 3.43786541069786511e-01
126 32 2.97467122385834060e-01
127 32 2.50995715787621809e-01
128 32 2.04549620537109289e-01
129 32 1.58296914924781068e-01
130 32 1.12395054148677814e-01
131 32 6.69897691112846388e-02
132 32 2.22142636495900291e-02
133 32 2.43974469537737747e-16
1 33 0.00000000000000000e+00
2 33 -2.23012079300187321e-02
3 33 -6.72519599884323499e-02
4 33 -1.12834956513251788e-01
5 33 -1.58916472321746716e-01
6 33 -2.05350206136080238e-01
7 33 -2.51978086495205311e-01
8 33 -2.98631377267970177e-01
9 33 -3.45132085261840471e-01
10 33 -3.91294661790150988e-01
11 33 -4.36927978439020037e-01
12 33 -4.81837545213568030e-01
13 33 -5.25827927404512896e-01
14 33 -5.68705306634210261e-01
15 33 -6.10280122365216782e-01
16 33 -6.50369723385751608e-01
17 33 -6.88800955010706817e-01
18 33 -7.25412607362388440e-01
19 33 -7.60057653303947811e-01
20 33 -7.92605211317162217e-01
21 33 -8.22942178512991451e-01
22 33 -8.50974491469989935e-01
23 33 -8.76627986955611282e-01
24 33 -8.99848849919983595e-01
25 33 -9.20603651537845513e-01
26 33 -9.38878994624438357e-01
27 33 -9.54680796685007049e-01
28 33 -9.68033251559624275e-01
29 33 -9.78977518680849035e-01
30 33 -9.87570194172242788e-01
31 33 -9.93881620389747034e-01
32 33 -9.97994090236534848e-01
33 33 -1.00000000000000000e+00
34 33 -1.00000000000000000e+00
35 33 -1.00000000000000000e+00
36 33 -9.97994090236534959e-01
37 33 -9.93881620389747034e-01
38 33 -9.87570194172242788e-01
39 33 -9.78977518680849035e-01
40 33 -9.68033251559624275e-01
41 33 -9.54680796685007160e-01
42 33 -9.38878994624438468e-01
43 33 -9.20603651537845513e-01
44 33 -8.99848849919983595e-01
45 33 -8.76627986955611282e-01
46 33 -8.50974491469990268e-01
47 33 -8.22942178512991562e-01
48 33 -7.92605211317162217e-01
49 33 -7.60057653303947811e-01
50 33 -7.25412607362388440e-01
51 33 -6.88800955010706817e-01
52 33 -6.50369723385752163e-01
53 33 -6.10280122365216782e-01
54 33 -5.68705306634210261e-01
55 33 -5.25827927404513007e-01
56 33 -4.81837545213568030e-01
57 33 -4.36927978439020037e-01
58 33 -3.91294661790150988e-01
59 33 -3.45132085261840471e-01
60 33 -2.98631377267970288e-01
61 33 -2.51978086495205311e-01
62 33 -2.05350206136080266e-01
63 33 -1.58916472321746716e-01
64 33 -1.12834956513251830e-01
65 33 -6.72519599884325026e-02
66 33 -2.23012079300188466e-02
67 33 -1.22464679914735296e-16
68 33 2.23012079300186454e-02
69 33 6.72519599884323360e-02
70 33 1.12834956513251733e-01
71 33 1.58916472321746716e-01
72 33 2.05350206136080238e-01
73 33 2.51978086495205311e-01
74 33 2.98631377267970177e-01
75 33 3.45132085261840471e-01
76 33 3.91294661790150988e-01
77 33 4.36927978439020037e-01
78 33 4.81837545213568030e-01
79 33 5.25827927404512896e-01
80 33 5.68705306634210261e-01
81 33 6.10280122365216782e-01
82 33 6.50369723385751608e-01
83 33 6.88800955010706817e-01
84 33 7.25412607362388440e-01
85 33 7.60057653303947811e-01
86 33 7.92605211317162217e-01
87 33 8.22942178512991451e-01
88 33 8.50974491469989935e-01
89 33 8.76627986955611282e-01
90 33 8.99848849919983595e-01
91 33 9.20603651537845513e-01
92 33 9.38878994624438357e-01
93 33 9.54680796685007049e-01
94 33 9.68033251559624275e-01
95 33 9.78977518680849035e-01
96 33 9.87570194172242788e-01
97 33 9.93881620389747034e-01
98 33 9.97994090236534848e-01
99 33 1.00000000000000000e+00
100 33 1.00000000000000000e+00
101 33 1.00000000000000000e+00
102 33 9.97994090236534959e-01
103 33 9.93881620389747034e-01
104 33 9.87570194172242788e-01
105 33 9.78977518680849035e-01
106 33 9.68033251559624275e-01
107 33 9.54680796685007160e-01
108 33 9.38878994624438468e-01
109 33 9.20603651537845513e-01
110 33 8.99848849919983595e-01
111 33 8.76627986955611282e-01
112 33 8.50974491469990268e-01
113 33 8.22942178512991562e-01
114 33 7.92605211317162217e-01
115 33 7.60057653303947811e-01
116 33 7.25412607362388440e-01
117 33 6.88800955010706817e-01
118 33 6.50369723385752163e-01
119 33 6.10280122365216782e-01
120 33 5.68705306634210261e-01
121 33 5.25827927404513007e-01
122 33 4.81837545213568030e-01
123 33 4.36927978439020037e-01
124 33 3.91294661790151044e-01
125 33 3.45132085261840471e-01
126 33 2.98631377267970455e-01
127 33 2.51978086495205478e-01
128 33 2.05350206136080349e-01
129 33 1.58916472321746938e-01
130 33 1.12834956513251886e-01
131 33 6.72519599884325303e-02
132 33 2.23012079300189507e-02
133 33 2.44929359829470592e-16
1 34 0.00000000000000000e+00
2 34 -2.23012079300187321e-02
3 34 -6.72519599884323499e-02
4 34 -1.12834956513251788e-01
5 34 -1.58916472321746688e-01
6 34 -2.05350206136080238e-01
7 34 -2.51978086495205311e-01
8 34 -2.98631377267970177e-01
9 34 -3.45132085261840471e-01
10 34 -3.91294661790150988e-01
11 34 -4.36927978439020037e-01
12 34 -4.81837545213568030e-01
13 34 -5.25827927404512896e-01
14 34 -5.68705306634210261e-01
15 34 -6.10280122365216893e-01
16 34 -6.50369723385751719e-01
17 34 -6.88800955010706706e-01
18 34 -7.25412607362388551e-01
19 34 -7.60057653303947811e-01
20 34 -7.92605211317162328e-01
21 34 -8.22942178512991562e-01
22 34 -8.50974491469989935e-01
23 34 -8.76627986955611394e-01
24 34 -8.99848849919983595e-01
25 34 -9.20603651537845624e-01
26 34 -9.38878994624438357e-01
27 34 -9.54680796685006938e-01
28 34 -9.68033251559624275e-01
29 34 -9.78977518680849035e-01
30 34 -9.87570194172242677e-01
31 34 -9.93881620389746923e-01
32 34 -9.97994090236534848e-01
33 34 -1.00000000000000000e+00
34 34 -1.00000000000000000e+00
35 34 -1.00000000000000000e+00
36 34 -9.97994090236534848e-01
37 34 -9.93881620389746923e-01
38 34 -9.87570194172242677e-01
39 34 -9.78977518680849035e-01
40 34 -9.68033251559624275e-01
41 34 -9.54680796685007160e-01
42 34 -9.38878994624438468e-01
43 34 -9.20603651537845624e-01
44 34 -8.99848849919983595e-01
45 34 -8.76627986955611394e-01
46 34 -8.50974491469990268e-01
47 34 -8.22942178512991562e-01
48 34 -7.92605211317162328e-01
49 34 -7.60057653303947811e-01
50 34 -7.25412607362388551e-01
51 34 -6.88800955010706706e-01
52 34 -6.50369723385752274e-01
53 34 -6.10280122365216893e-01
54 34 -5.68705306634210261e-01
55 34 -5.25827927404513007e-01
56 34 -4.81837545213568086e-01
57 34 -4.36927978439020037e-01
58 34 -3.91294661790150988e-01
59 34 -3.45132085261840416e-01
60 34 -2.98631377267970288e-01
61 34 -2.51978086495205311e-01
62 34 -2.05350206136080238e-01
63 34 -1.58916472321746688e-01
64 34 -1.12834956513251830e-01
65 34 -6.72519599884325026e-02
66 34 -2.23012079300188466e-02
67 34 -1.22464679914735296e-16
68 34 2.23012079300186454e-02
69 34 6.72519599884323360e-02
70 34 1.12834956513251719e-01
71 34 1.58916472321746688e-01
72 34 2.05350206136080238e-01
73 34 2.51978086495205256e-01
74 34 2.98631377267970177e-01
75 34 3.45132085261840471e-01
76 34 3.91294661790150988e-01
77 34 4.36927978439020037e-01
78 34 4.81837545213568030e-01
79 34 5.25827927404512896e-01
80 34 5.68705306634210261e-01
81 34 6.10280122365216893e-01
82 34 6.50369723385751719e-01
83 34 6.88800955010706706e-01
84 34 7.25412607362388551e-01
85 34 7.60057653303947811e-01
86 34 7.92605211317162328e-01
87 34 8.22942178512991562e-01
88 34 8.50974491469989935e-01
89 34 8.76627986955611394e-01
90 34 8.99848849919983595e-01
91 34 9.20603651537845624e-01
92 34 9.38878994624438357e-01
93 34 9.54680796685006938e-01
94 34 9.68033251559624275e-01
95 34 9.78977518680849035e-01
96 34 9.87570194172242677e-01
97 34 9.93881620389746923e-01
98 34 9.97994090236534848e-01
99 34 1.00000000000000000e+00
100 34 1.00000000000000000e+00
101 34 1.00000000000000000e+00
102 34 9.97994090236534848e-01
103 34 9.93881620389746923e-01
104 34 9.87570194172242677e-01
105 34 9.78977518680849035e-01
106 34 9.68033251559624275e-01
107 34 9.54680796685007160e-01
108 34 9.38878994624438468e-01
109 34 9.20603651537845624e-01
110 34 8.99848849919983595e-01
111 34 8.76627986955611394e-01
112 34 8.50974491469990268e-01
113 34 8.22942178512991562e-01
114 34 7.92605211317162328e-01
115 34 7.60057653303947811e-01
116 34 7.25412607362388551e-01
117 34 6.88800955010706706e-01
118 34 6.50369723385752274e-01
119 34 6.10280122365216893e-01
120 34 5.68705306634210261e-01
121 34 5.25827927404513007e-01
122 34 4.81837545213568086e-01
123 34 4.36927978439020037e-01
124 34 3.91294661790151044e-01
125 34 3.45132085261840416e-01
126 34 2.98631377267970455e-01
127 34 2.51978086495205478e-01
128 34 2.05350206136080349e-01
129 34 1.58916472321746938e-01
130 34 1.12834956513251872e-01
131 34 6.72519599884325303e-02
132 34 2.23012079300189507e-02
133 34 2.44929359829470592e-16
1 35 0.00000000000000000e+00
2 35 -2.22142636495898035e-02
3 35 -6.69897691112844584e-02
4 35 -1.12395054148677689e-01
5 35 -1.58296914924780846e-01
6 35 -2.04549620537109206e-01
7 35 -2.50995715787621698e-01
8 35 -2.97467122385833782e-01
9 35 -3.43786541069786566e-01
10 35 -3.89769146539507116e-01
11 35 -4.35224555521129153e-01
12 35 -4.79959036265366956e-01
13 35 -5.23777915991629817e-01
14 35 -5.66488131949476559e-01
15 35 -6.07900862628900196e-01
16 35 -6.47834168908614338e-01
17 35 -6.86115571170508809e-01
18 35 -7.22584488035439731e-01
19 35 -7.57094465571768627e-01
20 35 -7.89515132520604235e-01
21 35 -8.19733826939841426e-01
22 35 -8.47656852127027127e-01
23 35 -8.73210333985024234e-01
24 35 -8.96340667269223457e-01
25 35 -9.17014553481167893e-01
26 35 -9.35218647666838265e-01
27 35 -9.50958844261283631e-01
28 35 -9.64259242781614123e-01
29 35 -9.75160842194763844e-01
30 35 -9.83720017976639438e-01
31 35 -9.90006838243977838e-01
32 35 -9.94103275069920467e-01
33 35 -9.96101364522417154e-01
34 35 -9.96101364522417154e-01
35 35 -9.96101364522417154e-01
36 35 -9.94103275069920467e-01
37 35 -9.90006838243977949e-01
38 35 -9.83720017976639438e-01
39 35 -9.75160842194763844e-01
40 35 -9.64259242781614123e-01
41 35 -9.50958844261283964e-01
42 35 -9.35218647666838376e-01
43 35 -9.17014553481167893e-01
44 35 -8.96340667269223457e-01
45 35 -8.73210333985024234e-01
46 35 -8.47656852127027460e-01
47 35 -8.19733826939841426e-01
48 35 -7.89515132520604235e-01
49 35 -7.57094465571768627e-01
50 35 -7.22584488035439731e-01
51 35 -6.86115571170508809e-01
52 35 -6.47834168908614783e-01
53 35 -6.07900862628900196e-01
54 35 -5.66488131949476559e-01
55 35 -5.23777915991629928e-01
56 35 -4.79959036265367123e-01
57 35 -4.35224555521129153e-01
58 35 -3.89769146539507116e-01
59 35 -3.43786541069786566e-01
60 35 -2.97467122385833949e-01
61 35 -2.50995715787621698e-01
62 35 -2.04549620537109206e-01
63 35 -1.58296914924780846e-01
64 35 -1.12395054148677745e-01
65 35 -6.69897691112846111e-02
66 35 -2.22142636495899215e-02
67 35 -1.21987234768868874e-16
68 35 2.22142636495897203e-02
69 35 6.69897691112844307e-02
70 35 1.12395054148677620e-01
71 35 1.58296914924780846e-01
72 35 2.04549620537109206e-01
73 35 2.50995715787621643e-01
74 35 2.97467122385833782e-01
75 35 3.43786541069786566e-01
76 35 3.89769146539507116e-01
77 35 4.35224555521129153e-01
78 35 4.79959036265366956e-01
79 35 5.23777915991629817e-01
80 35 5.66488131949476559e-01
81 35 6.07900862628900196e-01
82 35 6.47834168908614338e-01
83 35 6.86115571170508809e-01
84 35 7.22584488035439731e-01
85 35 7.57094465571768627e-01
86 35 7.89515132520604235e-01
87 35 8.19733826939841426e-01
88 35 8.47656852127027127e-01
89 35 8.73210333985024234e-01
90 35 8.96340667269223457e-01
91 35 9.17014553481167893e-01
92 35 9.35218647666838265e-01
93 35 9.50958844261283631e-01
94 35 9.64259242781614123e-01
95 35 9.75160842194763844e-01
96 35 9.83720017976639438e-01
97 35 9.90006838243977838e-01
98 35 9.94103275069920467e-01
99 35 9.96101364522417154e-01
100 35 9.96101364522417154e-01
101 35 9.96101364522417154e-01
102 35 9.94103275069920467e-01
103 35 9.90006838243977949e-01
104 35 9.83720017976639438e-01
105 35 9.75160842194763844e-01
106 35 9.64259242781614123e-01
107 35 9.50958844261283964e-01
108 35 9.35218647666838376e-01
109 35 9.17014553481167893e-01
110 35 8.96340667269223457e-01
111 35 8.73210333985024234e-01
112 35 8.47656852127027460e-01
113 35 8.19733826939841426e-01
114 35 7.89515132520604235e-01
115 35 7.57094465571768627e-01
116 35 7.22584488035439731e-01
117 35 6.86115571170508809e-01
118 35 6.47834168908614783e-01
119 35 6.07900862628900196e-01
120 35 5.66488131949476559e-01
121 35 5.23777915991629928e-01
122 35 4.79959036265367123e-01
123 35 4.35224555521129153e-01
124 35 3.89769146539507116e-01
125 35 3.43786541069786566e-01
126 35 2.97467122385834115e-01
127 35 2.50995715787621809e-01
128 35 2.04549620537109261e-01
129 35 1.58296914924781096e-01
130 35 1.12395054148677800e-01
131 35 6.69897691112846527e-02
132 35 2.22142636495900221e-02
133 35 2.43974469537737747e-16
1 36 0.00000000000000000e+00
2 36 -2.20413880318049149e-02
3 36 -6.64684420079845878e-02
4 36 -1.11520374495621646e-01
5 36 -1.57065018275279716e-01
6 36 -2.02957776550028834e-01
7 36 -2.49042419468076731e-01
8 36 -2.95152176756110274e-01
9 36 -3.41111128928692831e-01
10 36 -3.86735889031430746e-01
11 36 -4.31837555389245009e-01
12 36 -4.76223903910108992e-01
13 36 -5.19701776793974890e-01
14 36 -5.62079613741384487e-01
15 36 -6.03170062687175434e-01
16 36 -6.42792600394849756e-01
17 36 -6.80776089515436111e-01
18 36 -7.16961198344574169e-01
19 36 -7.51202612682930981e-01
20 36 -7.83370975845506301e-01
21 36 -8.13354502646820743e-01
22 36 -8.41060225549951190e-01
23 36 -8.66414845360012120e-01
24 36 -8.89365173998585834e-01
25 36 -9.09878172102453364e-01
26 36 -9.27940598570561326e-01
27 36 -9.43558301966346713e-01
28 36 -9.56755194259900521e-01
29 36 -9.67571955356412050e-01
30 36 -9.76064522007129121e-01
31 36 -9.82302417045400333e-01
32 36 -9.86366974622128523e-01
33 36 -9.88349514563106823e-01
34 36 -9.88349514563106823e-01
35 36 -9.88349514563106712e-01
36 36 -9.86366974622128412e-01
37 36 -9.82302417045400333e-01
38 36 -9.76064522007129121e-01
39 36 -9.67571955356412050e-01
40 36 -9.56755194259900410e-01
41 36 -9.43558301966346935e-01
42 36 -9.27940598570561548e-01
43 36 -9.09878172102453364e-01
44 36 -8.89365173998585834e-01
45 36 -8.66414845360012120e-01
46 36 -8.41060225549951634e-01
47 36 -8.13354502646820743e-01
48 36 -7.83370975845506301e-01
49 36 -7.51202612682930981e-01
50 36 -7.16961198344574280e-01
51 36 -6.80776089515436111e-01
52 36 -6.42792600394850200e-01
53 36 -6.03170062687175434e-01
54 36 -5.62079613741384487e-01
55 36 -5.19701776793975001e-01
56 36 -4.76223903910109103e-01
57 36 -4.31837555389245009e-01
58 36 -3.86735889031430746e-01
59 36 -3.41111128928692831e-01
60 36 -2.95152176756110496e-01
61 36 -2.49042419468076731e-01
62 36 -2.02957776550028862e-01
63 36 -1.57065018275279716e-01
64 36 -1.11520374495621716e-01
65 36 -6.64684420079847404e-02
66 36 -2.20413880318050294e-02
67 36 -1.21037906944854888e-16
68 36 2.20413880318048316e-02
69 36 6.64684420079845878e-02
70 36 1.11520374495621577e-01
71 36 1.57065018275279716e-01
72 36 2.02957776550028834e-01
73 36 2.49042419468076648e-01
74 36 2.95152176756110274e-01
75 36 3.41111128928692831e-01
76 36 3.86735889031430746e-01
77 36 4.31837555389245009e-01
78 36 4.76223903910108992e-01
79 36 5.19701776793974890e-01
80 36 5.62079613741384487e-01
81 36 6.03170062687175434e-01
82 36 6.42792600394849756e-01
83 36 6.80776089515436111e-01
84 36 7.16961198344574169e-01
85 36 7.51202612682930981e-01
86 36 7.83370975845506301e-01
87 36 8.13354502646820743e-01
88 36 8.41060225549951190e-01
89 36 8.66414845360012120e-01
90 36 8.89365173998585834e-01
91 36 9.09878172102453364e-01
92 36 9.27940598570561326e-01
93 36 9.43558301966346713e-01
94 36 9.56755194259900521e-01
95 36 9.67571955356412050e-01
96 36 9.76064522007129121e-01
97 36 9.82302417045400333e-01
98 36 9.86366974622128523e-01
99 36 9.88349514563106823e-01
100 36 9.88349514563106823e-01
101 36 9.88349514563106712e-01
102 36 9.86366974622128412e-01
103 36 9.82302417045400333e-01
104 36 9.76064522007129121e-01
105 36 9.67571955356412050e-01
106 36 9.56755194259900410e-01
107 36 9.43558301966346935e-01
108 36 9.27940598570561548e-01
109 36 9.09878172102453364e-01
110 36 8.89365173998585834e-01
111 36 8.66414845360012120e-01
112 36 8.41060225549951634e-01
113 36 8.13354502646820743e-01
114 36 7.83370975845506301e-01
115 36 7.51202612682930981e-01
116 36 7.16961198344574280e-01
117 36 6.80776089515436111e-01
118 36 6.42792600394850200e-01
119 36 6.03170062687175434e-01
120 36 5.62079613741384487e-01
121 36 5.19701776793975001e-01
122 36 4.76223903910109103e-01
123 36 4.31837555389245009e-01
124 36 3.86735889031430802e-01
125 36 3.41111128928692831e-01
126 36 2.95152176756110662e-01
127 36 2.49042419468076842e-01
128 36 2.02957776550028945e-01
129 36 1.57065018275279994e-01
130 36 1.11520374495621744e-01
131 36 6.64684420079847960e-02
132 36 2.20413880318051335e-02
133 36 2.42075813889709776e-16
1 37 0.00000000000000000e+00
2 37 -2.17845776304816108e-02
3 37 -6.56939995253798675e-02
4 37 -1.10221019296728534e-01
5 37 -1.55235009642478383e-01
6 37 -2.00593058503584193e-01
7 37 -2.46140756306127223e-01
8 37 -2.91713275864078858e-01
9 37 -3.37136747379326862e-01
10 37 -3.82229920590379024e-01
11 37 -4.26806094768617916e-01
12 37 -4.70675285478890870e-01
13 37 -5.13646585456917992e-01
14 37 -5.55530666326081835e-01
15 37 -5.96142358912740700e-01
16 37 -6.35303243307317356e-01
17 37 -6.72844176130149685e-01
18 37 -7.08607682095306002e-01
19 37 -7.42450140099995326e-01
20 37 -7.74243700630278364e-01
21 37 -8.03877880941261891e-01
22 37 -8.31260796686901449e-01
23 37 -8.56320002701813632e-01
24 37 -8.79002930616818001e-01
25 37 -8.99276926019594414e-01
26 37 -9.17128902084876074e-01
27 37 -9.32564639232844494e-01
28 37 -9.45607770828513328e-01
29 37 -9.56298502804072581e-01
30 37 -9.64692120175974277e-01
31 37 -9.70857335747513206e-01
32 37 -9.74874536022560911e-01
33 37 -9.76833976833976991e-01
34 37 -9.76833976833976880e-01
35 37 -9.76833976833976769e-01
36 37 -9.74874536022560911e-01
37 37 -9.70857335747513317e-01
38 37 -9.64692120175974277e-01
39 37 -9.56298502804072581e-01
40 37 -9.45607770828513106e-01
41 37 -9.32564639232844828e-01
42 37 -9.17128902084876296e-01
43 37 -8.99276926019594414e-01
44 37 -8.79002930616818001e-01
45 37 -8.56320002701813632e-01
46 37 -8.31260796686901782e-01
47 37 -8.03877880941261891e-01
48 37 -7.74243700630278364e-01
49 37 -7.42450140099995437e-01
50 37 -7.08607682095306113e-01
51 37 -6.72844176130149685e-01
52 37 -6.35303243307317689e-01
53 37 -5.96142358912740700e-01
54 37 -5.55530666326081835e-01
55 37 -5.13646585456918103e-01
56 37 -4.70675285478890926e-01
57 37 -4.26806094768617916e-01
58 37 -3.82229920590379024e-01
59 37 -3.37136747379326862e-01
60 37 -2.91713275864079136e-01
61 37 -2.46140756306127223e-01
62 37 -2.00593058503584193e-01
63 37 -1.55235009642478383e-01
64 37 -1.10221019296728603e-01
65 37 -6.56939995253800063e-02
66 37 -2.17845776304817253e-02
67 37 -1.19627660302810925e-16
68 37 2.17845776304815275e-02
69 37 6.56939995253798537e-02
70 37 1.10221019296728479e-01
71 37 1.55235009642478383e-01
72 37 2.00593058503584193e-01
73 37 2.46140756306127112e-01
74 37 2.91713275864078858e-01
75 37 3.37136747379326862e-01
76 37 3.82229920590379024e-01
77 37 4.26806094768617916e-01
78 37 4.70675285478890870e-01
79 37 5.13646585456917992e-01
80 37 5.55530666326081835e-01
81 37 5.96142358912740700e-01
82 37 6.35303243307317356e-01
83 37 6.72844176130149685e-01
84 37 7.08607682095306002e-01
85 37 7.42450140099995326e-01
86 37 7.74243700630278364e-01
87 37 8.03877880941261891e-01
88 37 8.31260796686901449e-01
89 37 8.56320002701813632e-01
90 37 8.79002930616818001e-01
91 37 8.99276926019594414e-01
92 37 9.17128902084876074e-01
93 37 9.32564639232844494e-01
94 37 9.45607770828513328e-01
95 37 9.56298502804072581e-01
96 37 9.64692120175974277e-01
97 37 9.70857335747513206e-01
98 37 9.74874536022560911e-01
99 37 9.76833976833976991e-01
100 37 9.76833976833976880e-01
101 37 9.76833976833976769e-01
102 37 9.74874536022560911e-01
103 37 9.70857335747513317e-01
104 37 9.64692120175974277e-01
105 37 9.56298502804072581e-01
106 37 9.45607770828513106e-01
107 37 9.32564639232844828e-01
108 37 9.17128902084876296e-01
109 37 8.99276926019594414e-01
110 37 8.79002930616818001e-01
111 37 8.56320002701813632e-01
112 37 8.31260796686901782e-01
113 37 8.03877880941261891e-01
114 37 7.74243700630278364e-01
115 37 7.42450140099995437e-01
116 37 7.08607682095306113e-01
117 37 6.72844176130149685e-01
118 37 6.35303243307317689e-01
119 37 5.96142358912740700e-01
120 37 5.55530666326081835e-01
121 37 5.13646585456918103e-01
122 37 4.70675285478890926e-01
123 37 4.26806094768617916e-01
124 37 3.82229920590379135e-01
125 37 3.37136747379326862e-01
126 37 2.91713275864079302e-01
127 37 2.46140756306127362e-01
128 37 2.00593058503584304e-01
129 37 1.55235009642478688e-01
130 37 1.10221019296728645e-01
131 37 6.56939995253800618e-02
132 37 2.17845776304818294e-02
133 37 2.39255320605621850e-16
1 38 0.00000000000000000e+00
2 38 -2.14467555189068911e-02
3 38 -6.46752565405997043e-02
4 38 -1.08511778102782314e-01
5 38 -1.52827718592944112e-01
6 38 -1.97482382146192126e-01
7 38 -2.42323753679297094e-01
8 38 -2.87189562046975044e-01
9 38 -3.31908633719241231e-01
10 38 -3.76302529154512844e-01
11 38 -4.20187442866643668e-01
12 38 -4.63376336584695792e-01
13 38 -5.05681263519282553e-01
14 38 -5.46915831284240483e-01
15 38 -5.86897742197967087e-01
16 38 -6.25451343179401098e-01
17 38 -6.62410113822556990e-01
18 38 -6.97619020873407991e-01
19 38 -7.30936670418738887e-01
20 38 -7.62237195557884273e-01
21 38 -7.91411826845827004e-01
22 38 -8.18370104823630262e-01
23 38 -8.43040707761909980e-01
24 38 -8.65371882490099331e-01
25 38 -8.85331480980840024e-01
26 38 -9.02906619351471207e-01
27 38 -9.18102988382899277e-01
28 38 -9.30943854948144467e-01
29 38 -9.41468801490011997e-01
30 38 -9.49732255698210071e-01
31 38 -9.55801864819258329e-01
32 38 -9.59756768771533264e-01
33 38 -9.61685823754789393e-01
34 38 -9.61685823754789282e-01
35 38 -9.61685823754789171e-01
36 38 -9.59756768771533153e-01
37 38 -9.55801864819258329e-01
38 38 -9.49732255698210071e-01
39 38 -9.41468801490011997e-01
40 38 -9.30943854948144245e-01
41 38 -9.18102988382899610e-01
42 38 -9.02906619351471429e-01
43 38 -8.85331480980840024e-01
44 38 -8.65371882490099331e-01
45 38 -8.43040707761909980e-01
46 38 -8.18370104823630484e-01
47 38 -7.91411826845827004e-01
48 38 -7.62237195557884273e-01
49 38 -7.30936670418739221e-01
50 38 -6.97619020873408102e-01
51 38 -6.62410113822556990e-01
52 38 -6.25451343179401431e-01
53 38 -5.86897742197967087e-01
54 38 -5.46915831284240483e-01
55 38 -5.05681263519282553e-01
56 38 -4.63376336584695792e-01
57 38 -4.20187442866643668e-01
58 38 -3.76302529154512844e-01
59 38 -3.31908633719241286e-01
60 38 -2.87189562046975322e-01
61 38 -2.42323753679297094e-01
62 38 -1.97482382146192126e-01
63 38 -1.52827718592944112e-01
64 38 -1.08511778102782383e-01
65 38 -6.46752565405998431e-02
66 38 -2.14467555189070090e-02
67 38 -1.17772546584668814e-16
68 38 2.14467555189068113e-02
69 38 6.46752565405996765e-02
70 38 1.08511778102782272e-01
71 38 1.52827718592944112e-01
72 38 1.97482382146192098e-01
73 38 2.42323753679296983e-01
74 38 2.87189562046975044e-01
75 38 3.31908633719241231e-01
76 38 3.76302529154512844e-01
77 38 4.20187442866643668e-01
78 38 4.63376336584695792e-01
79 38 5.05681263519282553e-01
80 38 5.46915831284240483e-01
81 38 5.86897742197967087e-01
82 38 6.25451343179401098e-01
83 38 6.62410113822556990e-01
84 38 6.97619020873407991e-01
85 38 7.30936670418738887e-01
86 38 7.62237195557884273e-01
87 38 7.91411826845827004e-01
88 38 8.18370104823630262e-01
89 38 8.43040707761909980e-01
90 38 8.65371882490099331e-01
91 38 8.85331480980840024e-01
92 38 9.02906619351471207e-01
93 38 9.18102988382899277e-01
94 38 9.30943854948144467e-01
95 38 9.41468801490011997e-01
96 38 9.49732255698210071e-01
97 38 9.55801864819258329e-01
98 38 9.59756768771533264e-01
99 38 9.61685823754789393e-01
100 38 9.61685823754789282e-01
101 38 9.61685823754789171e-01
102 38 9.59756768771533153e-01
103 38 9.55801864819258329e-01
104 38 9.49732255698210071e-01
105 38 9.41468801490011997e-01
106 38 9.30943854948144245e-01
107 38 9.18102988382899610e-01
108 38 9.02906619351471429e-01
109 38 8.85331480980840024e-01
110 38 8.65371882490099331e-01
111 38 8.43040707761909980e-01
112 38 8.18370104823630484e-01
113 38 7.91411826845827004e-01
114 38 7.62237195557884273e-01
115 38 7.30936670418739221e-01
116 38 6.97619020873408102e-01
117 38 6.62410113822556990e-01
118 38 6.25451343179401431e-01
119 38 5.86897742197967087e-01
120 38 5.46915831284240483e-01
121 38 5.05681263519282553e-01
122 38 4.63376336584695792e-01
123 38 4.20187442866643668e-01
124 38 3.76302529154512899e-01
125 38 3.31908633719241286e-01
126 38 2.87189562046975433e-01
127 38 2.42323753679297232e-01
128 38 1.97482382146192265e-01
129 38 1.52827718592944389e-01
130 38 1.08511778102782425e-01
131 38 6.46752565405998986e-02
132 38 2.14467555189071096e-02
133 38 2.35545093169337629e-16
1 39 0.00000000000000000e+00
2 39 -2.10316894520290384e-02
3 39 -6.34235751693565108e-02
4 39 -1.06411714206994509e-01
5 39 -1.49869993821457465e-01
6 39 -1.93660441080895446e-01
7 39 -2.37633982899652874e-01
8 39 -2.81631488618939552e-01
9 39 -3.25485097486024166e-01
10 39 -3.69019823358073873e-01
11 39 -4.12055417996570916e-01
12 39 -4.54408462943346081e-01
13 39 -4.95894648804635629e-01
14 39 -5.36331190507025601e-01
15 39 -5.75539318435507985e-01
16 39 -6.13346778980490615e-01
17 39 -6.49590274459812544e-01
18 39 -6.84117772028665971e-01
19 39 -7.16790614216436306e-01
20 39 -7.47485370065711030e-01
21 39 -7.76095375182081160e-01
22 39 -8.02531920798074117e-01
23 39 -8.26725065497037837e-01
24 39 -8.48624057704424728e-01
25 39 -8.68197371564154219e-01
26 39 -8.85432372539555645e-01
27 39 -9.00334641275993164e-01
28 39 -9.12926994355091614e-01
29 39 -9.23248248167707897e-01
30 39 -9.31351777046687812e-01
31 39 -9.37303919039286781e-01
32 39 -9.41182282443183582e-01
33 39 -9.43074003795066451e-01
34 39 -9.43074003795066451e-01
35 39 -9.43074003795066340e-01
36 39 -9.41182282443183360e-01
37 39 -9.37303919039286670e-01
38 39 -9.31351777046687812e-01
39 39 -9.23248248167707897e-01
40 39 -9.12926994355091281e-01
41 39 -9.00334641275993386e-01
42 39 -8.85432372539555868e-01
43 39 -8.68197371564154219e-01
44 39 -8.48624057704424728e-01
45 39 -8.26725065497037837e-01
46 39 -8.02531920798074228e-01
47 39 -7.76095375182081160e-01
48 39 -7.47485370065711030e-01
49 39 -7.16790614216436639e-01
50 39 -6.84117772028666193e-01
51 39 -6.49590274459812544e-01
52 39 -6.13346778980491059e-01
53 39 -5.75539318435507985e-01
54 39 -5.36331190507025601e-01
55 39 -4.95894648804635518e-01
56 39 -4.54408462943346081e-01
57 39 -4.12055417996570916e-01
58 39 -3.69019823358073873e-01
59 39 -3.25485097486024166e-01
60 39 -2.81631488618939774e-01
61 39 -2.37633982899652874e-01
62 39 -1.93660441080895446e-01
63 39 -1.49869993821457465e-01
64 39 -1.06411714206994579e-01
65 39 -6.34235751693566496e-02
66 39 -2.10316894520291564e-02
67 39 -1.15493256010670680e-16
68 39 2.10316894520289586e-02
69 39 6.34235751693564831e-02
70 39 1.06411714206994468e-01
71 39 1.49869993821457465e-01
72 39 1.93660441080895390e-01
73 39 2.37633982899652763e-01
74 39 2.81631488618939552e-01
75 39 3.25485097486024166e-01
76 39 3.69019823358073873e-01
77 39 4.12055417996570916e-01
78 39 4.54408462943346081e-01
79 39 4.95894648804635629e-01
80 39 5.36331190507025601e-01
81 39 5.75539318435507985e-01
82 39 6.13346778980490615e-01
83 39 6.49590274459812544e-01
84 39 6.84117772028665971e-01
85 39 7.16790614216436306e-01
86 39 7.47485370065711030e-01
87 39 7.76095375182081160e-01
88 39 8.02531920798074117e-01
89 39 8.26725065497037837e-01
90 39 8.48624057704424728e-01
91 39 8.68197371564154219e-01
92 39 8.85432372539555645e-01
93 39 9.00334641275993164e-01
94 39 9.12926994355091614e-01
95 39 9.23248248167707897e-01
96 39 9.31351777046687812e-01
97 39 9.37303919039286781e-01
98 39 9.41182282443183582e-01
99 39 9.43074003795066451e-01
100 39 9.43074003795066451e-01
101 39 9.43074003795066340e-01
102 39 9.41182282443183360e-01
103 39 9.37303919039286670e-01
104 39 9.31351777046687812e-01
105 39 9.23248248167707897e-01
106 39 9.12926994355091281e-01
107 39 9.00334641275993386e-01
108 39 8.85432372539555868e-01
109 39 8.68197371564154219e-01
110 39 8.48624057704424728e-01
111 39 8.26725065497037837e-01
112 39 8.02531920798074228e-01
113 39 7.76095375182081160e-01
114 39 7.47485370065711030e-01
115 39 7.16790614216436639e-01
116 39 6.84117772028666193e-01
117 39 6.49590274459812544e-01
118 39 6.13346778980491059e-01
119 39 5.75539318435507985e-01
120 39 5.36331190507025601e-01
121 39 4.95894648804635518e-01
122 39 4.54408462943346081e-01
123 39 4.12055417996570916e-01
124 39 3.69019823358073984e-01
125 39 3.25485097486024166e-01
126 39 2.81631488618939885e-01
127 39 2.37633982899652985e-01
128 39 1.93660441080895557e-01
129 39 1.49869993821457770e-01
130 39 1.06411714206994620e-01
131 39 6.34235751693567051e-02
132 39 2.10316894520292570e-02
133 39 2.30986512021341359e-16
1 40 0.00000000000000000e+00
2 40 -2.05438894814994229e-02
3 40 -6.19525560118579510e-02
4 40 -1.03943646619149330e-01
5 40 -1.46393973564685920e-01
6 40 -1.89168764001529877e-01
7 40 -2.32122402381136628e-01
8 40 -2.75099448852858031e-01
9 40 -3.17935935954153259e-01
10 40 -3.60460936095617357e-01
11 40 -4.02498381638946967e-01
12 40 -4.43869108254900502e-01
13 40 -4.84393081342618936e-01
14 40 -5.23891755267161807e-01
15 40 -5.62190506719177141e-01
16 40 -5.99121077265298396e-01
17 40 -6.34523956679656664e-01
18 40 -6.68250638301937427e-01
19 40 -7.00165680623336284e-01
20 40 -7.30148515491044536e-01
21 40 -7.58094952438797209e-01
22 40 -7.83918340172167105e-01
23 40 -8.07550359465675882e-01
24 40 -8.28941435854994246e-01
25 40 -8.48060774681204887e-01
26 40 -8.64896034447653284e-01
27 40 -8.79452666364612279e-01
28 40 -8.91752957815713954e-01
29 40 -9.01834824901119880e-01
30 40 -9.09750404012328429e-01
31 40 -9.15564494580423327e-01
32 40 -9.19352904889565670e-01
33 40 -9.21200750469043039e-01
34 40 -9.21200750469043150e-01
35 40 -9.21200750469043039e-01
36 40 -9.19352904889565559e-01
37 40 -9.15564494580423216e-01
38 40 -9.09750404012328429e-01
39 40 -9.01834824901119880e-01
40 40 -8.91752957815713732e-01
41 40 -8.79452666364612612e-01
42 40 -8.64896034447653395e-01
43 40 -8.48060774681204887e-01
44 40 -8.28941435854994246e-01
45 40 -8.07550359465675882e-01
46 40 -7.83918340172167216e-01
47 40 -7.58094952438797209e-01
48 40 -7.30148515491044536e-01
49 40 -7.00165680623336506e-01
50 40 -6.68250638301937538e-01
51 40 -6.34523956679656664e-01
52 40 -5.99121077265298729e-01
53 40 -5.62190506719177141e-01
54 40 -5.23891755267161807e-01
55 40 -4.84393081342618881e-01
56 40 -4.43869108254900502e-01
57 40 -4.02498381638946967e-01
58 40 -3.60460936095617357e-01
59 40 -3.17935935954153259e-01
60 40 -2.75099448852858197e-01
61 40 -2.32122402381136628e-01
62 40 -1.89168764001529877e-01
63 40 -1.46393973564685947e-01
64 40 -1.03943646619149413e-01
65 40 -6.19525560118580759e-02
66 40 -2.05438894814995339e-02
67 40 -1.12814555043405317e-16
68 40 2.05438894814993396e-02
69 40 6.19525560118579094e-02
70 40 1.03943646619149302e-01
71 40 1.46393973564685920e-01
72 40 1.89168764001529821e-01
73 40 2.32122402381136544e-01
74 40 2.75099448852858031e-01
75 40 3.17935935954153259e-01
76 40 3.60460936095617357e-01
77 40 4.02498381638946967e-01
78 40 4.43869108254900502e-01
79 40 4.84393081342618936e-01
80 40 5.23891755267161807e-01
81 40 5.62190506719177141e-01
82 40 5.99121077265298396e-01
83 40 6.34523956679656664e-01
84 40 6.68250638301937427e-01
85 40 7.00165680623336284e-01
86 40 7.30148515491044536e-01
87 40 7.58094952438797209e-01
88 40 7.83918340172167105e-01
89 40 8.07550359465675882e-01
90 40 8.28941435854994246e-01
91 40 8.48060774681204887e-01
92 40 8.64896034447653284e-01
93 40 8.79452666364612279e-01
94 40 8.91752957815713954e-01
95 40 9.01834824901119880e-01
96 40 9.09750404012328429e-01
97 40 9.15564494580423327e-01
98 40 9.19352904889565670e-01
99 40 9.21200750469043039e-01
100 40 9.21200750469043150e-01
101 40 9.21200750469043039e-01
102 40 9.19352904889565559e-01
103 40 9.15564494580423216e-01
104 40 9.09750404012328429e-01
105 40 9.01834824901119880e-01
106 40 8.91752957815713732e-01
107 40 8.79452666364612612e-01
108 40 8.64896034447653395e-01
109 40 8.48060774681204887e-01
110 40 8.28941435854994246e-01
111 40 8.07550359465675882e-01
112 40 7.83918340172167216e-01
113 40 7.58094952438797209e-01
114 40 7.30148515491044536e-01
115 40 7.00165680623336506e-01
116 40 6.68250638301937538e-01
117 40 6.34523956679656664e-01
118 40 5.99121077265298729e-01
119 40 5.62190506719177141e-01
120 40 5.23891755267161807e-01
121 40 4.84393081342618881e-01
122 40 4.43869108254900502e-01
123 40 4.02498381638946967e-01
124 40 3.60460936095617357e-01
125 40 3.17935935954153259e-01
126 40 2.75099448852858308e-01
127 40 2.32122402381136766e-01
128 40 1.89168764001529960e-01
129 40 1.46393973564686197e-01
130 40 1.03943646619149441e-01
131 40 6.19525560118581314e-02
132 40 2.05438894814996310e-02
133 40 2.25629110086810635e-16
1 41 0.00000000000000000e+00
2 41 -1.99884900706093702e-02
3 41 -6.02776826562986326e-02
4 41 -1.01133553615581170e-01
5 41 -1.42436245562454378e-01
6 41 -1.84054629203449727e-01
7 41 -2.25847025673480334e-01
8 41 -2.67662197403143509e-01
9 41 -3.09340609753205209e-01
10 41 -3.50715956123024031e-01
11 41 -3.91616928823121491e-01
12 41 -4.31869207191420301e-01
13 41 -4.71297623821822720e-01
14 41 -5.09728460020292151e-01
15 41 -5.46991813379194225e-01
16 41 -5.82923974293895863e-01
17 41 -6.17369744861448244e-01
18 41 -6.50184633265547984e-01
19 41 -6.81236859627982527e-01
20 41 -7.10409115328715979e-01
21 41 -7.37600026667199926e-01
22 41 -7.62725284947176174e-01
23 41 -7.85718417937992353e-01
24 41 -8.06531191409763037e-01
25 41 -8.25133643230217206e-01
26 41 -8.41513765552274307e-01
27 41 -8.55676862213969103e-01
28 41 -8.67644618064552064e-01
29 41 -8.77453924150983222e-01
30 41 -8.85155507369195127e-01
31 41 -8.90812415312291495e-01
32 41 -8.94498406804597690e-01
33 41 -8.96296296296296258e-01
34 41 -8.96296296296296258e-01
35 41 -8.96296296296296369e-01
36 41 -8.94498406804597690e-01
37 41 -8.90812415312291384e-01
38 41 -8.85155507369195127e-01
39 41 -8.77453924150983222e-01
40 41 -8.67644618064551842e-01
41 41 -8.55676862213969436e-01
42 41 -8.41513765552274307e-01
43 41 -8.25133643230217206e-01
44 41 -8.06531191409763037e-01
45 41 -7.85718417937992353e-01
46 41 -7.62725284947176285e-01
47 41 -7.37600026667199926e-01
48 41 -7.10409115328715979e-01
49 41 -6.81236859627982749e-01
50 41 -6.50184633265547984e-01
51 41 -6.17369744861448244e-01
52 41 -5.82923974293896086e-01
53 41 -5.46991813379194225e-01
54 41 -5.09728460020292151e-01
55 41 -4.71297623821822775e-01
56 41 -4.31869207191420301e-01
57 41 -3.91616928823121491e-01
58 41 -3.50715956123024031e-01
59 41 -3.09340609753205209e-01
60 41 -2.67662197403143731e-01
61 41 -2.25847025673480334e-01
62 41 -1.84054629203449754e-01
63 41 -1.42436245562454405e-01
64 41 -1.01133553615581268e-01
65 41 -6.02776826562987644e-02
66 41 -1.99884900706094847e-02
67 41 -1.09764639034688682e-16
68 41 1.99884900706092869e-02
69 41 6.02776826562985979e-02
70 41 1.01133553615581143e-01
71 41 1.42436245562454378e-01
72 41 1.84054629203449671e-01
73 41 2.25847025673480251e-01
74 41 2.67662197403143509e-01
75 41 3.09340609753205209e-01
76 41 3.50715956123024031e-01
77 41 3.91616928823121491e-01
78 41 4.31869207191420301e-01
79 41 4.71297623821822720e-01
80 41 5.09728460020292151e-01
81 41 5.46991813379194225e-01
82 41 5.82923974293895863e-01
83 41 6.17369744861448244e-01
84 41 6.50184633265547984e-01
85 41 6.81236859627982527e-01
86 41 7.10409115328715979e-01
87 41 7.37600026667199926e-01
88 41 7.62725284947176174e-01
89 41 7.85718417937992353e-01
90 41 8.06531191409763037e-01
91 41 8.25133643230217206e-01
92 41 8.41513765552274307e-01
93 41 8.55676862213969103e-01
94 41 8.67644618064552064e-01
95 41 8.77453924150983222e-01
96 41 8.85155507369195127e-01
97 41 8.90812415312291495e-01
98 41 8.94498406804597690e-01
99 41 8.96296296296296258e-01
100 41 8.96296296296296258e-01
101 41 8.96296296296296369e-01
102 41 8.94498406804597690e-01
103 41 8.90812415312291384e-01
104 41 8.85155507369195127e-01
105 41 8.77453924150983222e-01
106 41 8.67644618064551842e-01
107 41 8.55676862213969436e-01
108 41 8.41513765552274307e-01
109 41 8.25133643230217206e-01
110 41 8.06531191409763037e-01
111 41 7.85718417937992353e-01
112 41 7.62725284947176285e-01
113 41 7.37600026667199926e-01
114 41 7.10409115328715979e-01
115 41 6.81236859627982749e-01
116 41 6.50184633265547984e-01
117 41 6.17369744861448244e-01
118 41 5.82923974293896086e-01
119 41 5.46991813379194225e-01
120 41 5.09728460020292151e-01
121 41 4.71297623821822775e-01
122 41 4.31869207191420301e-01
123 41 3.91616928823121491e-01
124 41 3.50715956123024031e-01
125 41 3.09340609753205209e-01
126 41 2.67662197403143842e-01
127 41 2.25847025673480473e-01
128 41 1.84054629203449810e-01
129 41 1.42436245562454655e-01
130 41 1.01133553615581281e-01
131 41 6.02776826562988130e-02
132 41 1.99884900706095818e-02
133 41 2.19529278069377365e-16
1 42 0.00000000000000000e+00
2 42 -1.93711222165856012e-02
3 42 -5.84159360483463633e-02
4 42 -9.80099257304887089e-02
5 42 -1.38036935812320072e-01
6 42 -1.78369887081704759e-01
7 42 -2.18871476590725811e-01
8 42 -2.59395137918893681e-01
9 42 -2.99786263840576828e-01
10 42 -3.39883684328671054e-01
11 42 -3.79521382731703383e-01
12 42 -4.18530422484778064e-01
13 42 -4.56741046431657194e-01
14 42 -4.93984901383000108e-01
15 42 -5.30097332565407253e-01
16 42 -5.64919686736528814e-01
17 42 -5.98301559461854815e-01
18 42 -6.30102921723534326e-01
19 42 -6.60196063818757284e-01
20 42 -6.88467300341184973e-01
21 42 -7.14818388635372282e-01
22 42 -7.39167623977582400e-01
23 42 -7.61450587209618557e-01
24 42 -7.81620533872102508e-01
25 42 -7.99648427248201621e-01
26 42 -8.15522630367212842e-01
27 42 -8.29248283251940332e-01
28 42 -8.40846400989746501e-01
29 42 -8.50352735204533139e-01
30 42 -8.57816446032823698e-01
31 42 -8.63298633769196133e-01
32 42 -8.66870779110566536e-01
33 42 -8.68613138686131325e-01
34 42 -8.68613138686131436e-01
35 42 -8.68613138686131325e-01
36 42 -8.66870779110566647e-01
37 42 -8.63298633769195800e-01
38 42 -8.57816446032823698e-01
39 42 -8.50352735204533139e-01
40 42 -8.40846400989746390e-01
41 42 -8.29248283251940554e-01
42 42 -8.15522630367212842e-01
43 42 -7.99648427248201621e-01
44 42 -7.81620533872102508e-01
45 42 -7.61450587209618557e-01
46 42 -7.39167623977582622e-01
47 42 -7.14818388635372282e-01
48 42 -6.88467300341184973e-01
49 42 -6.60196063818757395e-01
50 42 -6.30102921723534326e-01
51 42 -5.98301559461854815e-01
52 42 -5.64919686736528814e-01
53 42 -5.30097332565407253e-01
54 42 -4.93984901383000108e-01
55 42 -4.56741046431657249e-01
56 42 -4.18530422484778064e-01
57 42 -3.79521382731703383e-01
58 42 -3.39883684328671110e-01
59 42 -2.99786263840576828e-01
60 42 -2.59395137918893903e-01
61 42 -2.18871476590725811e-01
62 42 -1.78369887081704787e-01
63 42 -1.38036935812320100e-01
64 42 -9.80099257304888061e-02
65 42 -5.84159360483464812e-02
66 42 -1.93711222165857087e-02
67 42 -1.06374429998930669e-16
68 42 1.93711222165855214e-02
69 42 5.84159360483463216e-02
70 42 9.80099257304886812e-02
71 42 1.38036935812320072e-01
72 42 1.78369887081704731e-01
73 42 2.18871476590725728e-01
74 42 2.59395137918893681e-01
75 42 2.99786263840576828e-01
76 42 3.39883684328671054e-01
77 42 3.79521382731703383e-01
78 42 4.18530422484778064e-01
79 42 4.56741046431657194e-01
80 42 4.93984901383000108e-01
81 42 5.30097332565407253e-01
82 42 5.64919686736528814e-01
83 42 5.98301559461854815e-01
84 42 6.30102921723534326e-01
85 42 6.60196063818757284e-01
86 42 6.88467300341184973e-01
87 42 7.14818388635372282e-01
88 42 7.39167623977582400e-01
89 42 7.61450587209618557e-01
90 42 7.81620533872102508e-01
91 42 7.99648427248201621e-01
92 42 8.15522630367212842e-01
93 42 8.29248283251940332e-01
94 42 8.40846400989746501e-01
95 42 8.50352735204533139e-01
96 42 8.57816446032823698e-01
97 42 8.63298633769196133e-01
98 42 8.66870779110566536e-01
99 42 8.68613138686131325e-01
100 42 8.68613138686131436e-01
101 42 8.68613138686131325e-01
102 42 8.66870779110566647e-01
103 42 8.63298633769195800e-01
104 42 8.57816446032823698e-01
105 42 8.50352735204533139e-01
106 42 8.40846400989746390e-01
107 42 8.29248283251940554e-01
108 42 8.15522630367212842e-01
109 42 7.99648427248201621e-01
110 42 7.81620533872102508e-01
111 42 7.61450587209618557e-01
112 42 7.39167623977582622e-01
113 42 7.14818388635372282e-01
114 42 6.88467300341184973e-01
115 42 6.60196063818757395e-01
116 42 6.30102921723534326e-01
117 42 5.98301559461854815e-01
118 42 5.64919686736528814e-01
119 42 5.30097332565407253e-01
120 42 4.93984901383000108e-01
121 42 4.56741046431657249e-01
122 42 4.18530422484778064e-01
123 42 3.79521382731703383e-01
124 42 3.39883684328671110e-01
125 42 2.99786263840576828e-01
126 42 2.59395137918894014e-01
127 42 2.18871476590725950e-01
128 42 1.78369887081704870e-01
129 42 1.38036935812320349e-01
130 42 9.80099257304888338e-02
131 42 5.84159360483465229e-02
132 42 1.93711222165858059e-02
133 42 2.12748859997861338e-16
1 43 0.00000000000000000e+00
2 43 -1.86977811549708106e-02
3 43 -5.63853955378777680e-02
4 43 -9.46030963944139019e-02
5 43 -1.33238765842469797e-01
6 43 -1.72169741948921873e-01
7 43 -2.11263494422371439e-01
8 43 -2.50378551497561941e-01
9 43 -2.89365680102835809e-01
10 43 -3.28069312488331044e-01
11 43 -3.66329202748693461e-01
12 43 -4.03982286561465453e-01
13 43 -4.40864707536638256e-01
14 43 -4.76813964449149363e-01
15 43 -5.11671125932775972e-01
16 43 -5.45283053538861862e-01
17 43 -5.77504570897666158e-01
18 43 -6.08200516406167568e-01
19 43 -6.37247619556451483e-01
20 43 -6.64536146651911852e-01
21 43 -6.89971269956134781e-01
22 43 -7.13474124805180021e-01
23 43 -7.34982531253627447e-01
24 43 -7.54451369681566120e-01
25 43 -7.71852612689719719e-01
26 43 -7.87175027808999506e-01
27 43 -8.00423576394790337e-01
28 43 -8.11618543049092422e-01
29 43 -8.20794436667785399e-01
30 43 -8.27998708578881804e-01
31 43 -8.33290335228028312e-01
32 43 -8.36738312639966897e-01
33 43 -8.38420107719928032e-01
34 43 -8.38420107719928143e-01
35 43 -8.38420107719928143e-01
36 43 -8.36738312639967230e-01
37 43 -8.33290335228027867e-01
38 43 -8.27998708578881804e-01
39 43 -8.20794436667785399e-01
40 43 -8.11618543049092311e-01
41 43 -8.00423576394790559e-01
42 43 -7.87175027808999506e-01
43 43 -7.71852612689719719e-01
44 43 -7.54451369681566120e-01
45 43 -7.34982531253627447e-01
46 43 -7.13474124805180243e-01
47 43 -6.89971269956134781e-01
48 43 -6.64536146651911852e-01
49 43 -6.37247619556451594e-01
50 43 -6.08200516406167568e-01
51 43 -5.77504570897666158e-01
52 43 -5.45283053538861862e-01
53 43 -5.11671125932775972e-01
54 43 -4.76813964449149363e-01
55 43 -4.40864707536638312e-01
56 43 -4.03982286561465453e-01
57 43 -3.66329202748693461e-01
58 43 -3.28069312488331100e-01
59 43 -2.89365680102835809e-01
60 43 -2.50378551497562163e-01
61 43 -2.11263494422371439e-01
62 43 -1.72169741948921901e-01
63 43 -1.33238765842469825e-01
64 43 -9.46030963944139991e-02
65 43 -5.63853955378778651e-02
66 43 -1.86977811549709112e-02
67 43 -1.02676850125998909e-16
68 43 1.86977811549707308e-02
69 43 5.63853955378777263e-02
70 43 9.46030963944138742e-02
71 43 1.33238765842469797e-01
72 43 1.72169741948921845e-01
73 43 2.11263494422371384e-01
74 43 2.50378551497561941e-01
75 43 2.89365680102835809e-01
76 43 3.28069312488331044e-01
77 43 3.66329202748693461e-01
78 43 4.03982286561465453e-01
79 43 4.40864707536638256e-01
80 43 4.76813964449149363e-01
81 43 5.11671125932775972e-01
82 43 5.45283053538861862e-01
83 43 5.77504570897666158e-01
84 43 6.08200516406167568e-01
85 43 6.37247619556451483e-01
86 43 6.64536146651911852e-01
87 43 6.89971269956134781e-01
88 43 7.13474124805180021e-01
89 43 7.34982531253627447e-01
90 43 7.54451369681566120e-01
91 43 7.71852612689719719e-01
92 43 7.87175027808999506e-01
93 43 8.00423576394790337e-01
94 43 8.11618543049092422e-01
95 43 8.20794436667785399e-01
96 43 8.27998708578881804e-01
97 43 8.33290335228028312e-01
98 43 8.36738312639966897e-01
99 43 8.38420107719928032e-01
100 43 8.38420107719928143e-01
101 43 8.38420107719928143e-01
102 43 8.36738312639967230e-01
103 43 8.33290335228027867e-01
104 43 8.27998708578881804e-01
105 43 8.20794436667785399e-01
106 43 8.11618543049092311e-01
107 43 8.00423576394790559e-01
108 43 7.87175027808999506e-01
109 43 7.71852612689719719e-01
110 43 7.54451369681566120e-01
111 43 7.34982531253627447e-01
112 43 7.13474124805180243e-01
113 43 6.89971269956134781e-01
114 43 6.64536146651911852e-01
115 43 6.37247619556451594e-01
116 43 6.08200516406167568e-01
117 43 5.77504570897666158e-01
118 43 5.45283053538861862e-01
119 43 5.11671125932775972e-01
120 43 4.76813964449149363e-01
121 43 4.40864707536638312e-01
122 43 4.03982286561465453e-01
123 43 3.66329202748693461e-01
124 43 3.28069312488331100e-01
125 43 2.89365680102835809e-01
126 43 2.50378551497562274e-01
127 43 2.11263494422371578e-01
128 43 1.72169741948921984e-01
129 43 1.33238765842470047e-01
130 43 9.46030963944140268e-02
131 43 5.63853955378779137e-02
132 43 1.86977811549710084e-02
133 43 2.05353700251997818e-16
1 44 0.00000000000000000e+00
2 44 -1.79746949277223150e-02
3 44 -5.42048425303590653e-02
4 44 -9.09445769427796036e-02
5 44 -1.28086116139397188e-01
6 44 -1.65511541806329238e-01
7 44 -2.03093448903542917e-01
8 44 -2.40695836704519051e-01
9 44 -2.78175243323917354e-01
10 44 -3.15382117174777543e-01
11 44 -3.52162409429686185e-01
12 44 -3.88359361838801709e-01
13 44 -4.23815454715806672e-01
14 44 -4.58374471131982486e-01
15 44 -4.91883625962793780e-01
16 44 -5.24195702975817523e-01
17 44 -5.55171140105631400e-01
18 44 -5.84680002759455753e-01
19 44 -6.12603787583604897e-01
20 44 -6.38837004536055186e-01
21 44 -6.63288493087190623e-01
22 44 -6.85882438451120624e-01
23 44 -7.06559065324011248e-01
24 44 -7.25274998965489415e-01
25 44 -7.42003295860309331e-01
26 44 -7.56733157924811772e-01
27 44 -7.69469354647351111e-01
28 44 -7.80231386177686614e-01
29 44 -7.89052426873276813e-01
30 44 -7.95978093010078824e-01
31 44 -8.01065080278861252e-01
32 44 -8.04379716469305395e-01
33 44 -8.05996472663139119e-01
34 44 -8.05996472663139341e-01
35 44 -8.05996472663139341e-01
36 44 -8.04379716469305728e-01
37 44 -8.01065080278860808e-01
38 44 -7.95978093010078824e-01
39 44 -7.89052426873276813e-01
40 44 -7.80231386177686503e-01
41 44 -7.69469354647351333e-01
42 44 -7.56733157924811772e-01
43 44 -7.42003295860309331e-01
44 44 -7.25274998965489415e-01
45 44 -7.06559065324011248e-01
46 44 -6.85882438451120735e-01
47 44 -6.63288493087190623e-01
48 44 -6.38837004536055186e-01
49 44 -6.12603787583605008e-01
50 44 -5.84680002759455753e-01
51 44 -5.55171140105631400e-01
52 44 -5.24195702975817412e-01
53 44 -4.91883625962793780e-01
54 44 -4.58374471131982486e-01
55 44 -4.23815454715806672e-01
56 44 -3.88359361838801709e-01
57 44 -3.52162409429686185e-01
58 44 -3.15382117174777599e-01
59 44 -2.78175243323917354e-01
60 44 -2.40695836704519245e-01
61 44 -2.03093448903542917e-01
62 44 -1.65511541806329265e-01
63 44 -1.28086116139397216e-01
64 44 -9.09445769427796868e-02
65 44 -5.42048425303591624e-02
66 44 -1.79746949277224156e-02
67 44 -9.87061000370970643e-17
68 44 1.79746949277222387e-02
69 44 5.42048425303590237e-02
70 44 9.09445769427795619e-02
71 44 1.28086116139397188e-01
72 44 1.65511541806329210e-01
73 44 2.03093448903542861e-01
74 44 2.40695836704519051e-01
75 44 2.78175243323917354e-01
76 44 3.15382117174777543e-01
77 44 3.52162409429686185e-01
78 44 3.88359361838801709e-01
79 44 4.23815454715806672e-01
80 44 4.58374471131982486e-01
81 44 4.91883625962793780e-01
82 44 5.24195702975817523e-01
83 44 5.55171140105631400e-01
84 44 5.84680002759455753e-01
85 44 6.12603787583604897e-01
86 44 6.38837004536055186e-01
87 44 6.63288493087190623e-01
88 44 6.85882438451120624e-01
89 44 7.06559065324011248e-01
90 44 7.25274998965489415e-01
91 44 7.42003295860309331e-01
92 44 7.56733157924811772e-01
93 44 7.69469354647351111e-01
94 44 7.80231386177686614e-01
95 44 7.89052426873276813e-01
96 44 7.95978093010078824e-01
97 44 8.01065080278861252e-01
98 44 8.04379716469305395e-01
99 44 8.05996472663139119e-01
100 44 8.05996472663139341e-01
101 44 8.05996472663139341e-01
102 44 8.04379716469305728e-01
103 44 8.01065080278860808e-01
104 44 7.95978093010078824e-01
105 44 7.89052426873276813e-01
106 44 7.80231386177686503e-01
107 44 7.69469354647351333e-01
108 44 7.56733157924811772e-01
109 44 7.42003295860309331e-01
110 44 7.25274998965489415e-01
111 44 7.06559065324011248e-01
112 44 6.85882438451120735e-01
113 44 6.63288493087190623e-01
114 44 6.38837004536055186e-01
115 44 6.12603787583605008e-01
116 44 5.84680002759455753e-01
117 44 5.55171140105631400e-01
118 44 5.24195702975817412e-01
119 44 4.91883625962793780e-01
120 44 4.58374471131982486e-01
121 44 4.23815454715806672e-01
122 44 3.88359361838801709e-01
123 44 3.52162409429686185e-01
124 44 3.15382117174777599e-01
125 44 2.78175243323917354e-01
126 44 2.40695836704519356e-01
127 44 2.03093448903543056e-01
128 44 1.65511541806329349e-01
129 44 1.28086116139397438e-01
130 44 9.09445769427797146e-02
131 44 5.42048425303592041e-02
132 44 1.79746949277225093e-02
133 44 1.97412200074194129e-16
1 45 0.00000000000000000e+00
2 45 -1.72081985065542335e-02
3 45 -5.18933808907280913e-02
4 45 -8.70664197316786542e-02
5 45 -1.22624129161762949e-01
6 45 -1.58453619267632850e-01
7 45 -1.94432917953047707e-01
8 45 -2.30431823981859241e-01
9 45 -2.66312993125918496e-01
10 45 -3.01933251139112846e-01
11 45 -3.37145118311077630e-01
12 45 -3.71798521047147612e-01
13 45 -4.05742656786181155e-01
14 45 -4.38827970171034198e-01
15 45 -4.70908191306032287e-01
16 45 -5.01842381712881203e-01
17 45 -5.31496930683002078e-01
18 45 -5.59747444435337638e-01
19 45 -5.86480472964637678e-01
20 45 -6.11595024649575270e-01
21 45 -6.35003826326633547e-01
22 45 -6.56634296186185962e-01
23 45 -6.76429207927686238e-01
24 45 -6.94347036443447529e-01
25 45 -7.10361987172801190e-01
26 45 -7.24463722495673812e-01
27 45 -7.36656808514728367e-01
28 45 -7.46959913833204925e-01
29 45 -7.55404798151658396e-01
30 45 -7.62035132527370207e-01
31 45 -7.66905194972019255e-01
32 45 -7.70078484853796374e-01
33 45 -7.71626297577854614e-01
34 45 -7.71626297577854725e-01
35 45 -7.71626297577854614e-01
36 45 -7.70078484853796708e-01
37 45 -7.66905194972018811e-01
38 45 -7.62035132527370207e-01
39 45 -7.55404798151658396e-01
40 45 -7.46959913833204814e-01
41 45 -7.36656808514728700e-01
42 45 -7.24463722495673812e-01
43 45 -7.10361987172801190e-01
44 45 -6.94347036443447529e-01
45 45 -6.76429207927686238e-01
46 45 -6.56634296186185962e-01
47 45 -6.35003826326633547e-01
48 45 -6.11595024649575270e-01
49 45 -5.86480472964637678e-01
50 45 -5.59747444435337638e-01
51 45 -5.31496930683002078e-01
52 45 -5.01842381712880981e-01
53 45 -4.70908191306032287e-01
54 45 -4.38827970171034198e-01
55 45 -4.05742656786181211e-01
56 45 -3.71798521047147612e-01
57 45 -3.37145118311077630e-01
58 45 -3.01933251139112901e-01
59 45 -2.66312993125918496e-01
60 45 -2.30431823981859435e-01
61 45 -1.94432917953047707e-01
62 45 -1.58453619267632878e-01
63 45 -1.22624129161762976e-01
64 45 -8.70664197316787236e-02
65 45 -5.18933808907281885e-02
66 45 -1.72081985065543307e-02
67 45 -9.44969675466642764e-17
68 45 1.72081985065541607e-02
69 45 5.18933808907280497e-02
70 45 8.70664197316786265e-02
71 45 1.22624129161762949e-01
72 45 1.58453619267632823e-01
73 45 1.94432917953047624e-01
74 45 2.30431823981859241e-01
75 45 2.66312993125918496e-01
76 45 3.01933251139112846e-01
77 45 3.37145118311077630e-01
78 45 3.71798521047147612e-01
79 45 4.05742656786181155e-01
80 45 4.38827970171034198e-01
81 45 4.70908191306032287e-01
82 45 5.01842381712881203e-01
83 45 5.31496930683002078e-01
84 45 5.59747444435337638e-01
85 45 5.86480472964637678e-01
86 45 6.11595024649575270e-01
87 45 6.35003826326633547e-01
88 45 6.56634296186185962e-01
89 45 6.76429207927686238e-01
90 45 6.94347036443447529e-01
91 45 7.10361987172801190e-01
92 45 7.24463722495673812e-01
93 45 7.36656808514728367e-01
94 45 7.46959913833204925e-01
95 45 7.55404798151658396e-01
96 45 7.62035132527370207e-01
97 45 7.66905194972019255e-01
98 45 7.70078484853796374e-01
99 45 7.71626297577854614e-01
100 45 7.71626297577854725e-01
101 45 7.71626297577854614e-01
102 45 7.70078484853796708e-01
103 45 7.66905194972018811e-01
104 45 7.62035132527370207e-01
105 45 7.55404798151658396e-01
106 45 7.46959913833204814e-01
107 45 7.36656808514728700e-01
108 45 7.24463722495673812e-01
109 45 7.10361987172801190e-01
110 45 6.94347036443447529e-01
111 45 6.76429207927686238e-01
112 45 6.56634296186185962e-01
113 45 6.35003826326633547e-01
114 45 6.11595024649575270e-01
115 45 5.86480472964637678e-01
116 45 5.59747444435337638e-01
117 45 5.31496930683002078e-01
118 45 5.01842381712880981e-01
119 45 4.70908191306032287e-01
120 45 4.38827970171034198e-01
121 45 4.05742656786181211e-01
122 45 3.71798521047147612e-01
123 45 3.37145118311077630e-01
124 45 3.01933251139112901e-01
125 45 2.66312993125918496e-01
126 45 2.30431823981859518e-01
127 45 1.94432917953047874e-01
128 45 1.58453619267632989e-01
129 45 1.22624129161763212e-01
130 45 8.70664197316787652e-02
131 45 5.18933808907282232e-02
132 45 1.72081985065544209e-02
133 45 1.88993935093328553e-16
1 46 0.00000000000000000e+00
2 46 -1.64046173586917358e-02
3 46 -4.94700858219994030e-02
4 46 -8.30006290283919340e-02
5 46 -1.16897879640064456e-01
6 46 -1.51054219428913256e-01
7 46 -1.85353372099862884e-01
8 46 -2.19671216498811883e-01
9 46 -2.53876822040065786e-01
10 46 -2.87833700367670198e-01
11 46 -3.21401258716160432e-01
12 46 -3.54436431563878829e-01
13 46 -3.86795458463658537e-01
14 46 -4.18335767930927527e-01
15 46 -4.48917920519498359e-01
16 46 -4.78407559236298852e-01
17 46 -5.06677312668892710e-01
18 46 -5.33608595924197404e-01
19 46 -5.59093256837140951e-01
20 46 -5.83035019850251746e-01
21 46 -6.05350687245149621e-01
22 46 -6.25971066606738291e-01
23 46 -6.44841603963958176e-01
24 46 -6.61922713330970969e-01
25 46 -6.77189804690550790e-01
26 46 -6.90633023164417326e-01
27 46 -7.02256721629310077e-01
28 46 -7.12078696909960840e-01
29 46 -7.20129225605912526e-01
30 46 -7.26449939441954462e-01
31 46 -7.31092581778220674e-01
32 46 -7.34117686716365903e-01
33 46 -7.35593220338982889e-01
34 46 -7.35593220338983000e-01
35 46 -7.35593220338982889e-01
36 46 -7.34117686716366236e-01
37 46 -7.31092581778220230e-01
38 46 -7.26449939441954462e-01
39 46 -7.20129225605912526e-01
40 46 -7.12078696909960840e-01
41 46 -7.02256721629310410e-01
42 46 -6.90633023164417215e-01
43 46 -6.77189804690550790e-01
44 46 -6.61922713330970969e-01
45 46 -6.44841603963958176e-01
46 46 -6.25971066606738291e-01
47 46 -6.05350687245149621e-01
48 46 -5.83035019850251746e-01
49 46 -5.59093256837141062e-01
50 46 -5.33608595924197404e-01
51 46 -5.06677312668892710e-01
52 46 -4.78407559236298630e-01
53 46 -4.48917920519498359e-01
54 46 -4.18335767930927527e-01
55 46 -3.86795458463658648e-01
56 46 -3.54436431563878829e-01
57 46 -3.21401258716160432e-01
58 46 -2.87833700367670253e-01
59 46 -2.53876822040065786e-01
60 46 -2.19671216498812050e-01
61 46 -1.85353372099862856e-01
62 46 -1.51054219428913283e-01
63 46 -1.16897879640064484e-01
64 46 -8.30006290283920034e-02
65 46 -4.94700858219994932e-02
66 46 -1.64046173586918226e-02
67 46 -9.00841882762629315e-17
68 46 1.64046173586916595e-02
69 46 4.94700858219993614e-02
70 46 8.30006290283919201e-02
71 46 1.16897879640064456e-01
72 46 1.51054219428913228e-01
73 46 1.85353372099862829e-01
74 46 2.19671216498811883e-01
75 46 2.53876822040065786e-01
76 46 2.87833700367670198e-01
77 46 3.21401258716160432e-01
78 46 3.54436431563878829e-01
79 46 3.86795458463658537e-01
80 46 4.18335767930927527e-01
81 46 4.48917920519498359e-01
82 46 4.78407559236298852e-01
83 46 5.06677312668892710e-01
84 46 5.33608595924197404e-01
85 46 5.59093256837140951e-01
86 46 5.83035019850251746e-01
87 46 6.05350687245149621e-01
88 46 6.25971066606738291e-01
89 46 6.44841603963958176e-01
90 46 6.61922713330970969e-01
91 46 6.77189804690550790e-01
92 46 6.90633023164417326e-01
93 46 7.02256721629310077e-01
94 46 7.12078696909960840e-01
95 46 7.20129225605912526e-01
96 46 7.26449939441954462e-01
97 46 7.31092581778220674e-01
98 46 7.34117686716365903e-01
99 46 7.35593220338982889e-01
100 46 7.35593220338983000e-01
101 46 7.35593220338982889e-01
102 46 7.34117686716366236e-01
103 46 7.31092581778220230e-01
104 46 7.26449939441954462e-01
105 46 7.20129225605912526e-01
106 46 7.12078696909960840e-01
107 46 7.02256721629310410e-01
108 46 6.90633023164417215e-01
109 46 6.77189804690550790e-01
110 46 6.61922713330970969e-01
111 46 6.44841603963958176e-01
112 46 6.25971066606738291e-01
113 46 6.05350687245149621e-01
114 46 5.83035019850251746e-01
115 46 5.59093256837141062e-01
116 46 5.33608595924197404e-01
117 46 5.06677312668892710e-01
118 46 4.78407559236298630e-01
119 46 4.48917920519498359e-01
120 46 4.18335767930927527e-01
121 46 3.86795458463658648e-01
122 46 3.54436431563878829e-01
123 46 3.21401258716160432e-01
124 46 2.87833700367670253e-01
125 46 2.53876822040065786e-01
126 46 2.19671216498812133e-01
127 46 1.85353372099863023e-01
128 46 1.51054219428913422e-01
129 46 1.16897879640064692e-01
130 46 8.30006290283920589e-02
131 46 4.94700858219995349e-02
132 46 1.64046173586919093e-02
133 46 1.80168376552525863e-16
1 47 0.00000000000000000e+00
2 47 -1.55701634138273332e-02
3 47 -4.69536901411774857e-02
4 47 -7.87786346468971332e-02
5 47 -1.10951633246194573e-01
6 47 -1.43370541929170425e-01
7 47 -1.75924999028990753e-01
8 47 -2.08497197064370476e-01
9 47 -2.40962865497901968e-01
10 47 -2.73192458729110188e-01
11 47 -3.05052535527076896e-01
12 47 -3.36407307686421408e-01
13 47 -3.67120327425041304e-01
14 47 -3.97056275444448548e-01
15 47 -4.26082805167091516e-01
16 47 -4.54072393939305985e-01
17 47 -4.80904149352417098e-01
18 47 -5.06465518573076978e-01
19 47 -5.30653850814198691e-01
20 47 -5.53377767768698736e-01
21 47 -5.74558303737925935e-01
22 47 -5.94129785918517062e-01
23 47 -6.12040435337168232e-01
24 47 -6.28252679629043298e-01
25 47 -6.42743179597732861e-01
26 47 -6.55502581653214844e-01
27 47 -6.66535017254374695e-01
28 47 -6.75857377954563465e-01
29 47 -6.83498400273030438e-01
30 47 -6.89497598252925337e-01
31 47 -6.93904083224018975e-01
32 47 -6.96775310098807443e-01
33 47 -6.98175787728026465e-01
34 47 -6.98175787728026576e-01
35 47 -6.98175787728026354e-01
36 47 -6.96775310098807665e-01
37 47 -6.93904083224018642e-01
38 47 -6.89497598252925337e-01
39 47 -6.83498400273030438e-01
40 47 -6.75857377954563576e-01
41 47 -6.66535017254374917e-01
42 47 -6.55502581653214733e-01
43 47 -6.42743179597732861e-01
44 47 -6.28252679629043298e-01
45 47 -6.12040435337168232e-01
46 47 -5.94129785918517062e-01
47 47 -5.74558303737925935e-01
48 47 -5.53377767768698736e-01
49 47 -5.30653850814198802e-01
50 47 -5.06465518573076978e-01
51 47 -4.80904149352417098e-01
52 47 -4.54072393939305818e-01
53 47 -4.26082805167091516e-01
54 47 -3.97056275444448548e-01
55 47 -3.67120327425041360e-01
56 47 -3.36407307686421408e-01
57 47 -3.05052535527076896e-01
58 47 -2.73192458729110244e-01
59 47 -2.40962865497901912e-01
60 47 -2.08497197064370671e-01
61 47 -1.75924999028990753e-01
62 47 -1.43370541929170453e-01
63 47 -1.10951633246194600e-01
64 47 -7.87786346468971888e-02
65 47 -4.69536901411775759e-02
66 47 -1.55701634138274165e-02
67 47 -8.55018743683309617e-17
68 47 1.55701634138272586e-02
69 47 4.69536901411774371e-02
70 47 7.87786346468971194e-02
71 47 1.10951633246194573e-01
72 47 1.43370541929170398e-01
73 47 1.75924999028990725e-01
74 47 2.08497197064370476e-01
75 47 2.40962865497901968e-01
76 47 2.73192458729110188e-01
77 47 3.05052535527076896e-01
78 47 3.36407307686421408e-01
79 47 3.67120327425041304e-01
80 47 3.97056275444448548e-01
81 47 4.26082805167091516e-01
82 47 4.54072393939305985e-01
83 47 4.80904149352417098e-01
84 47 5.06465518573076978e-01
85 47 5.30653850814198691e-01
86 47 5.53377767768698736e-01
87 47 5.74558303737925935e-01
88 47 5.94129785918517062e-01
89 47 6.12040435337168232e-01
90 47 6.28252679629043298e-01
91 47 6.42743179597732861e-01
92 47 6.55502581653214844e-01
93 47 6.66535017254374695e-01
94 47 6.75857377954563465e-01
95 47 6.83498400273030438e-01
96 47 6.89497598252925337e-01
97 47 6.93904083224018975e-01
98 47 6.96775310098807443e-01
99 47 6.98175787728026465e-01
100 47 6.98175787728026576e-01
101 47 6.98175787728026354e-01
102 47 6.96775310098807665e-01
103 47 6.93904083224018642e-01
104 47 6.89497598252925337e-01
105 47 6.83498400273030438e-01
106 47 6.75857377954563576e-01
107 47 6.66535017254374917e-01
108 47 6.55502581653214733e-01
109 47 6.42743179597732861e-01
110 47 6.28252679629043298e-01
111 47 6.12040435337168232e-01
112 47 5.94129785918517062e-01
113 47 5.74558303737925935e-01
114 47 5.53377767768698736e-01
115 47 5.30653850814198802e-01
116 47 5.06465518573076978e-01
117 47 4.80904149352417098e-01
118 47 4.54072393939305818e-01
119 47 4.26082805167091516e-01
120 47 3.97056275444448548e-01
121 47 3.67120327425041360e-01
122 47 3.36407307686421408e-01
123 47 3.05052535527076896e-01
124 47 2.73192458729110244e-01
125 47 2.40962865497901968e-01
126 47 2.08497197064370726e-01
127 47 1.75924999028990919e-01
128 47 1.43370541929170564e-01
129 47 1.10951633246194795e-01
130 47 7.87786346468972443e-02
131 47 4.69536901411776106e-02
132 47 1.55701634138274998e-02
133 47 1.71003748736661923e-16
1 48 0.00000000000000000e+00
2 48 -1.47108454254742602e-02
3 48 -4.43623139631960581e-02
4 48 -7.44308384131174144e-02
5 48 -1.04828207836225082e-01
6 48 -1.35457915554918373e-01
7 48 -1.66215690767501673e-01
8 48 -1.96990227792647993e-01
9 48 -2.27664114589253008e-01
10 48 -2.58114955184102601e-01
11 48 -2.88216672973551191e-01
12 48 -3.17840973909112090e-01
13 48 -3.46858940767644619e-01
14 48 -3.75142722528563288e-01
15 48 -4.02567276827622500e-01
16 48 -4.29012118991897895e-01
17 48 -4.54363028669947489e-01
18 48 -4.78513664824136153e-01
19 48 -5.01367041968730165e-01
20 48 -5.22836824969343694e-01
21 48 -5.42848406247629534e-01
22 48 -5.61339737485066381e-01
23 48 -5.78261897392113200e-01
24 48 -5.93579387224365096e-01
25 48 -6.07270155876666218e-01
26 48 -6.19325365984029874e-01
27 48 -6.29748920989947725e-01
28 48 -6.38556780202215624e-01
29 48 -6.45776094170349202e-01
30 48 -6.51444196155757882e-01
31 48 -6.55607487031810265e-01
32 48 -6.58320250771911475e-01
33 48 -6.59643435980550974e-01
34 48 -6.59643435980551085e-01
35 48 -6.59643435980550752e-01
36 48 -6.58320250771911697e-01
37 48 -6.55607487031810043e-01
38 48 -6.51444196155757882e-01
39 48 -6.45776094170349202e-01
40 48 -6.38556780202215735e-01
41 48 -6.29748920989947947e-01
42 48 -6.19325365984029652e-01
43 48 -6.07270155876666218e-01
44 48 -5.93579387224365096e-01
45 48 -5.78261897392113200e-01
46 48 -5.61339737485066381e-01
47 48 -5.42848406247629534e-01
48 48 -5.22836824969343694e-01
49 48 -5.01367041968730276e-01
50 48 -4.78513664824136153e-01
51 48 -4.54363028669947489e-01
52 48 -4.29012118991897728e-01
53 48 -4.02567276827622500e-01
54 48 -3.75142722528563288e-01
55 48 -3.46858940767644730e-01
56 48 -3.17840973909112090e-01
57 48 -2.88216672973551191e-01
58 48 -2.58114955184102712e-01
59 48 -2.27664114589252925e-01
60 48 -1.96990227792648159e-01
61 48 -1.66215690767501700e-01
62 48 -1.35457915554918401e-01
63 48 -1.04828207836225110e-01
64 48 -7.44308384131174700e-02
65 48 -4.43623139631961483e-02
66 48 -1.47108454254743400e-02
67 48 -8.07830222452143840e-17
68 48 1.47108454254741890e-02
69 48 4.43623139631960095e-02
70 48 7.44308384131174006e-02
71 48 1.04828207836225082e-01
72 48 1.35457915554918346e-01
73 48 1.66215690767501673e-01
74 48 1.96990227792647993e-01
75 48 2.27664114589253008e-01
76 48 2.58114955184102601e-01
77 48 2.88216672973551191e-01
78 48 3.17840973909112090e-01
79 48 3.46858940767644619e-01
80 48 3.75142722528563288e-01
81 48 4.02567276827622500e-01
82 48 4.29012118991897895e-01
83 48 4.54363028669947489e-01
84 48 4.78513664824136153e-01
85 48 5.01367041968730165e-01
86 48 5.22836824969343694e-01
87 48 5.42848406247629534e-01
88 48 5.61339737485066381e-01
89 48 5.78261897392113200e-01
90 48 5.93579387224365096e-01
91 48 6.07270155876666218e-01
92 48 6.19325365984029874e-01
93 48 6.29748920989947725e-01
94 48 6.38556780202215624e-01
95 48 6.45776094170349202e-01
96 48 6.51444196155757882e-01
97 48 6.55607487031810265e-01
98 48 6.58320250771911475e-01
99 48 6.59643435980550974e-01
100 48 6.59643435980551085e-01
101 48 6.59643435980550752e-01
102 48 6.58320250771911697e-01
103 48 6.55607487031810043e-01
104 48 6.51444196155757882e-01
105 48 6.45776094170349202e-01
106 48 6.38556780202215735e-01
107 48 6.29748920989947947e-01
108 48 6.19325365984029652e-01
109 48 6.07270155876666218e-01
110 48 5.93579387224365096e-01
111 48 5.78261897392113200e-01
112 48 5.61339737485066381e-01
113 48 5.42848406247629534e-01
114 48 5.22836824969343694e-01
115 48 5.01367041968730276e-01
116 48 4.78513664824136153e-01
117 48 4.54363028669947489e-01
118 48 4.29012118991897728e-01
119 48 4.02567276827622500e-01
120 48 3.75142722528563288e-01
121 48 3.46858940767644730e-01
122 48 3.17840973909112090e-01
123 48 2.88216672973551191e-01
124 48 2.58114955184102712e-01
125 48 2.27664114589252981e-01
126 48 1.96990227792648187e-01
127 48 1.66215690767501839e-01
128 48 1.35457915554918484e-01
129 48 1.04828207836225276e-01
130 48 7.44308384131175255e-02
131 48 4.43623139631961760e-02
132 48 1.47108454254744163e-02
133 48 1.61566044490428768e-16
1 49 0.00000000000000000e+00
2 49 -1.38323947920369252e-02
3 49 -4.17132410054833550e-02
4 49 -6.99862388499915555e-02
5 49 -9.85684448577922034e-02
6 49 -1.27369115198328220e-01
7 49 -1.56290205547658961e-01
8 49 -1.85227056786462424e-01
9 49 -2.14069268073799834e-01
10 49 -2.42701752249587094e-01
11 49 -2.71005961310278154e-01
12 49 -2.98861262221073731e-01
13 49 -3.26146435985077643e-01
14 49 -3.52741266140206233e-01
15 49 -3.78528177163235502e-01
16 49 -4.03393879062048655e-01
17 49 -4.27230972095248407e-01
18 49 -4.49939465326038179e-01
19 49 -4.71428164707511588e-01
20 49 -4.91615890563809499e-01
21 49 -5.10432490470083100e-01
22 49 -5.27819621291512830e-01
23 49 -5.43731283048417113e-01
24 49 -5.58134096785812495e-01
25 49 -5.71007328169043316e-01
26 49 -5.82342667551866922e-01
27 49 -5.92143785285637048e-01
28 49 -6.00425687676222619e-01
29 49 -6.07213903991918769e-01
30 49 -6.12543538157466649e-01
31 49 -6.16458220241741572e-01
32 49 -6.19008992678356629e-01
33 49 -6.20253164556962000e-01
34 49 -6.20253164556962000e-01
35 49 -6.20253164556961778e-01
36 49 -6.19008992678356740e-01
37 49 -6.16458220241741461e-01
38 49 -6.12543538157466649e-01
39 49 -6.07213903991918769e-01
40 49 -6.00425687676222730e-01
41 49 -5.92143785285637270e-01
42 49 -5.82342667551866588e-01
43 49 -5.71007328169043316e-01
44 49 -5.58134096785812495e-01
45 49 -5.43731283048417113e-01
46 49 -5.27819621291512830e-01
47 49 -5.10432490470083100e-01
48 49 -4.91615890563809499e-01
49 49 -4.71428164707511754e-01
50 49 -4.49939465326038179e-01
51 49 -4.27230972095248407e-01
52 49 -4.03393879062048433e-01
53 49 -3.78528177163235502e-01
54 49 -3.52741266140206233e-01
55 49 -3.26146435985077643e-01
56 49 -2.98861262221073731e-01
57 49 -2.71005961310278154e-01
58 49 -2.42701752249587149e-01
59 49 -2.14069268073799751e-01
60 49 -1.85227056786462563e-01
61 49 -1.56290205547658989e-01
62 49 -1.27369115198328248e-01
63 49 -9.85684448577922312e-02
64 49 -6.99862388499916110e-02
65 49 -4.17132410054834452e-02
66 49 -1.38323947920370033e-02
67 49 -7.59591052635700091e-17
68 49 1.38323947920368593e-02
69 49 4.17132410054833064e-02
70 49 6.99862388499915417e-02
71 49 9.85684448577922034e-02
72 49 1.27369115198328192e-01
73 49 1.56290205547658961e-01
74 49 1.85227056786462424e-01
75 49 2.14069268073799834e-01
76 49 2.42701752249587094e-01
77 49 2.71005961310278154e-01
78 49 2.98861262221073731e-01
79 49 3.26146435985077643e-01
80 49 3.52741266140206233e-01
81 49 3.78528177163235502e-01
82 49 4.03393879062048655e-01
83 49 4.27230972095248407e-01
84 49 4.49939465326038179e-01
85 49 4.71428164707511588e-01
86 49 4.91615890563809499e-01
87 49 5.10432490470083100e-01
88 49 5.27819621291512830e-01
89 49 5.43731283048417113e-01
90 49 5.58134096785812495e-01
91 49 5.71007328169043316e-01
92 49 5.82342667551866922e-01
93 49 5.92143785285637048e-01
94 49 6.00425687676222619e-01
95 49 6.07213903991918769e-01
96 49 6.12543538157466649e-01
97 49 6.16458220241741572e-01
98 49 6.19008992678356629e-01
99 49 6.20253164556962000e-01
100 49 6.20253164556962000e-01
101 49 6.20253164556961778e-01
102 49 6.19008992678356740e-01
103 49 6.16458220241741461e-01
104 49 6.12543538157466649e-01
105 49 6.07213903991918769e-01
106 49 6.00425687676222730e-01
107 49 5.92143785285637270e-01
108 49 5.82342667551866588e-01
109 49 5.71007328169043316e-01
110 49 5.58134096785812495e-01
111 49 5.43731283048417113e-01
112 49 5.27819621291512830e-01
113 49 5.10432490470083100e-01
114 49 4.91615890563809499e-01
115 49 4.71428164707511754e-01
116 49 4.49939465326038179e-01
117 49 4.27230972095248407e-01
118 49 4.03393879062048433e-01
119 49 3.78528177163235502e-01
120 49 3.52741266140206233e-01
121 49 3.26146435985077643e-01
122 49 2.98861262221073731e-01
123 49 2.71005961310278154e-01
124 49 2.42701752249587205e-01
125 49 2.14069268073799807e-01
126 49 1.85227056786462618e-01
127 49 1.56290205547659100e-01
128 49 1.27369115198328331e-01
129 49 9.85684448577923839e-02
130 49 6.99862388499916666e-02
131 49 4.17132410054834729e-02
132 49 1.38323947920370744e-02
133 49 1.51918210527140018e-16
1 50 0.00000000000000000e+00
2 50 -1.29402070705046876e-02
3 50 -3.90227422155101228e-02
4 50 -6.54721352607756657e-02
5 50 -9.22107925817542001e-02
6 50 -1.19153823313528001e-01
7 50 -1.46209506978699361e-01
8 50 -1.73279934957957932e-01
9 50 -2.00261827250697633e-01
10 50 -2.27047519804161491e-01
11 50 -2.53526110946098004e-01
12 50 -2.79584748457255450e-01
13 50 -3.05110031950766747e-01
14 50 -3.29989498911208323e-01
15 50 -3.54113157421792224e-01
16 50 -3.77375024680621507e-01
17 50 -3.99674628216089012e-01
18 50 -4.20918426494225173e-01
19 50 -4.41021107472660712e-01
20 50 -4.59906727554402817e-01
21 50 -4.77509659137167641e-01
22 50 -4.93775322210981860e-01
23 50 -5.08660683789058377e-01
24 50 -5.22134517854805247e-01
25 50 -5.34177427435539864e-01
26 50 -5.44781638856155603e-01
27 50 -5.53950585730806355e-01
28 50 -5.61698306460522767e-01
29 50 -5.68048683679010846e-01
30 50 -5.73034557112288567e-01
31 50 -5.76696742695285147e-01
32 50 -5.79082990631075378e-01
33 50 -5.80246913580246826e-01
34 50 -5.80246913580246937e-01
35 50 -5.80246913580246715e-01
36 50 -5.79082990631075489e-01
37 50 -5.76696742695285036e-01
38 50 -5.73034557112288567e-01
39 50 -5.68048683679010846e-01
40 50 -5.61698306460522767e-01
41 50 -5.53950585730806466e-01
42 50 -5.44781638856155381e-01
43 50 -5.34177427435539864e-01
44 50 -5.22134517854805247e-01
45 50 -5.08660683789058377e-01
46 50 -4.93775322210981860e-01
47 50 -4.77509659137167641e-01
48 50 -4.59906727554402817e-01
49 50 -4.41021107472660878e-01
50 50 -4.20918426494225173e-01
51 50 -3.99674628216089012e-01
52 50 -3.77375024680621285e-01
53 50 -3.54113157421792224e-01
54 50 -3.29989498911208323e-01
55 50 -3.05110031950766691e-01
56 50 -2.79584748457255450e-01
57 50 -2.53526110946098004e-01
58 50 -2.27047519804161574e-01
59 50 -2.00261827250697522e-01
60 50 -1.73279934957958071e-01
61 50 -1.46209506978699388e-01
62 50 -1.19153823313528029e-01
63 50 -9.22107925817542418e-02
64 50 -6.54721352607757351e-02
65 50 -3.90227422155102061e-02
66 50 -1.29402070705047587e-02
67 50 -7.10597525431180254e-17
68 50 1.29402070705046269e-02
69 50 3.90227422155100812e-02
70 50 6.54721352607756518e-02
71 50 9.22107925817542001e-02
72 50 1.19153823313527973e-01
73 50 1.46209506978699361e-01
74 50 1.73279934957957932e-01
75 50 2.00261827250697633e-01
76 50 2.27047519804161491e-01
77 50 2.53526110946098004e-01
78 50 2.79584748457255450e-01
79 50 3.05110031950766747e-01
80 50 3.29989498911208323e-01
81 50 3.54113157421792224e-01
82 50 3.77375024680621507e-01
83 50 3.99674628216089012e-01
84 50 4.20918426494225173e-01
85 50 4.41021107472660712e-01
86 50 4.59906727554402817e-01
87 50 4.77509659137167641e-01
88 50 4.93775322210981860e-01
89 50 5.08660683789058377e-01
90 50 5.22134517854805247e-01
91 50 5.34177427435539864e-01
92 50 5.44781638856155603e-01
93 50 5.53950585730806355e-01
94 50 5.61698306460522767e-01
95 50 5.68048683679010846e-01
96 50 5.73034557112288567e-01
97 50 5.76696742695285147e-01
98 50 5.79082990631075378e-01
99 50 5.80246913580246826e-01
100 50 5.80246913580246937e-01
101 50 5.80246913580246715e-01
102 50 5.79082990631075489e-01
103 50 5.76696742695285036e-01
104 50 5.73034557112288567e-01
105 50 5.68048683679010846e-01
106 50 5.61698306460522767e-01
107 50 5.53950585730806466e-01
108 50 5.44781638856155381e-01
109 50 5.34177427435539864e-01
110 50 5.22134517854805247e-01
111 50 5.08660683789058377e-01
112 50 4.93775322210981860e-01
113 50 4.77509659137167641e-01
114 50 4.59906727554402817e-01
115 50 4.41021107472660878e-01
116 50 4.20918426494225173e-01
117 50 3.99674628216089012e-01
118 50 3.77375024680621285e-01
119 50 3.54113157421792224e-01
120 50 3.29989498911208323e-01
121 50 3.05110031950766691e-01
122 50 2.79584748457255450e-01
123 50 2.53526110946098004e-01
124 50 2.27047519804161629e-01
125 50 2.00261827250697577e-01
126 50 1.73279934957958126e-01
127 50 1.46209506978699499e-01
128 50 1.19153823313528112e-01
129 50 9.22107925817543667e-02
130 50 6.54721352607757906e-02
131 50 3.90227422155102338e-02
132 50 1.29402070705048264e-02
133 50 1.42119505086236051e-16
1 51 0.00000000000000000e+00
2 51 -1.20392987171078492e-02
3 51 -3.63059453170634719e-02
4 51 -6.09139088545223445e-02
5 51 -8.57909978398602169e-02
6 51 -1.10858231583237266e-01
7 51 -1.36030275265832640e-01
8 51 -1.61216036750678582e-01
9 51 -1.86319426479700428e-01
10 51 -2.11240276064156518e-01
11 51 -2.35875404901666447e-01
12 51 -2.60119817641610351e-01
13 51 -2.83868008929654358e-01
14 51 -3.07015345987490862e-01
15 51 -3.29459494630244654e-01
16 51 -3.51101850669902182e-01
17 51 -3.71848936614802505e-01
18 51 -3.91613723373078648e-01
19 51 -4.10316838400176020e-01
20 51 -4.27887625357686097e-01
21 51 -4.44265025693479365e-01
22 51 -4.59398259304851675e-01
23 51 -4.73247289198593102e-01
24 51 -4.85783063340261778e-01
25 51 -4.96987535191107443e-01
26 51 -5.06853472285974882e-01
27 51 -5.15384069187845739e-01
28 51 -5.22592386932188235e-01
29 51 -5.28500645423194859e-01
30 51 -5.33139398056894698e-01
31 51 -5.36546619127697855e-01
32 51 -5.38766734428444805e-01
33 51 -5.39849624060150357e-01
34 51 -5.39849624060150357e-01
35 51 -5.39849624060150246e-01
36 51 -5.38766734428444916e-01
37 51 -5.36546619127697744e-01
38 51 -5.33139398056894698e-01
39 51 -5.28500645423194970e-01
40 51 -5.22592386932188235e-01
41 51 -5.15384069187845850e-01
42 51 -5.06853472285974771e-01
43 51 -4.96987535191107443e-01
44 51 -4.85783063340261778e-01
45 51 -4.73247289198593102e-01
46 51 -4.59398259304851730e-01
47 51 -4.44265025693479421e-01
48 51 -4.27887625357686097e-01
49 51 -4.10316838400176132e-01
50 51 -3.91613723373078648e-01
51 51 -3.71848936614802505e-01
52 51 -3.51101850669901960e-01
53 51 -3.29459494630244654e-01
54 51 -3.07015345987490862e-01
55 51 -2.83868008929654303e-01
56 51 -2.60119817641610351e-01
57 51 -2.35875404901666447e-01
58 51 -2.11240276064156601e-01
59 51 -1.86319426479700317e-01
60 51 -1.61216036750678693e-01
61 51 -1.36030275265832640e-01
62 51 -1.10858231583237279e-01
63 51 -8.57909978398602446e-02
64 51 -6.09139088545224000e-02
65 51 -3.63059453170635482e-02
66 51 -1.20392987171079151e-02
67 51 -6.61125114126165092e-17
68 51 1.20392987171077919e-02
69 51 3.63059453170634372e-02
70 51 6.09139088545223237e-02
71 51 8.57909978398602169e-02
72 51 1.10858231583237238e-01
73 51 1.36030275265832640e-01
74 51 1.61216036750678582e-01
75 51 1.86319426479700428e-01
76 51 2.11240276064156518e-01
77 51 2.35875404901666447e-01
78 51 2.60119817641610351e-01
79 51 2.83868008929654358e-01
80 51 3.07015345987490862e-01
81 51 3.29459494630244654e-01
82 51 3.51101850669902182e-01
83 51 3.71848936614802505e-01
84 51 3.91613723373078648e-01
85 51 4.10316838400176020e-01
86 51 4.27887625357686097e-01
87 51 4.44265025693479365e-01
88 51 4.59398259304851675e-01
89 51 4.73247289198593102e-01
90 51 4.85783063340261778e-01
91 51 4.96987535191107443e-01
92 51 5.06853472285974882e-01
93 51 5.15384069187845739e-01
94 51 5.22592386932188235e-01
95 51 5.28500645423194859e-01
96 51 5.33139398056894698e-01
97 51 5.36546619127697855e-01
98 51 5.38766734428444805e-01
99 51 5.39849624060150357e-01
100 51 5.39849624060150357e-01
101 51 5.39849624060150246e-01
102 51 5.38766734428444916e-01
103 51 5.36546619127697744e-01
104 51 5.33139398056894698e-01
105 51 5.28500645423194970e-01
106 51 5.22592386932188235e-01
107 51 5.15384069187845850e-01
108 51 5.06853472285974771e-01
109 51 4.96987535191107443e-01
110 51 4.85783063340261778e-01
111 51 4.73247289198593102e-01
112 51 4.59398259304851730e-01
113 51 4.44265025693479421e-01
114 51 4.27887625357686097e-01
115 51 4.10316838400176132e-01
116 51 3.91613723373078648e-01
117 51 3.71848936614802505e-01
118 51 3.51101850669901960e-01
119 51 3.29459494630244654e-01
120 51 3.07015345987490862e-01
121 51 2.83868008929654303e-01
122 51 2.60119817641610351e-01
123 51 2.35875404901666447e-01
124 51 2.11240276064156629e-01
125 51 1.86319426479700345e-01
126 51 1.61216036750678748e-01
127 51 1.36030275265832779e-01
128 51 1.10858231583237377e-01
129 51 8.57909978398603557e-02
130 51 6.09139088545224555e-02
131 51 3.63059453170635760e-02
132 51 1.20392987171079775e-02
133 51 1.32225022825233018e-16
1 52 0.00000000000000000e+00
2 52 -1.11342780441235460e-02
3 52 -3.35767472270211212e-02
4 52 -5.63348757994419150e-02
5 52 -7.93418990654694289e-02
6 52 -1.02524773488145413e-01
7 52 -1.25804579055439264e-01
8 52 -1.49097071227493105e-01
9 52 -1.72313383710523654e-01
10 52 -1.95360877994789711e-01
11 52 -2.18144129791663005e-01
12 52 -2.40566036482908752e-01
13 52 -2.62529023784683624e-01
14 52 -2.83936324395703710e-01
15 52 -3.04693296817772741e-01
16 52 -3.24708749157454457e-01
17 52 -3.43896230832578198e-01
18 52 -3.62175254920313772e-01
19 52 -3.79472415485572478e-01
20 52 -3.95722367582946322e-01
21 52 -4.10868642566515285e-01
22 52 -4.24864277586041728e-01
23 52 -4.37672245317515973e-01
24 52 -4.49265677632085469e-01
25 52 -4.59627884589173141e-01
26 52 -4.68752177404001991e-01
27 52 -4.76641510497199494e-01
28 52 -4.83307963077352631e-01
29 52 -4.88772084729384049e-01
30 52 -4.93062132083066818e-01
31 52 -4.96213224821235199e-01
32 52 -4.98266449151768986e-01
33 52 -4.99267935578330824e-01
34 52 -4.99267935578330879e-01
35 52 -4.99267935578330768e-01
36 52 -4.98266449151768986e-01
37 52 -4.96213224821235088e-01
38 52 -4.93062132083066818e-01
39 52 -4.88772084729384104e-01
40 52 -4.83307963077352631e-01
41 52 -4.76641510497199605e-01
42 52 -4.68752177404001991e-01
43 52 -4.59627884589173141e-01
44 52 -4.49265677632085469e-01
45 52 -4.37672245317515973e-01
46 52 -4.24864277586041783e-01
47 52 -4.10868642566515341e-01
48 52 -3.95722367582946322e-01
49 52 -3.79472415485572534e-01
50 52 -3.62175254920313772e-01
51 52 -3.43896230832578198e-01
52 52 -3.24708749157454346e-01
53 52 -3.04693296817772741e-01
54 52 -2.83936324395703710e-01
55 52 -2.62529023784683568e-01
56 52 -2.40566036482908752e-01
57 52 -2.18144129791663005e-01
58 52 -1.95360877994789794e-01
59 52 -1.72313383710523543e-01
60 52 -1.49097071227493216e-01
61 52 -1.25804579055439236e-01
62 52 -1.02524773488145454e-01
63 52 -7.93418990654694428e-02
64 52 -5.63348757994419636e-02
65 52 -3.35767472270211906e-02
66 52 -1.11342780441236085e-02
67 52 -6.11426879222909888e-17
68 52 1.11342780441234940e-02
69 52 3.35767472270210865e-02
70 52 5.63348757994419011e-02
71 52 7.93418990654694289e-02
72 52 1.02524773488145413e-01
73 52 1.25804579055439236e-01
74 52 1.49097071227493105e-01
75 52 1.72313383710523654e-01
76 52 1.95360877994789711e-01
77 52 2.18144129791663005e-01
78 52 2.40566036482908752e-01
79 52 2.62529023784683624e-01
80 52 2.83936324395703710e-01
81 52 3.04693296817772741e-01
82 52 3.24708749157454457e-01
83 52 3.43896230832578198e-01
84 52 3.62175254920313772e-01
85 52 3.79472415485572478e-01
86 52 3.95722367582946322e-01
87 52 4.10868642566515285e-01
88 52 4.24864277586041728e-01
89 52 4.37672245317515973e-01
90 52 4.49265677632085469e-01
91 52 4.59627884589173141e-01
92 52 4.68752177404001991e-01
93 52 4.76641510497199494e-01
94 52 4.83307963077352631e-01
95 52 4.88772084729384049e-01
96 52 4.93062132083066818e-01
97 52 4.96213224821235199e-01
98 52 4.98266449151768986e-01
99 52 4.99267935578330824e-01
100 52 4.99267935578330879e-01
101 52 4.99267935578330768e-01
102 52 4.98266449151768986e-01
103 52 4.96213224821235088e-01
104 52 4.93062132083066818e-01
105 52 4.88772084729384104e-01
106 52 4.83307963077352631e-01
107 52 4.76641510497199605e-01
108 52 4.68752177404001991e-01
109 52 4.59627884589173141e-01
110 52 4.49265677632085469e-01
111 52 4.37672245317515973e-01
112 52 4.24864277586041783e-01
113 52 4.10868642566515341e-01
114 52 3.95722367582946322e-01
115 52 3.79472415485572534e-01
116 52 3.62175254920313772e-01
117 52 3.43896230832578198e-01
118 52 3.24708749157454346e-01
119 52 3.04693296817772741e-01
120 52 2.83936324395703710e-01
121 52 2.62529023784683568e-01
122 52 2.40566036482908752e-01
123 52 2.18144129791663005e-01
124 52 1.95360877994789794e-01
125 52 1.72313383710523571e-01
126 52 1.49097071227493244e-01
127 52 1.25804579055439347e-01
128 52 1.02524773488145551e-01
129 52 7.93418990654695400e-02
130 52 5.63348757994420329e-02
131 52 3.35767472270212183e-02
132 52 1.11342780441236657e-02
133 52 1.22285375844581978e-16
1 53 0.00000000000000000e+00
2 53 -1.02293289935413475e-02
3 53 -3.08477651228991553e-02
4 53 -5.17562051243120325e-02
5 53 -7.28933106661003305e-02
6 53 -9.41919748943273460e-02
7 53 -1.15579692096091341e-01
8 53 -1.36979064786732718e-01
9 53 -1.58308449365117787e-01
10 53 -1.79482736604599041e-01
11 53 -2.00414257916473604e-01
12 53 -2.21013802790269054e-01
13 53 -2.41191727384976046e-01
14 53 -2.60859129253868449e-01
15 53 -2.79929058976637724e-01
16 53 -2.98317736367823494e-01
17 53 -3.15945737198643106e-01
18 53 -3.32739116197562579e-01
19 53 -3.48630433566767872e-01
20 53 -3.63559655333513143e-01
21 53 -3.77474902394847767e-01
22 53 -3.90333028850906927e-01
23 53 -4.02100016808699112e-01
24 53 -4.12751181872129280e-01
25 53 -4.22271190591433310e-01
26 53 -4.30653897819186671e-01
27 53 -4.37902017852666914e-01
28 53 -4.44026648151280567e-01
29 53 -4.49046668112867753e-01
30 53 -4.52988037782709407e-01
31 53 -4.55883022457974962e-01
32 53 -4.57769369025874728e-01
33 53 -4.58689458689458540e-01
34 53 -4.58689458689458707e-01
35 53 -4.58689458689458540e-01
36 53 -4.57769369025874728e-01
37 53 -4.55883022457974962e-01
38 53 -4.52988037782709407e-01
39 53 -4.49046668112867753e-01
40 53 -4.44026648151280678e-01
41 53 -4.37902017852666969e-01
42 53 -4.30653897819186671e-01
43 53 -4.22271190591433310e-01
44 53 -4.12751181872129280e-01
45 53 -4.02100016808699112e-01
46 53 -3.90333028850906982e-01
47 53 -3.77474902394847822e-01
48 53 -3.63559655333513143e-01
49 53 -3.48630433566767872e-01
50 53 -3.32739116197562579e-01
51 53 -3.15945737198643106e-01
52 53 -2.98317736367823383e-01
53 53 -2.79929058976637724e-01
54 53 -2.60859129253868449e-01
55 53 -2.41191727384975962e-01
56 53 -2.21013802790269054e-01
57 53 -2.00414257916473604e-01
58 53 -1.79482736604599097e-01
59 53 -1.58308449365117676e-01
60 53 -1.36979064786732802e-01
61 53 -1.15579692096091327e-01
62 53 -9.41919748943273738e-02
63 53 -7.28933106661003444e-02
64 53 -5.17562051243120741e-02
65 53 -3.08477651228992247e-02
66 53 -1.02293289935414047e-02
67 53 -5.61732577386677728e-17
68 53 1.02293289935413007e-02
69 53 3.08477651228991311e-02
70 53 5.17562051243120186e-02
71 53 7.28933106661003305e-02
72 53 9.41919748943273460e-02
73 53 1.15579692096091327e-01
74 53 1.36979064786732718e-01
75 53 1.58308449365117787e-01
76 53 1.79482736604599041e-01
77 53 2.00414257916473604e-01
78 53 2.21013802790269054e-01
79 53 2.41191727384976046e-01
80 53 2.60859129253868449e-01
81 53 2.79929058976637724e-01
82 53 2.98317736367823494e-01
83 53 3.15945737198643106e-01
84 53 3.32739116197562579e-01
85 53 3.48630433566767872e-01
86 53 3.63559655333513143e-01
87 53 3.77474902394847767e-01
88 53 3.90333028850906927e-01
89 53 4.02100016808699112e-01
90 53 4.12751181872129280e-01
91 53 4.22271190591433310e-01
92 53 4.30653897819186671e-01
93 53 4.37902017852666914e-01
94 53 4.44026648151280567e-01
95 53 4.49046668112867753e-01
96 53 4.52988037782709407e-01
97 53 4.55883022457974962e-01
98 53 4.57769369025874728e-01
99 53 4.58689458689458540e-01
100 53 4.58689458689458707e-01
101 53 4.58689458689458540e-01
102 53 4.57769369025874728e-01
103 53 4.55883022457974962e-01
104 53 4.52988037782709407e-01
105 53 4.49046668112867753e-01
106 53 4.44026648151280678e-01
107 53 4.37902017852666969e-01
108 53 4.30653897819186671e-01
109 53 4.22271190591433310e-01
110 53 4.12751181872129280e-01
111 53 4.02100016808699112e-01
112 53 3.90333028850906982e-01
113 53 3.77474902394847822e-01
114 53 3.63559655333513143e-01
115 53 3.48630433566767872e-01
116 53 3.32739116197562579e-01
117 53 3.15945737198643106e-01
118 53 2.98317736367823383e-01
119 53 2.79929058976637724e-01
120 53 2.60859129253868449e-01
121 53 2.41191727384975962e-01
122 53 2.21013802790269054e-01
123 53 2.00414257916473604e-01
124 53 1.79482736604599097e-01
125 53 1.58308449365117704e-01
126 53 1.36979064786732829e-01
127 53 1.15579692096091410e-01
128 53 9.41919748943274709e-02
129 53 7.28933106661004276e-02
130 53 5.17562051243121365e-02
131 53 3.08477651228992490e-02
132 53 1.02293289935414585e-02
133 53 1.12346515477335546e-16
1 54 0.00000000000000000e+00
2 54 -9.32820608707154129e-03
3 54 -2.81303212139980101e-02
4 54 -4.71968931675928113e-02
5 54 -6.64719870376281052e-02
6 54 -8.58944075527648121e-02
7 54 -1.05398036179434912e-01
8 54 -1.24912293538680011e-01
9 54 -1.44362728184315614e-01
10 54 -1.63671728338816519e-01
11 54 -1.82759348322138582e-01
12 54 -2.01544236363569967e-01
13 54 -2.19944645534851685e-01
14 54 -2.37879504991040797e-01
15 54 -2.55269524867445086e-01
16 54 -2.72038305349718956e-01
17 54 -2.88113418854893832e-01
18 54 -3.03427434104489191e-01
19 54 -3.17918852213008474e-01
20 54 -3.31532927725461168e-01
21 54 -3.44222351677179128e-01
22 54 -3.55947778980521989e-01
23 54 -3.66678188449576947e-01
24 54 -3.76391070188137222e-01
25 54 -3.85072441501979668e-01
26 54 -3.92716698582521173e-01
27 54 -3.99326316618936306e-01
28 54 -4.04911415472308134e-01
29 54 -4.09489211414980903e-01
30 54 -4.13083377617752323e-01
31 54 -4.15723337060531162e-01
32 54 -4.17443511428578107e-01
33 54 -4.18282548476454130e-01
34 54 -4.18282548476454352e-01
35 54 -4.18282548476454186e-01
36 54 -4.17443511428578107e-01
37 54 -4.15723337060531162e-01
38 54 -4.13083377617752323e-01
39 54 -4.09489211414980903e-01
40 54 -4.04911415472308245e-01
41 54 -3.99326316618936417e-01
42 54 -3.92716698582521229e-01
43 54 -3.85072441501979668e-01
44 54 -3.76391070188137222e-01
45 54 -3.66678188449576947e-01
46 54 -3.55947778980522045e-01
47 54 -3.44222351677179184e-01
48 54 -3.31532927725461168e-01
49 54 -3.17918852213008529e-01
50 54 -3.03427434104489191e-01
51 54 -2.88113418854893832e-01
52 54 -2.72038305349718845e-01
53 54 -2.55269524867445086e-01
54 54 -2.37879504991040797e-01
55 54 -2.19944645534851629e-01
56 54 -2.01544236363569967e-01
57 54 -1.82759348322138582e-01
58 54 -1.63671728338816547e-01
59 54 -1.44362728184315531e-01
60 54 -1.24912293538680094e-01
61 54 -1.05398036179434898e-01
62 54 -8.58944075527648399e-02
63 54 -6.64719870376281330e-02
64 54 -4.71968931675928460e-02
65 54 -2.81303212139980691e-02
66 54 -9.32820608707159160e-03
67 54 -5.12248384130887497e-17
68 54 9.32820608707149793e-03
69 54 2.81303212139979858e-02
70 54 4.71968931675928044e-02
71 54 6.64719870376281052e-02
72 54 8.58944075527648121e-02
73 54 1.05398036179434912e-01
74 54 1.24912293538680011e-01
75 54 1.44362728184315614e-01
76 54 1.63671728338816519e-01
77 54 1.82759348322138582e-01
78 54 2.01544236363569967e-01
79 54 2.19944645534851685e-01
80 54 2.37879504991040797e-01
81 54 2.55269524867445086e-01
82 54 2.72038305349718956e-01
83 54 2.88113418854893832e-01
84 54 3.03427434104489191e-01
85 54 3.17918852213008474e-01
86 54 3.31532927725461168e-01
87 54 3.44222351677179128e-01
88 54 3.55947778980521989e-01
89 54 3.66678188449576947e-01
90 54 3.76391070188137222e-01
91 54 3.85072441501979668e-01
92 54 3.92716698582521173e-01
93 54 3.99326316618936306e-01
94 54 4.04911415472308134e-01
95 54 4.09489211414980903e-01
96 54 4.13083377617752323e-01
97 54 4.15723337060531162e-01
98 54 4.17443511428578107e-01
99 54 4.18282548476454130e-01
100 54 4.18282548476454352e-01
101 54 4.18282548476454186e-01
102 54 4.17443511428578107e-01
103 54 4.15723337060531162e-01
104 54 4.13083377617752323e-01
105 54 4.09489211414980903e-01
106 54 4.04911415472308245e-01
107 54 3.99326316618936417e-01
108 54 3.92716698582521229e-01
109 54 3.85072441501979668e-01
110 54 3.76391070188137222e-01
111 54 3.66678188449576947e-01
112 54 3.55947778980522045e-01
113 54 3.44222351677179184e-01
114 54 3.31532927725461168e-01
115 54 3.17918852213008529e-01
116 54 3.03427434104489191e-01
117 54 2.88113418854893832e-01
118 54 2.72038305349718845e-01
119 54 2.55269524867445086e-01
120 54 2.37879504991040797e-01
121 54 2.19944645534851629e-01
122 54 2.01544236363569967e-01
123 54 1.82759348322138582e-01
124 54 1.63671728338816547e-01
125 54 1.44362728184315559e-01
126 54 1.24912293538680122e-01
127 54 1.05398036179434981e-01
128 54 8.58944075527649370e-02
129 54 6.64719870376281885e-02
130 54 4.71968931675929085e-02
131 54 2.81303212139980968e-02
132 54 9.32820608707164017e-03
133 54 1.02449676826177499e-16
1 55 0.00000000000000000e+00
2 55 -8.43423879991286700e-03
3 55 -2.54344559310221881e-02
4 55 -4.26737857068959919e-02
5 55 -6.01016537313739038e-02
6 55 -7.76627293731339402e-02
7 55 -9.52972305587519442e-02
8 55 -1.12941341873889101e-01
9 55 -1.30527746915985510e-01
10 55 -1.47986271821039489e-01
11 55 -1.65244632491742427e-01
12 55 -1.82229273492614530e-01
13 55 -1.98866282100495478e-01
14 55 -2.15082356883193854e-01
15 55 -2.30805806708783035e-01
16 55 -2.45967553528124189e-01
17 55 -2.60502110845233559e-01
18 55 -2.74348509648493999e-01
19 55 -2.87451144789245272e-01
20 55 -2.99760517335292798e-01
21 55 -3.11233852169785330e-01
22 55 -3.21835574835891092e-01
23 55 -3.31537637058582413e-01
24 55 -3.40319686174314184e-01
25 55 -3.48169079518350688e-01
26 55 -3.55080750322297578e-01
27 55 -3.61056936565931241e-01
28 55 -3.66106788274904948e-01
29 55 -3.70245871802582005e-01
30 55 -3.73495591604845412e-01
31 55 -3.75882550914560964e-01
32 55 -3.77437872619739101e-01
33 55 -3.78196500672947411e-01
34 55 -3.78196500672947522e-01
35 55 -3.78196500672947411e-01
36 55 -3.77437872619739101e-01
37 55 -3.75882550914560964e-01
38 55 -3.73495591604845412e-01
39 55 -3.70245871802582005e-01
40 55 -3.66106788274904948e-01
41 55 -3.61056936565931297e-01
42 55 -3.55080750322297634e-01
43 55 -3.48169079518350688e-01
44 55 -3.40319686174314184e-01
45 55 -3.31537637058582413e-01
46 55 -3.21835574835891147e-01
47 55 -3.11233852169785441e-01
48 55 -2.99760517335292798e-01
49 55 -2.87451144789245272e-01
50 55 -2.74348509648493999e-01
51 55 -2.60502110845233559e-01
52 55 -2.45967553528124133e-01
53 55 -2.30805806708783035e-01
54 55 -2.15082356883193854e-01
55 55 -1.98866282100495423e-01
56 55 -1.82229273492614530e-01
57 55 -1.65244632491742427e-01
58 55 -1.47986271821039517e-01
59 55 -1.30527746915985399e-01
60 55 -1.12941341873889184e-01
61 55 -9.52972305587519442e-02
62 55 -7.76627293731339680e-02
63 55 -6.01016537313739316e-02
64 55 -4.26737857068960197e-02
65 55 -2.54344559310222401e-02
66 55 -8.43423879991291037e-03
67 55 -4.63157133997855107e-17
68 55 8.43423879991282710e-03
69 55 2.54344559310221638e-02
70 55 4.26737857068959850e-02
71 55 6.01016537313739038e-02
72 55 7.76627293731339263e-02
73 55 9.52972305587519442e-02
74 55 1.12941341873889101e-01
75 55 1.30527746915985510e-01
76 55 1.47986271821039489e-01
77 55 1.65244632491742427e-01
78 55 1.82229273492614530e-01
79 55 1.98866282100495478e-01
80 55 2.15082356883193854e-01
81 55 2.30805806708783035e-01
82 55 2.45967553528124189e-01
83 55 2.60502110845233559e-01
84 55 2.74348509648493999e-01
85 55 2.87451144789245272e-01
86 55 2.99760517335292798e-01
87 55 3.11233852169785330e-01
88 55 3.21835574835891092e-01
89 55 3.31537637058582413e-01
90 55 3.40319686174314184e-01
91 55 3.48169079518350688e-01
92 55 3.55080750322297578e-01
93 55 3.61056936565931241e-01
94 55 3.66106788274904948e-01
95 55 3.70245871802582005e-01
96 55 3.73495591604845412e-01
97 55 3.75882550914560964e-01
98 55 3.77437872619739101e-01
99 55 3.78196500672947411e-01
100 55 3.78196500672947522e-01
101 55 3.78196500672947411e-01
102 55 3.77437872619739101e-01
103 55 3.75882550914560964e-01
104 55 3.73495591604845412e-01
105 55 3.70245871802582005e-01
106 55 3.66106788274904948e-01
107 55 3.61056936565931297e-01
108 55 3.55080750322297634e-01
109 55 3.48169079518350688e-01
110 55 3.40319686174314184e-01
111 55 3.31537637058582413e-01
112 55 3.21835574835891147e-01
113 55 3.11233852169785441e-01
114 55 2.99760517335292798e-01
115 55 2.87451144789245272e-01
116 55 2.74348509648493999e-01
117 55 2.60502110845233559e-01
118 55 2.45967553528124133e-01
119 55 2.30805806708783035e-01
120 55 2.15082356883193854e-01
121 55 1.98866282100495423e-01
122 55 1.82229273492614530e-01
123 55 1.65244632491742427e-01
124 55 1.47986271821039544e-01
125 55 1.30527746915985426e-01
126 55 1.12941341873889198e-01
127 55 9.52972305587520135e-02
128 55 7.76627293731340512e-02
129 55 6.01016537313739940e-02
130 55 4.26737857068960752e-02
131 55 2.54344559310222644e-02
132 55 8.43423879991295720e-03
133 55 9.26314267995710213e-17
1 56 0.00000000000000000e+00
2 56 -7.55034359983640380e-03
3 56 -2.27689642313777460e-02
4 56 -3.82016388718067756e-02
5 56 -5.38030932435717424e-02
6 56 -6.95237952800585035e-02
7 56 -8.53102279768080812e-02
8 56 -1.01105263676345453e-01
9 56 -1.16848640631132997e-01
10 56 -1.32477539089737306e-01
11 56 -1.47927250216609379e-01
12 56 -1.63131927072306032e-01
13 56 -1.78025402872900446e-01
14 56 -1.92542058063085497e-01
15 56 -2.06617714630837918e-01
16 56 -2.20190533799881988e-01
17 56 -2.33201891957873164e-01
18 56 -2.45597209551449036e-01
19 56 -2.57326708765650169e-01
20 56 -2.68346078079928052e-01
21 56 -2.78617025143613972e-01
22 56 -2.88107703648009583e-01
23 56 -2.96793004733991228e-01
24 56 -3.04654708665719975e-01
25 56 -3.11681497710198652e-01
26 56 -3.17868836088535278e-01
27 56 -3.23218727243682058e-01
28 56 -3.27739362292735426e-01
29 56 -3.31444676259267657e-01
30 56 -3.34353830445242861e-01
31 56 -3.36490640105809591e-01
32 56 -3.37882966498382176e-01
33 56 -3.38562091503267881e-01
34 56 -3.38562091503267992e-01
35 56 -3.38562091503267881e-01
36 56 -3.37882966498382176e-01
37 56 -3.36490640105809591e-01
38 56 -3.34353830445242861e-01
39 56 -3.31444676259267657e-01
40 56 -3.27739362292735481e-01
41 56 -3.23218727243682113e-01
42 56 -3.17868836088535334e-01
43 56 -3.11681497710198652e-01
44 56 -3.04654708665719975e-01
45 56 -2.96793004733991228e-01
46 56 -2.88107703648009583e-01
47 56 -2.78617025143614083e-01
48 56 -2.68346078079928052e-01
49 56 -2.57326708765650169e-01
50 56 -2.45597209551449036e-01
51 56 -2.33201891957873164e-01
52 56 -2.20190533799881932e-01
53 56 -2.06617714630837918e-01
54 56 -1.92542058063085497e-01
55 56 -1.78025402872900390e-01
56 56 -1.63131927072306032e-01
57 56 -1.47927250216609379e-01
58 56 -1.32477539089737334e-01
59 56 -1.16848640631132913e-01
60 56 -1.01105263676345522e-01
61 56 -8.53102279768080812e-02
62 56 -6.95237952800585313e-02
63 56 -5.38030932435717771e-02
64 56 -3.82016388718068034e-02
65 56 -2.27689642313777946e-02
66 56 -7.55034359983644196e-03
67 56 -4.14618981672110503e-17
68 56 7.55034359983636737e-03
69 56 2.27689642313777252e-02
70 56 3.82016388718067687e-02
71 56 5.38030932435717354e-02
72 56 6.95237952800584896e-02
73 56 8.53102279768080812e-02
74 56 1.01105263676345453e-01
75 56 1.16848640631132997e-01
76 56 1.32477539089737306e-01
77 56 1.47927250216609379e-01
78 56 1.63131927072306032e-01
79 56 1.78025402872900446e-01
80 56 1.92542058063085497e-01
81 56 2.06617714630837918e-01
82 56 2.20190533799881988e-01
83 56 2.33201891957873164e-01
84 56 2.45597209551449036e-01
85 56 2.57326708765650169e-01
86 56 2.68346078079928052e-01
87 56 2.78617025143613972e-01
88 56 2.88107703648009583e-01
89 56 2.96793004733991228e-01
90 56 3.04654708665719975e-01
91 56 3.11681497710198652e-01
92 56 3.17868836088535278e-01
93 56 3.23218727243682058e-01
94 56 3.27739362292735426e-01
95 56 3.31444676259267657e-01
96 56 3.34353830445242861e-01
97 56 3.36490640105809591e-01
98 56 3.37882966498382176e-01
99 56 3.38562091503267881e-01
100 56 3.38562091503267992e-01
101 56 3.38562091503267881e-01
102 56 3.37882966498382176e-01
103 56 3.36490640105809591e-01
104 56 3.34353830445242861e-01
105 56 3.31444676259267657e-01
106 56 3.27739362292735481e-01
107 56 3.23218727243682113e-01
108 56 3.17868836088535334e-01
109 56 3.11681497710198652e-01
110 56 3.04654708665719975e-01
111 56 2.96793004733991228e-01
112 56 2.88107703648009583e-01
113 56 2.78617025143614083e-01
114 56 2.68346078079928052e-01
115 56 2.57326708765650169e-01
116 56 2.45597209551449036e-01
117 56 2.33201891957873164e-01
118 56 2.20190533799881932e-01
119 56 2.06617714630837918e-01
120 56 1.92542058063085497e-01
121 56 1.78025402872900390e-01
122 56 1.63131927072306032e-01
123 56 1.47927250216609379e-01
124 56 1.32477539089737334e-01
125 56 1.16848640631132927e-01
126 56 1.01105263676345536e-01
127 56 8.53102279768081367e-02
128 56 6.95237952800586007e-02
129 56 5.38030932435718257e-02
130 56 3.82016388718068520e-02
131 56 2.27689642313778154e-02
132 56 7.55034359983648359e-03
133 56 8.29237963344221007e-17
1 57 0.00000000000000000e+00
2 57 -6.67904196888885558e-03
3 57 -2.01414499457741522e-02
4 57 -3.37932103263038006e-02
5 57 -4.75942734364621992e-02
6 57 -6.15008231575062334e-02
7 57 -7.54655182904422073e-02
8 57 -8.94378236487829437e-02
9 57 -1.03364431626642647e-01
10 57 -1.17189771805172052e-01
11 57 -1.30856602679706502e-01
12 57 -1.44306675977667581e-01
13 57 -1.57481460491706915e-01
14 57 -1.70322909093494373e-01
15 57 -1.82774249845420123e-01
16 57 -1.94780780100301282e-01
17 57 -2.06290641348384152e-01
18 57 -2.17255552458786277e-01
19 57 -2.27631479923517205e-01
20 57 -2.37379225724429238e-01
21 57 -2.46464916407444029e-01
22 57 -2.54860380694057809e-01
23 57 -2.62543407260817541e-01
24 57 -2.69497878910045896e-01
25 57 -2.75713783963111081e-01
26 57 -2.81187110065187096e-01
27 57 -2.85919629464037595e-01
28 57 -2.89918588030547264e-01
29 57 -2.93196312701370920e-01
30 57 -2.95769753584580242e-01
31 57 -2.97659977680177823e-01
32 57 -2.98891631086068643e-01
33 57 -2.99492385786801929e-01
34 57 -2.99492385786802040e-01
35 57 -2.99492385786801929e-01
36 57 -2.98891631086068588e-01
37 57 -2.97659977680177823e-01
38 57 -2.95769753584580242e-01
39 57 -2.93196312701370920e-01
40 57 -2.89918588030547320e-01
41 57 -2.85919629464037650e-01
42 57 -2.81187110065187151e-01
43 57 -2.75713783963111081e-01
44 57 -2.69497878910045896e-01
45 57 -2.62543407260817541e-01
46 57 -2.54860380694057809e-01
47 57 -2.46464916407444112e-01
48 57 -2.37379225724429238e-01
49 57 -2.27631479923517205e-01
50 57 -2.17255552458786277e-01
51 57 -2.06290641348384152e-01
52 57 -1.94780780100301254e-01
53 57 -1.82774249845420123e-01
54 57 -1.70322909093494373e-01
55 57 -1.57481460491706859e-01
56 57 -1.44306675977667581e-01
57 57 -1.30856602679706474e-01
58 57 -1.17189771805172080e-01
59 57 -1.03364431626642578e-01
60 57 -8.94378236487829992e-02
61 57 -7.54655182904422073e-02
62 57 -6.15008231575062611e-02
63 57 -4.75942734364622339e-02
64 57 -3.37932103263038283e-02
65 57 -2.01414499457741973e-02
66 57 -6.67904196888888940e-03
67 57 -3.66772391622811454e-17
68 57 6.67904196888882348e-03
69 57 2.01414499457741383e-02
70 57 3.37932103263037936e-02
71 57 4.75942734364621922e-02
72 57 6.15008231575062125e-02
73 57 7.54655182904422073e-02
74 57 8.94378236487829437e-02
75 57 1.03364431626642647e-01
76 57 1.17189771805172052e-01
77 57 1.30856602679706502e-01
78 57 1.44306675977667581e-01
79 57 1.57481460491706915e-01
80 57 1.70322909093494373e-01
81 57 1.82774249845420123e-01
82 57 1.94780780100301282e-01
83 57 2.06290641348384152e-01
84 57 2.17255552458786277e-01
85 57 2.27631479923517205e-01
86 57 2.37379225724429238e-01
87 57 2.46464916407444029e-01
88 57 2.54860380694057809e-01
89 57 2.62543407260817541e-01
90 57 2.69497878910045896e-01
91 57 2.75713783963111081e-01
92 57 2.81187110065187096e-01
93 57 2.85919629464037595e-01
94 57 2.89918588030547264e-01
95 57 2.93196312701370920e-01
96 57 2.95769753584580242e-01
97 57 2.97659977680177823e-01
98 57 2.98891631086068643e-01
99 57 2.99492385786801929e-01
100 57 2.99492385786802040e-01
101 57 2.99492385786801929e-01
102 57 2.98891631086068588e-01
103 57 2.97659977680177823e-01
104 57 2.95769753584580242e-01
105 57 2.93196312701370920e-01
106 57 2.89918588030547320e-01
107 57 2.85919629464037650e-01
108 57 2.81187110065187151e-01
109 57 2.75713783963111081e-01
110 57 2.69497878910045896e-01
111 57 2.62543407260817541e-01
112 57 2.54860380694057809e-01
113 57 2.46464916407444112e-01
114 57 2.37379225724429238e-01
115 57 2.27631479923517205e-01
116 57 2.17255552458786277e-01
117 57 2.06290641348384152e-01
118 57 1.94780780100301254e-01
119 57 1.82774249845420123e-01
120 57 1.70322909093494373e-01
121 57 1.57481460491706859e-01
122 57 1.44306675977667581e-01
123 57 1.30856602679706474e-01
124 57 1.17189771805172080e-01
125 57 1.03364431626642578e-01
126 57 8.94378236487830131e-02
127 57 7.54655182904422489e-02
128 57 6.15008231575063166e-02
129 57 4.75942734364622755e-02
130 57 3.37932103263038630e-02
131 57 2.01414499457742147e-02
132 57 6.67904196888892670e-03
133 57 7.33544783245622907e-17
1 58 0.00000000000000000e+00
2 58 -5.82248285857631716e-03
3 58 -1.75583934945168184e-02
4 58 -2.94593728827701393e-02
5 58 -4.14905075519831218e-02
6 58 -5.36136006168091012e-02
7 58 -6.57873821884033538e-02
8 58 -7.79677980059232528e-02
9 58 -9.01083769402835355e-02
10 58 -1.02160675245704394e-01
11 58 -1.14074792400335273e-01
12 58 -1.25799950228172919e-01
13 58 -1.37285123903641310e-01
14 58 -1.48479710599079467e-01
15 58 -1.59334219139687039e-01
16 58 -1.69800962263275124e-01
17 58 -1.79834732096391309e-01
18 58 -1.89393439360623472e-01
19 58 -1.98438697660636487e-01
20 58 -2.06936335959653162e-01
21 58 -2.14856824931963175e-01
22 58 -2.22175606147337196e-01
23 58 -2.28873316791366438e-01
24 58 -2.34935906629355346e-01
25 58 -2.40354647938452293e-01
26 58 -2.45126042931503585e-01
27 58 -2.49251636572932839e-01
28 58 -2.52737745481084075e-01
29 58 -2.55595115714704335e-01
30 58 -2.57838523601619962e-01
31 58 -2.59486334387470707e-01
32 58 -2.60560033411508962e-01
33 58 -2.61083743842364491e-01
34 58 -2.61083743842364546e-01
35 58 -2.61083743842364491e-01
36 58 -2.60560033411508907e-01
37 58 -2.59486334387470707e-01
38 58 -2.57838523601619962e-01
39 58 -2.55595115714704335e-01
40 58 -2.52737745481084131e-01
41 58 -2.49251636572932922e-01
42 58 -2.45126042931503613e-01
43 58 -2.40354647938452293e-01
44 58 -2.34935906629355318e-01
45 58 -2.28873316791366438e-01
46 58 -2.22175606147337196e-01
47 58 -2.14856824931963258e-01
48 58 -2.06936335959653162e-01
49 58 -1.98438697660636515e-01
50 58 -1.89393439360623472e-01
51 58 -1.79834732096391309e-01
52 58 -1.69800962263275068e-01
53 58 -1.59334219139687039e-01
54 58 -1.48479710599079467e-01
55 58 -1.37285123903641254e-01
56 58 -1.25799950228172919e-01
57 58 -1.14074792400335259e-01
58 58 -1.02160675245704408e-01
59 58 -9.01083769402834800e-02
60 58 -7.79677980059232945e-02
61 58 -6.57873821884033538e-02
62 58 -5.36136006168091220e-02
63 58 -4.14905075519831495e-02
64 58 -2.94593728827701670e-02
65 58 -1.75583934945168565e-02
66 58 -5.82248285857634579e-03
67 58 -3.19735371205959328e-17
68 58 5.82248285857628854e-03
69 58 1.75583934945168045e-02
70 58 2.94593728827701358e-02
71 58 4.14905075519831149e-02
72 58 5.36136006168090803e-02
73 58 6.57873821884033538e-02
74 58 7.79677980059232528e-02
75 58 9.01083769402835355e-02
76 58 1.02160675245704394e-01
77 58 1.14074792400335273e-01
78 58 1.25799950228172919e-01
79 58 1.37285123903641310e-01
80 58 1.48479710599079467e-01
81 58 1.59334219139687039e-01
82 58 1.69800962263275124e-01
83 58 1.79834732096391309e-01
84 58 1.89393439360623472e-01
85 58 1.98438697660636487e-01
86 58 2.06936335959653162e-01
87 58 2.14856824931963175e-01
88 58 2.22175606147337196e-01
89 58 2.28873316791366438e-01
90 58 2.34935906629355346e-01
91 58 2.40354647938452293e-01
92 58 2.45126042931503585e-01
93 58 2.49251636572932839e-01
94 58 2.52737745481084075e-01
95 58 2.55595115714704335e-01
96 58 2.57838523601619962e-01
97 58 2.59486334387470707e-01
98 58 2.60560033411508962e-01
99 58 2.61083743842364491e-01
100 58 2.61083743842364546e-01
101 58 2.61083743842364491e-01
102 58 2.60560033411508907e-01
103 58 2.59486334387470707e-01
104 58 2.57838523601619962e-01
105 58 2.55595115714704335e-01
106 58 2.52737745481084131e-01
107 58 2.49251636572932922e-01
108 58 2.45126042931503613e-01
109 58 2.40354647938452293e-01
110 58 2.34935906629355318e-01
111 58 2.28873316791366438e-01
112 58 2.22175606147337196e-01
113 58 2.14856824931963258e-01
114 58 2.06936335959653162e-01
115 58 1.98438697660636515e-01
116 58 1.89393439360623472e-01
117 58 1.79834732096391309e-01
118 58 1.69800962263275068e-01
119 58 1.59334219139687039e-01
120 58 1.48479710599079467e-01
121 58 1.37285123903641254e-01
122 58 1.25799950228172919e-01
123 58 1.14074792400335259e-01
124 58 1.02160675245704408e-01
125 58 9.01083769402834800e-02
126 58 7.79677980059233083e-02
127 58 6.57873821884033955e-02
128 58 5.36136006168091775e-02
129 58 4.14905075519831912e-02
130 58 2.94593728827701948e-02
131 58 1.75583934945168739e-02
132 58 5.82248285857637788e-03
133 58 6.39470742411918656e-17
1 59 0.00000000000000000e+00
2 59 -4.98246819941875873e-03
3 59 -1.50252288146198905e-02
4 59 -2.52092435698662645e-02
5 59 -3.55046359906411313e-02
6 59 -4.58787198894229295e-02
7 59 -5.62961794200757398e-02
8 59 -6.67193160682322955e-02
9 59 -7.71083631349632065e-02
10 59 -8.74218658957684608e-02
11 59 -9.76171230204262164e-02
12 59 -1.07650682144488904e-01
13 59 -1.17478879838284256e-01
14 59 -1.27058413788049329e-01
15 59 -1.36346932953758021e-01
16 59 -1.45303629955956526e-01
17 59 -1.53889819100360925e-01
18 59 -1.62069483365312489e-01
19 59 -1.69809774394071855e-01
20 59 -1.77081451035017073e-01
21 59 -1.83859244183906034e-01
22 59 -1.90122138476568753e-01
23 59 -1.95853564588649054e-01
24 59 -2.01041499325014278e-01
25 59 -2.05678474118969085e-01
26 59 -2.09761495812150506e-01
27 59 -2.13291886475622833e-01
28 59 -2.16275051423715253e-01
29 59 -2.18720186371945902e-01
30 59 -2.20639935854491459e-01
31 59 -2.22050015547052032e-01
32 59 -2.22968811080324847e-01
33 59 -2.23416965352449176e-01
34 59 -2.23416965352449259e-01
35 59 -2.23416965352449176e-01
36 59 -2.22968811080324875e-01
37 59 -2.22050015547052032e-01
38 59 -2.20639935854491459e-01
39 59 -2.18720186371945902e-01
40 59 -2.16275051423715337e-01
41 59 -2.13291886475622888e-01
42 59 -2.09761495812150478e-01
43 59 -2.05678474118969085e-01
44 59 -2.01041499325014278e-01
45 59 -1.95853564588649054e-01
46 59 -1.90122138476568753e-01
47 59 -1.83859244183906062e-01
48 59 -1.77081451035017101e-01
49 59 -1.69809774394071883e-01
50 59 -1.62069483365312489e-01
51 59 -1.53889819100360925e-01
52 59 -1.45303629955956470e-01
53 59 -1.36346932953758021e-01
54 59 -1.27058413788049329e-01
55 59 -1.17478879838284214e-01
56 59 -1.07650682144488904e-01
57 59 -9.76171230204262025e-02
58 59 -8.74218658957684747e-02
59 59 -7.71083631349631926e-02
60 59 -6.67193160682323233e-02
61 59 -5.62961794200757398e-02
62 59 -4.58787198894229364e-02
63 59 -3.55046359906411521e-02
64 59 -2.52092435698662853e-02
65 59 -1.50252288146199217e-02
66 59 -4.98246819941878388e-03
67 59 -2.73606871494092121e-17
68 59 4.98246819941873444e-03
69 59 1.50252288146198783e-02
70 59 2.52092435698662576e-02
71 59 3.55046359906411244e-02
72 59 4.58787198894229087e-02
73 59 5.62961794200757329e-02
74 59 6.67193160682322955e-02
75 59 7.71083631349632065e-02
76 59 8.74218658957684608e-02
77 59 9.76171230204262164e-02
78 59 1.07650682144488904e-01
79 59 1.17478879838284256e-01
80 59 1.27058413788049329e-01
81 59 1.36346932953758021e-01
82 59 1.45303629955956526e-01
83 59 1.53889819100360925e-01
84 59 1.62069483365312489e-01
85 59 1.69809774394071855e-01
86 59 1.77081451035017073e-01
87 59 1.83859244183906034e-01
88 59 1.90122138476568753e-01
89 59 1.95853564588649054e-01
90 59 2.01041499325014278e-01
91 59 2.05678474118969085e-01
92 59 2.09761495812150506e-01
93 59 2.13291886475622833e-01
94 59 2.16275051423715253e-01
95 59 2.18720186371945902e-01
96 59 2.20639935854491459e-01
97 59 2.22050015547052032e-01
98 59 2.22968811080324847e-01
99 59 2.23416965352449176e-01
100 59 2.23416965352449259e-01
101 59 2.23416965352449176e-01
102 59 2.22968811080324875e-01
103 59 2.22050015547052032e-01
104 59 2.20639935854491459e-01
105 59 2.18720186371945902e-01
106 59 2.16275051423715337e-01
107 59 2.13291886475622888e-01
108 59 2.09761495812150478e-01
109 59 2.05678474118969085e-01
110 59 2.01041499325014278e-01
111 59 1.95853564588649054e-01
112 59 1.90122138476568753e-01
113 59 1.83859244183906062e-01
114 59 1.77081451035017101e-01
115 59 1.69809774394071883e-01
116 59 1.62069483365312489e-01
117 59 1.53889819100360925e-01
118 59 1.45303629955956470e-01
119 59 1.36346932953758021e-01
120 59 1.27058413788049329e-01
121 59 1.17478879838284214e-01
122 59 1.07650682144488904e-01
123 59 9.76171230204262025e-02
124 59 8.74218658957684747e-02
125 59 7.71083631349631926e-02
126 59 6.67193160682323372e-02
127 59 5.62961794200757745e-02
128 59 4.58787198894229850e-02
129 59 3.55046359906411868e-02
130 59 2.52092435698663062e-02
131 59 1.50252288146199391e-02
132 59 4.98246819941881164e-03
133 59 5.47213742988184242e-17
1 60 0.00000000000000000e+00
2 60 -4.16048027431403789e-03
3 60 -1.25464259074595675e-02
4 60 -2.10503221305139293e-02
5 60 -2.96472213717279415e-02
6 60 -3.83098298817020899e-02
7 60 -4.70086580831147807e-02
8 60 -5.57122268136074211e-02
9 60 -6.43873299271800204e-02
10 60 -7.29993517360536248e-02
11 60 -8.15126356068160141e-02
12 60 -8.98908977744894977e-02
13 60 -9.80976782295788774e-02
14 60 -1.06096818503021828e-01
15 60 -1.13852954462108746e-01
16 60 -1.21332010967677942e-01
17 60 -1.28501684538497946e-01
18 60 -1.35331900098892760e-01
19 60 -1.41795228484282165e-01
20 60 -1.47867252632749802e-01
21 60 -1.53526872237070205e-01
22 60 -1.58756538964853200e-01
23 60 -1.63542417033433807e-01
24 60 -1.67874466786926274e-01
25 60 -1.71746451793271304e-01
26 60 -1.75155872693551096e-01
27 60 -1.78103833448767263e-01
28 60 -1.80594847625839466e-01
29 60 -1.82636593867458452e-01
30 60 -1.84239630662492521e-01
31 60 -1.85417080976534338e-01
32 60 -1.86184297251543451e-01
33 60 -1.86558516801853980e-01
34 60 -1.86558516801854035e-01
35 60 -1.86558516801853980e-01
36 60 -1.86184297251543451e-01
37 60 -1.85417080976534393e-01
38 60 -1.84239630662492521e-01
39 60 -1.82636593867458452e-01
40 60 -1.80594847625839522e-01
41 60 -1.78103833448767290e-01
42 60 -1.75155872693551068e-01
43 60 -1.71746451793271304e-01
44 60 -1.67874466786926274e-01
45 60 -1.63542417033433807e-01
46 60 -1.58756538964853200e-01
47 60 -1.53526872237070233e-01
48 60 -1.47867252632749829e-01
49 60 -1.41795228484282221e-01
50 60 -1.35331900098892788e-01
51 60 -1.28501684538497946e-01
52 60 -1.21332010967677914e-01
53 60 -1.13852954462108746e-01
54 60 -1.06096818503021828e-01
55 60 -9.80976782295788635e-02
56 60 -8.98908977744894977e-02
57 60 -8.15126356068160141e-02
58 60 -7.29993517360536387e-02
59 60 -6.43873299271800065e-02
60 60 -5.57122268136074489e-02
61 60 -4.70086580831147807e-02
62 60 -3.83098298817020969e-02
63 60 -2.96472213717279588e-02
64 60 -2.10503221305139432e-02
65 60 -1.25464259074595935e-02
66 60 -4.16048027431405957e-03
67 60 -2.28468290455068285e-17
68 60 4.16048027431401794e-03
69 60 1.25464259074595588e-02
70 60 2.10503221305139224e-02
71 60 2.96472213717279345e-02
72 60 3.83098298817020760e-02
73 60 4.70086580831147668e-02
74 60 5.57122268136074211e-02
75 60 6.43873299271800204e-02
76 60 7.29993517360536248e-02
77 60 8.15126356068160141e-02
78 60 8.98908977744894977e-02
79 60 9.80976782295788774e-02
80 60 1.06096818503021828e-01
81 60 1.13852954462108746e-01
82 60 1.21332010967677942e-01
83 60 1.28501684538497946e-01
84 60 1.35331900098892760e-01
85 60 1.41795228484282165e-01
86 60 1.47867252632749802e-01
87 60 1.53526872237070205e-01
88 60 1.58756538964853200e-01
89 60 1.63542417033433807e-01
90 60 1.67874466786926274e-01
91 60 1.71746451793271304e-01
92 60 1.75155872693551096e-01
93 60 1.78103833448767263e-01
94 60 1.80594847625839466e-01
95 60 1.82636593867458452e-01
96 60 1.84239630662492521e-01
97 60 1.85417080976534338e-01
98 60 1.86184297251543451e-01
99 60 1.86558516801853980e-01
100 60 1.86558516801854035e-01
101 60 1.86558516801853980e-01
102 60 1.86184297251543451e-01
103 60 1.85417080976534393e-01
104 60 1.84239630662492521e-01
105 60 1.82636593867458452e-01
106 60 1.80594847625839522e-01
107 60 1.78103833448767290e-01
108 60 1.75155872693551068e-01
109 60 1.71746451793271304e-01
110 60 1.67874466786926274e-01
111 60 1.63542417033433807e-01
112 60 1.58756538964853200e-01
113 60 1.53526872237070233e-01
114 60 1.47867252632749829e-01
115 60 1.41795228484282221e-01
116 60 1.35331900098892788e-01
117 60 1.28501684538497946e-01
118 60 1.21332010967677914e-01
119 60 1.13852954462108746e-01
120 60 1.06096818503021828e-01
121 60 9.80976782295788635e-02
122 60 8.98908977744894977e-02
123 60 8.15126356068160141e-02
124 60 7.29993517360536387e-02
125 60 6.43873299271800065e-02
126 60 5.57122268136074697e-02
127 60 4.70086580831148085e-02
128 60 3.83098298817021385e-02
129 60 2.96472213717279831e-02
130 60 2.10503221305139605e-02
131 60 1.25464259074596074e-02
132 60 4.16048027431408212e-03
133 60 4.56936580910136570e-17
1 61 0.00000000000000000e+00
2 61 -3.35770995800281982e-03
3 61 -1.01255759982583522e-02
4 61 -1.69886339019952003e-02
5 61 -2.39267497652966912e-02
6 61 -3.09178962047581343e-02
7 61 -3.79382736970309137e-02
8 61 -4.49624770268629362e-02
9 61 -5.19637072191984906e-02
10 61 -5.89140277302024895e-02
11 61 -6.57846619222794138e-02
12 61 -7.25463270321551612e-02
13 61 -7.91695980586570036e-02
14 61 -8.56252933584091686e-02
15 61 -9.18848723561112302e-02
16 61 -9.79208347569559129e-02
17 61 -1.03707110080263676e-01
18 61 -1.09219426277033696e-01
19 61 -1.14435646677223515e-01
20 61 -1.19336065524156945e-01
21 61 -1.23903653843529013e-01
22 61 -1.28124249277504043e-01
23 61 -1.31986685676462767e-01
24 61 -1.35482860549750367e-01
25 61 -1.38607740793338541e-01
26 61 -1.41359309303005332e-01
27 61 -1.43738457028978611e-01
28 61 -1.45748826639314183e-01
29 61 -1.47396615172172729e-01
30 61 -1.48690343841663491e-01
31 61 -1.49640603519355070e-01
32 61 -1.50259784372691663e-01
33 61 -1.50561797752808979e-01
34 61 -1.50561797752809007e-01
35 61 -1.50561797752808979e-01
36 61 -1.50259784372691663e-01
37 61 -1.49640603519355070e-01
38 61 -1.48690343841663491e-01
39 61 -1.47396615172172729e-01
40 61 -1.45748826639314211e-01
41 61 -1.43738457028978639e-01
42 61 -1.41359309303005304e-01
43 61 -1.38607740793338541e-01
44 61 -1.35482860549750367e-01
45 61 -1.31986685676462767e-01
46 61 -1.28124249277504043e-01
47 61 -1.23903653843529027e-01
48 61 -1.19336065524156973e-01
49 61 -1.14435646677223571e-01
50 61 -1.09219426277033696e-01
51 61 -1.03707110080263676e-01
52 61 -9.79208347569558990e-02
53 61 -9.18848723561112302e-02
54 61 -8.56252933584091686e-02
55 61 -7.91695980586569897e-02
56 61 -7.25463270321551612e-02
57 61 -6.57846619222794277e-02
58 61 -5.89140277302024895e-02
59 61 -5.19637072191984836e-02
60 61 -4.49624770268629501e-02
61 61 -3.79382736970309137e-02
62 61 -3.09178962047581447e-02
63 61 -2.39267497652967051e-02
64 61 -1.69886339019952107e-02
65 61 -1.01255759982583730e-02
66 61 -3.35770995800283674e-03
67 61 -1.84385023691848744e-17
68 61 3.35770995800280334e-03
69 61 1.01255759982583470e-02
70 61 1.69886339019951899e-02
71 61 2.39267497652966878e-02
72 61 3.09178962047581239e-02
73 61 3.79382736970308998e-02
74 61 4.49624770268629362e-02
75 61 5.19637072191984906e-02
76 61 5.89140277302024895e-02
77 61 6.57846619222794138e-02
78 61 7.25463270321551612e-02
79 61 7.91695980586570036e-02
80 61 8.56252933584091686e-02
81 61 9.18848723561112302e-02
82 61 9.79208347569559129e-02
83 61 1.03707110080263676e-01
84 61 1.09219426277033696e-01
85 61 1.14435646677223515e-01
86 61 1.19336065524156945e-01
87 61 1.23903653843529013e-01
88 61 1.28124249277504043e-01
89 61 1.31986685676462767e-01
90 61 1.35482860549750367e-01
91 61 1.38607740793338541e-01
92 61 1.41359309303005332e-01
93 61 1.43738457028978611e-01
94 61 1.45748826639314183e-01
95 61 1.47396615172172729e-01
96 61 1.48690343841663491e-01
97 61 1.49640603519355070e-01
98 61 1.50259784372691663e-01
99 61 1.50561797752808979e-01
100 61 1.50561797752809007e-01
101 61 1.50561797752808979e-01
102 61 1.50259784372691663e-01
103 61 1.49640603519355070e-01
104 61 1.48690343841663491e-01
105 61 1.47396615172172729e-01
106 61 1.45748826639314211e-01
107 61 1.43738457028978639e-01
108 61 1.41359309303005304e-01
109 61 1.38607740793338541e-01
110 61 1.35482860549750367e-01
111 61 1.31986685676462767e-01
112 61 1.28124249277504043e-01
113 61 1.23903653843529027e-01
114 61 1.19336065524156973e-01
115 61 1.14435646677223571e-01
116 61 1.09219426277033696e-01
117 61 1.03707110080263676e-01
118 61 9.79208347569558990e-02
119 61 9.18848723561112302e-02
120 61 8.56252933584091686e-02
121 61 7.91695980586569897e-02
122 61 7.25463270321551612e-02
123 61 6.57846619222794277e-02
124 61 5.89140277302024895e-02
125 61 5.19637072191984836e-02
126 61 4.49624770268629709e-02
127 61 3.79382736970309345e-02
128 61 3.09178962047581725e-02
129 61 2.39267497652967225e-02
130 61 1.69886339019952211e-02
131 61 1.01255759982583852e-02
132 61 3.35770995800285495e-03
133 61 3.68770047383697489e-17
1 62 0.00000000000000000e+00
2 62 -2.57508501152721708e-03
3 62 -7.76547686140939900e-03
4 62 -1.30288729742970393e-02
5 62 -1.83498323160186834e-02
6 62 -2.37114617107020628e-02
7 62 -2.90955088981391767e-02
8 62 -3.44824901856261995e-02
9 62 -3.98518529823040507e-02
10 62 -4.51821722764226483e-02
11 62 -5.04513787740044836e-02
12 62 -5.56370150246603412e-02
13 62 -6.07165144933315623e-02
14 62 -6.56674972802029078e-02
15 62 -7.04680751314955695e-02
16 62 -7.50971576022763654e-02
17 62 -7.95347507964432460e-02
18 62 -8.37622400658095123e-02
19 62 -8.77626484207172236e-02
20 62 -9.15208631804130118e-02
21 62 -9.50238245341798321e-02
22 62 -9.82606711283430106e-02
23 62 -1.01222839452390800e-01
24 62 -1.03904115568102681e-01
25 62 -1.06300639502191319e-01
26 62 -1.08410864303039728e-01
27 62 -1.10235473255567276e-01
28 62 -1.11777259984008878e-01
29 62 -1.13040977102581666e-01
30 62 -1.14033159675661994e-01
31 62 -1.14761930023216913e-01
32 62 -1.15236790375896112e-01
33 62 -1.15468409586056656e-01
34 62 -1.15468409586056642e-01
35 62 -1.15468409586056656e-01
36 62 -1.15236790375896084e-01
37 62 -1.14761930023216926e-01
38 62 -1.14033159675661994e-01
39 62 -1.13040977102581666e-01
40 62 -1.11777259984008892e-01
41 62 -1.10235473255567290e-01
42 62 -1.08410864303039700e-01
43 62 -1.06300639502191319e-01
44 62 -1.03904115568102681e-01
45 62 -1.01222839452390800e-01
46 62 -9.82606711283430245e-02
47 62 -9.50238245341798321e-02
48 62 -9.15208631804130257e-02
49 62 -8.77626484207172652e-02
50 62 -8.37622400658095123e-02
51 62 -7.95347507964432460e-02
52 62 -7.50971576022763515e-02
53 62 -7.04680751314955695e-02
54 62 -6.56674972802029078e-02
55 62 -6.07165144933315554e-02
56 62 -5.56370150246603412e-02
57 62 -5.04513787740044975e-02
58 62 -4.51821722764226483e-02
59 62 -3.98518529823040507e-02
60 62 -3.44824901856262064e-02
61 62 -2.90955088981391732e-02
62 62 -2.37114617107020732e-02
63 62 -1.83498323160186903e-02
64 62 -1.30288729742970445e-02
65 62 -7.76547686140941461e-03
66 62 -2.57508501152723009e-03
67 62 -1.41408018202199864e-17
68 62 2.57508501152720450e-03
69 62 7.76547686140939379e-03
70 62 1.30288729742970306e-02
71 62 1.83498323160186765e-02
72 62 2.37114617107020559e-02
73 62 2.90955088981391698e-02
74 62 3.44824901856261995e-02
75 62 3.98518529823040507e-02
76 62 4.51821722764226483e-02
77 62 5.04513787740044836e-02
78 62 5.56370150246603412e-02
79 62 6.07165144933315623e-02
80 62 6.56674972802029078e-02
81 62 7.04680751314955695e-02
82 62 7.50971576022763654e-02
83 62 7.95347507964432460e-02
84 62 8.37622400658095123e-02
85 62 8.77626484207172236e-02
86 62 9.15208631804130118e-02
87 62 9.50238245341798321e-02
88 62 9.82606711283430106e-02
89 62 1.01222839452390800e-01
90 62 1.03904115568102681e-01
91 62 1.06300639502191319e-01
92 62 1.08410864303039728e-01
93 62 1.10235473255567276e-01
94 62 1.11777259984008878e-01
95 62 1.13040977102581666e-01
96 62 1.14033159675661994e-01
97 62 1.14761930023216913e-01
98 62 1.15236790375896112e-01
99 62 1.15468409586056656e-01
100 62 1.15468409586056642e-01
101 62 1.15468409586056656e-01
102 62 1.15236790375896084e-01
103 62 1.14761930023216926e-01
104 62 1.14033159675661994e-01
105 62 1.13040977102581666e-01
106 62 1.11777259984008892e-01
107 62 1.10235473255567290e-01
108 62 1.08410864303039700e-01
109 62 1.06300639502191319e-01
110 62 1.03904115568102681e-01
111 62 1.01222839452390800e-01
112 62 9.82606711283430245e-02
113 62 9.50238245341798321e-02
114 62 9.15208631804130257e-02
115 62 8.77626484207172652e-02
116 62 8.37622400658095123e-02
117 62 7.95347507964432460e-02
118 62 7.50971576022763515e-02
119 62 7.04680751314955695e-02
120 62 6.56674972802029078e-02
121 62 6.07165144933315554e-02
122 62 5.56370150246603412e-02
123 62 5.04513787740044975e-02
124 62 4.51821722764226552e-02
125 62 3.98518529823040507e-02
126 62 3.44824901856262203e-02
127 62 2.90955088981391906e-02
128 62 2.37114617107020906e-02
129 62 1.83498323160187042e-02
130 62 1.30288729742970549e-02
131 62 7.76547686140942502e-03
132 62 2.57508501152724396e-03
133 62 2.82816036404399729e-17
1 63 0.00000000000000000e+00
2 63 -1.81329779367628524e-03
3 63 -5.46821638765500502e-03
4 63 -9.17454239864876758e-03
5 63 -1.29214027125390662e-02
6 63 -1.66969016604838136e-02
7 63 -2.04881865471286256e-02
8 63 -2.42815375392119448e-02
9 63 -2.80624821173830370e-02
10 63 -3.18159334296109972e-02
11 63 -3.55263509396035251e-02
12 63 -3.91779207829405715e-02
13 63 -4.27547522810427655e-02
14 63 -4.62410861782831875e-02
15 63 -4.96215094214589800e-02
16 63 -5.28811707504782402e-02
17 63 -5.60059910621165877e-02
18 63 -5.89828624782512065e-02
19 63 -6.17998303108806199e-02
20 63 -6.44462526625358412e-02
21 63 -6.69129332053857856e-02
22 63 -6.91922236992494055e-02
23 63 -7.12780939763274085e-02
24 63 -7.31661683673059532e-02
25 63 -7.48537287945238855e-02
26 63 -7.63396859409522094e-02
27 63 -7.76245209553807353e-02
28 63 -7.87102010243833639e-02
29 63 -7.96000727966476723e-02
30 63 -8.02987380689151736e-02
31 63 -8.08119163358083092e-02
32 63 -8.11462987837519856e-02
33 63 -8.13093980992608267e-02
34 63 -8.13093980992608267e-02
35 63 -8.13093980992608267e-02
36 63 -8.11462987837519717e-02
37 63 -8.08119163358083231e-02
38 63 -8.02987380689151736e-02
39 63 -7.96000727966476862e-02
40 63 -7.87102010243833777e-02
41 63 -7.76245209553807491e-02
42 63 -7.63396859409522094e-02
43 63 -7.48537287945238855e-02
44 63 -7.31661683673059532e-02
45 63 -7.12780939763274085e-02
46 63 -6.91922236992494194e-02
47 63 -6.69129332053857856e-02
48 63 -6.44462526625358689e-02
49 63 -6.17998303108806338e-02
50 63 -5.89828624782512134e-02
51 63 -5.60059910621165877e-02
52 63 -5.28811707504782333e-02
53 63 -4.96215094214589800e-02
54 63 -4.62410861782831875e-02
55 63 -4.27547522810427585e-02
56 63 -3.91779207829405715e-02
57 63 -3.55263509396035390e-02
58 63 -3.18159334296109972e-02
59 63 -2.80624821173830336e-02
60 63 -2.42815375392119517e-02
61 63 -2.04881865471286256e-02
62 63 -1.66969016604838170e-02
63 63 -1.29214027125390731e-02
64 63 -9.17454239864877105e-03
65 63 -5.46821638765501630e-03
66 63 -1.81329779367629391e-03
67 63 -9.95752941228576692e-18
68 63 1.81329779367627635e-03
69 63 5.46821638765500155e-03
70 63 9.17454239864876064e-03
71 63 1.29214027125390627e-02
72 63 1.66969016604838066e-02
73 63 2.04881865471286222e-02
74 63 2.42815375392119448e-02
75 63 2.80624821173830370e-02
76 63 3.18159334296109972e-02
77 63 3.55263509396035251e-02
78 63 3.91779207829405715e-02
79 63 4.27547522810427655e-02
80 63 4.62410861782831875e-02
81 63 4.96215094214589800e-02
82 63 5.28811707504782402e-02
83 63 5.60059910621165877e-02
84 63 5.89828624782512065e-02
85 63 6.17998303108806199e-02
86 63 6.44462526625358412e-02
87 63 6.69129332053857856e-02
88 63 6.91922236992494055e-02
89 63 7.12780939763274085e-02
90 63 7.31661683673059532e-02
91 63 7.48537287945238855e-02
92 63 7.63396859409522094e-02
93 63 7.76245209553807353e-02
94 63 7.87102010243833639e-02
95 63 7.96000727966476723e-02
96 63 8.02987380689151736e-02
97 63 8.08119163358083092e-02
98 63 8.11462987837519856e-02
99 63 8.13093980992608267e-02
100 63 8.13093980992608267e-02
101 63 8.13093980992608267e-02
102 63 8.11462987837519717e-02
103 63 8.08119163358083231e-02
104 63 8.02987380689151736e-02
105 63 7.96000727966476862e-02
106 63 7.87102010243833777e-02
107 63 7.76245209553807491e-02
108 63 7.63396859409522094e-02
109 63 7.48537287945238855e-02
110 63 7.31661683673059532e-02
111 63 7.12780939763274085e-02
112 63 6.91922236992494194e-02
113 63 6.69129332053857856e-02
114 63 6.44462526625358689e-02
115 63 6.17998303108806338e-02
116 63 5.89828624782512134e-02
117 63 5.60059910621165877e-02
118 63 5.28811707504782333e-02
119 63 4.96215094214589800e-02
120 63 4.62410861782831875e-02
121 63 4.27547522810427585e-02
122 63 3.91779207829405715e-02
123 63 3.55263509396035390e-02
124 63 3.18159334296110041e-02
125 63 2.80624821173830336e-02
126 63 2.42815375392119621e-02
127 63 2.04881865471286395e-02
128 63 1.66969016604838309e-02
129 63 1.29214027125390818e-02
130 63 9.17454239864877799e-03
131 63 5.46821638765502410e-03
132 63 1.81329779367630389e-03
133 63 1.99150588245715338e-17
1 64 0.00000000000000000e+00
2 64 -1.07283190656180176e-03
3 64 -3.23525293700749296e-03
4 64 -5.42808900319634649e-03
5 64 -7.64490706153745682e-03
6 64 -9.87866907717069483e-03
7 64 -1.21217707935257421e-02
8 64 -1.43660949146311185e-02
9 64 -1.66030788201704353e-02
10 64 -1.88237964218393970e-02
11 64 -2.10190532104748626e-02
12 64 -2.31794929631910819e-02
13 64 -2.52957140102478065e-02
14 64 -2.73583924378790928e-02
15 64 -2.93584091618886052e-02
16 64 -3.12869774811978876e-02
17 64 -3.31357675388978604e-02
18 64 -3.48970241003400683e-02
19 64 -3.65636742121653244e-02
20 64 -3.81294216293823970e-02
21 64 -3.95888253737058313e-02
22 64 -4.09373603880138215e-02
23 64 -4.21714589425933734e-02
24 64 -4.32885321865294076e-02
25 64 -4.42869719777673962e-02
26 64 -4.51661338253312103e-02
27 64 -4.59263023993811068e-02
28 64 -4.65686415796339112e-02
29 64 -4.70951314002045901e-02
30 64 -4.75084944995858710e-02
31 64 -4.78121147986879033e-02
32 64 -4.80099511168035967e-02
33 64 -4.81064483111566035e-02
34 64 -4.81064483111566035e-02
35 64 -4.81064483111566035e-02
36 64 -4.80099511168035828e-02
37 64 -4.78121147986879103e-02
38 64 -4.75084944995858710e-02
39 64 -4.70951314002045970e-02
40 64 -4.65686415796339181e-02
41 64 -4.59263023993811137e-02
42 64 -4.51661338253312172e-02
43 64 -4.42869719777673962e-02
44 64 -4.32885321865294076e-02
45 64 -4.21714589425933734e-02
46 64 -4.09373603880138284e-02
47 64 -3.95888253737058313e-02
48 64 -3.81294216293824040e-02
49 64 -3.65636742121653313e-02
50 64 -3.48970241003400683e-02
51 64 -3.31357675388978604e-02
52 64 -3.12869774811978876e-02
53 64 -2.93584091618886052e-02
54 64 -2.73583924378790928e-02
55 64 -2.52957140102478065e-02
56 64 -2.31794929631910819e-02
57 64 -2.10190532104748695e-02
58 64 -1.88237964218393970e-02
59 64 -1.66030788201704319e-02
60 64 -1.43660949146311254e-02
61 64 -1.21217707935257421e-02
62 64 -9.87866907717069483e-03
63 64 -7.64490706153746116e-03
64 64 -5.42808900319634909e-03
65 64 -3.23525293700749903e-03
66 64 -1.07283190656180696e-03
67 64 -5.89134079426055269e-18
68 64 1.07283190656179655e-03
69 64 3.23525293700748992e-03
70 64 5.42808900319634302e-03
71 64 7.64490706153745508e-03
72 64 9.87866907717068962e-03
73 64 1.21217707935257386e-02
74 64 1.43660949146311185e-02
75 64 1.66030788201704353e-02
76 64 1.88237964218393970e-02
77 64 2.10190532104748626e-02
78 64 2.31794929631910819e-02
79 64 2.52957140102478065e-02
80 64 2.73583924378790928e-02
81 64 2.93584091618886052e-02
82 64 3.12869774811978876e-02
83 64 3.31357675388978604e-02
84 64 3.48970241003400683e-02
85 64 3.65636742121653244e-02
86 64 3.81294216293823970e-02
87 64 3.95888253737058313e-02
88 64 4.09373603880138215e-02
89 64 4.21714589425933734e-02
90 64 4.32885321865294076e-02
91 64 4.42869719777673962e-02
92 64 4.51661338253312103e-02
93 64 4.59263023993811068e-02
94 64 4.65686415796339112e-02
95 64 4.70951314002045901e-02
96 64 4.75084944995858710e-02
97 64 4.78121147986879033e-02
98 64 4.80099511168035967e-02
99 64 4.81064483111566035e-02
100 64 4.81064483111566035e-02
101 64 4.81064483111566035e-02
102 64 4.80099511168035828e-02
103 64 4.78121147986879103e-02
104 64 4.75084944995858710e-02
105 64 4.70951314002045970e-02
106 64 4.65686415796339181e-02
107 64 4.59263023993811137e-02
108 64 4.51661338253312172e-02
109 64 4.42869719777673962e-02
110 64 4.32885321865294076e-02
111 64 4.21714589425933734e-02
112 64 4.09373603880138284e-02
113 64 3.95888253737058313e-02
114 64 3.81294216293824040e-02
115 64 3.65636742121653313e-02
116 64 3.48970241003400683e-02
117 64 3.31357675388978604e-02
118 64 3.12869774811978876e-02
119 64 2.93584091618886052e-02
120 64 2.73583924378790928e-02
121 64 2.52957140102478065e-02
122 64 2.31794929631910819e-02
123 64 2.10190532104748695e-02
124 64 1.88237964218394005e-02
125 64 1.66030788201704353e-02
126 64 1.43660949146311272e-02
127 64 1.21217707935257490e-02
128 64 9.87866907717070176e-03
129 64 7.64490706153746549e-03
130 64 5.42808900319635430e-03
131 64 3.23525293700750423e-03
132 64 1.07283190656181260e-03
133 64 1.17826815885211054e-17
1 65 0.00000000000000000e+00
2 65 -3.53987427460614699e-04
3 65 -1.06749142838781529e-03
4 65 -1.79103105576589993e-03
5 65 -2.52248368764677313e-03
6 65 -3.25952708152508173e-03
7 65 -3.99965216659056017e-03
8 65 -4.74018059155508452e-03
9 65 -5.47828706764826468e-03
10 65 -6.21102637762144250e-03
11 65 -6.93536473712730306e-03
12 65 -7.64821500338996527e-03
13 65 -8.34647503816686974e-03
14 65 -9.02706835927317638e-03
15 65 -9.68698606928914893e-03
16 65 -1.03233289426309816e-02
17 65 -1.09333484922334370e-02
18 65 -1.15144858311490173e-02
19 65 -1.20644071953007505e-02
20 65 -1.25810351002724110e-02
21 65 -1.30625742621109740e-02
22 65 -1.35075316106347560e-02
23 65 -1.39147299516763669e-02
24 65 -1.42833150780949780e-02
25 65 -1.46127563736165970e-02
26 65 -1.49028411845148930e-02
27 65 -1.51536634394445584e-02
28 65 -1.53656071676130795e-02
29 65 -1.55393256933468032e-02
30 65 -1.56757173678133722e-02
31 65 -1.57758987363451827e-02
32 65 -1.58411760355005454e-02
33 65 -1.58730158730158756e-02
34 65 -1.58730158730158721e-02
35 65 -1.58730158730158756e-02
36 65 -1.58411760355005420e-02
37 65 -1.57758987363451827e-02
38 65 -1.56757173678133722e-02
39 65 -1.55393256933468050e-02
40 65 -1.53656071676130813e-02
41 65 -1.51536634394445601e-02
42 65 -1.49028411845148930e-02
43 65 -1.46127563736165970e-02
44 65 -1.42833150780949780e-02
45 65 -1.39147299516763669e-02
46 65 -1.35075316106347577e-02
47 65 -1.30625742621109757e-02
48 65 -1.25810351002724127e-02
49 65 -1.20644071953007522e-02
50 65 -1.15144858311490191e-02
51 65 -1.09333484922334388e-02
52 65 -1.03233289426309816e-02
53 65 -9.68698606928914893e-03
54 65 -9.02706835927317638e-03
55 65 -8.34647503816687321e-03
56 65 -7.64821500338996613e-03
57 65 -6.93536473712730306e-03
58 65 -6.21102637762144336e-03
59 65 -5.47828706764826468e-03
60 65 -4.74018059155508539e-03
61 65 -3.99965216659056017e-03
62 65 -3.25952708152508217e-03
63 65 -2.52248368764677400e-03
64 65 -1.79103105576590101e-03
65 65 -1.06749142838781703e-03
66 65 -3.53987427460616434e-04
67 65 -1.94388380817040204e-18
68 65 3.53987427460613073e-04
69 65 1.06749142838781421e-03
70 65 1.79103105576589885e-03
71 65 2.52248368764677227e-03
72 65 3.25952708152508087e-03
73 65 3.99965216659055930e-03
74 65 4.74018059155508452e-03
75 65 5.47828706764826468e-03
76 65 6.21102637762144250e-03
77 65 6.93536473712730306e-03
78 65 7.64821500338996527e-03
79 65 8.34647503816686974e-03
80 65 9.02706835927317638e-03
81 65 9.68698606928914893e-03
82 65 1.03233289426309816e-02
83 65 1.09333484922334370e-02
84 65 1.15144858311490173e-02
85 65 1.20644071953007505e-02
86 65 1.25810351002724110e-02
87 65 1.30625742621109740e-02
88 65 1.35075316106347560e-02
89 65 1.39147299516763669e-02
90 65 1.42833150780949780e-02
91 65 1.46127563736165970e-02
92 65 1.49028411845148930e-02
93 65 1.51536634394445584e-02
94 65 1.53656071676130795e-02
95 65 1.55393256933468032e-02
96 65 1.56757173678133722e-02
97 65 1.57758987363451827e-02
98 65 1.58411760355005454e-02
99 65 1.58730158730158756e-02
100 65 1.58730158730158721e-02
101 65 1.58730158730158756e-02
102 65 1.58411760355005420e-02
103 65 1.57758987363451827e-02
104 65 1.56757173678133722e-02
105 65 1.55393256933468050e-02
106 65 1.53656071676130813e-02
107 65 1.51536634394445601e-02
108 65 1.49028411845148930e-02
109 65 1.46127563736165970e-02
110 65 1.42833150780949780e-02
111 65 1.39147299516763669e-02
112 65 1.35075316106347577e-02
113 65 1.30625742621109757e-02
114 65 1.25810351002724127e-02
115 65 1.20644071953007522e-02
116 65 1.15144858311490191e-02
117 65 1.09333484922334388e-02
118 65 1.03233289426309816e-02
119 65 9.68698606928914893e-03
120 65 9.02706835927317638e-03
121 65 8.34647503816687321e-03
122 65 7.64821500338996613e-03
123 65 6.93536473712730306e-03
124 65 6.21102637762144423e-03
125 65 5.47828706764826642e-03
126 65 4.74018059155508712e-03
127 65 3.99965216659056277e-03
128 65 3.25952708152508477e-03
129 65 2.52248368764677574e-03
130 65 1.79103105576590297e-03
131 65 1.06749142838781876e-03
132 65 3.53987427460618386e-04
133 65 3.88776761634080408e-18
1 66 0.00000000000000000e+00
2 66 0.00000000000000000e+00
3 66 0.00000000000000000e+00
4 66 0.00000000000000000e+00
5 66 0.00000000000000000e+00
6 66 0.00000000000000000e+00
7 66 0.00000000000000000e+00
8 66 0.00000000000000000e+00
9 66 0.00000000000000000e+00
10 66 0.00000000000000000e+00
11 66 0.00000000000000000e+00
12 66 0.00000000000000000e+00
13 66 0.00000000000000000e+00
14 66 0.00000000000000000e+00
15 66 0.00000000000000000e+00
16 66 0.00000000000000000e+00
17 66 0.00000000000000000e+00
18 66 0.00000000000000000e+00
19 66 0.00000000000000000e+00
20 66 0.00000000000000000e+00
21 66 0.00000000000000000e+00
22 66 0.00000000000000000e+00
23 66 0.00000000000000000e+00
24 66 0.00000000000000000e+00
25 66 0.00000000000000000e+00
26 66 0.00000000000000000e+00
27 66 0.00000000000000000e+00
28 66 0.00000000000000000e+00
29 66 0.00000000000000000e+00
30 66 0.00000000000000000e+00
31 66 0.00000000000000000e+00
32 66 0.00000000000000000e+00
33 66 0.00000000000000000e+00
34 66 0.00000000000000000e+00
35 66 0.00000000000000000e+00
36 66 0.00000000000000000e+00
37 66 0.00000000000000000e+00
38 66 0.00000000000000000e+00
39 66 0.00000000000000000e+00
40 66 0.00000000000000000e+00
41 66 0.00000000000000000e+00
42 66 0.00000000000000000e+00
43 66 0.00000000000000000e+00
44 66 0.00000000000000000e+00
45 66 0.00000000000000000e+00
46 66 0.00000000000000000e+00
47 66 0.00000000000000000e+00
48 66 0.00000000000000000e+00
49 66 0.00000000000000000e+00
50 66 0.00000000000000000e+00
51 66 0.00000000000000000e+00
52 66 0.00000000000000000e+00
53 66 0.00000000000000000e+00
54 66 0.00000000000000000e+00
55 66 0.00000000000000000e+00
56 66 0.00000000000000000e+00
57 66 0.00000000000000000e+00
58 66 0.00000000000000000e+00
59 66 0.00000000000000000e+00
60 66 0.00000000000000000e+00
61 66 0.00000000000000000e+00
62 66 0.00000000000000000e+00
63 66 0.00000000000000000e+00
64 66 0.00000000000000000e+00
65 66 0.00000000000000000e+00
66 66 0.00000000000000000e+00
67 66 0.00000000000000000e+00
68 66 0.00000000000000000e+00
69 66 0.00000000000000000e+00
70 66 0.00000000000000000e+00
71 66 0.00000000000000000e+00
72 66 0.00000000000000000e+00
73 66 0.00000000000000000e+00
74 66 0.00000000000000000e+00
75 66 0.00000000000000000e+00
76 66 0.00000000000000000e+00
77 66 0.00000000000000000e+00
78 66 0.00000000000000000e+00
79 66 0.00000000000000000e+00
80 66 0.00000000000000000e+00
81 66 0.00000000000000000e+00
82 66 0.00000000000000000e+00
83 66 0.00000000000000000e+00
84 66 0.00000000000000000e+00
85 66 0.00000000000000000e+00
86 66 0.00000000000000000e+00
87 66 0.00000000000000000e+00
88 66 0.00000000000000000e+00
89 66 0.00000000000000000e+00
90 66 0.00000000000000000e+00
91 66 0.00000000000000000e+00
92 66 0.00000000000000000e+00
93 66 0.00000000000000000e+00
94 66 0.00000000000000000e+00
95 66 0.00000000000000000e+00
96 66 0.00000000000000000e+00
97 66 0.00000000000000000e+00
98 66 0.00000000000000000e+00
99 66 0.00000000000000000e+00
100 66 0.00000000000000000e+00
101 66 0.00000000000000000e+00
102 66 0.00000000000000000e+00
103 66 0.00000000000000000e+00
104 66 0.00000000000000000e+00
105 66 0.00000000000000000e+00
106 66 0.00000000000000000e+00
107 66 0.00000000000000000e+00
108 66 0.00000000000000000e+00
109 66 0.00000000000000000e+00
110 66 0.00000000000000000e+00
111 66 0.00000000000000000e+00
112 66 0.00000000000000000e+00
113 66 0.00000000000000000e+00
114 66 0.00000000000000000e+00
115 66 0.00000000000000000e+00
116 66 0.00000000000000000e+00
117 66 0.00000000000000000e+00
118 66 0.00000000000000000e+00
119 66 0.00000000000000000e+00
120 66 0.00000000000000000e+00
121 66 0.00000000000000000e+00
122 66 0.00000000000000000e+00
123 66 0.00000000000000000e+00
124 66 0.00000000000000000e+00
125 66 0.00000000000000000e+00
126 66 0.00000000000000000e+00
127 66 0.00000000000000000e+00
128 66 0.00000000000000000e+00
129 66 0.00000000000000000e+00
130 66 0.00000000000000000e+00
131 66 0.00000000000000000e+00
132 66 0.00000000000000000e+00
133 66 0.00000000000000000e+00
