%%MatrixMarket matrix coordinate  real general
10 9 90
1 1 0.00000000000000000e+00
2 1 9.17473704805326223e-02
3 1 2.77632313477361670e-01
4 1 4.62355858624667937e-01
5 1 6.33883476483184327e-01
6 1 7.80330085889910596e-01
7 1 8.92471171724933510e-01
8 1 9.65601538737017151e-01
9 1 1.00000000000000000e+00
10 1 1.00000000000000000e+00
1 2 0.00000000000000000e+00
2 2 1.03215791790599198e-01
3 2 3.12336352662031913e-01
4 2 5.20150340952751478e-01
5 2 7.13118911043582382e-01
6 2 8.77871346626149407e-01
7 2 1.00403006819055007e+00
8 2 1.08630173107914429e+00
9 2 1.12500000000000000e+00
10 2 1.12500000000000000e+00
1 3 0.00000000000000000e+00
2 3 1.14684213100665802e-01
3 3 3.47040391846702156e-01
4 3 5.77944823280835074e-01
5 3 7.92354345603980326e-01
6 3 9.75412607362388218e-01
7 3 1.11558896465616697e+00
8 3 1.20700192342127166e+00
9 3 1.25000000000000022e+00
10 3 1.25000000000000022e+00
1 4 0.00000000000000000e+00
2 4 1.26152634410732378e-01
3 4 3.81744431031372344e-01
4 4 6.35739305608918559e-01
5 4 8.71589780164378380e-01
6 4 1.07295386809862725e+00
7 4 1.22714786112178365e+00
8 4 1.32770211576339880e+00
9 4 1.37500000000000022e+00
10 4 1.37500000000000022e+00
1 5 0.00000000000000000e+00
2 5 1.37621055720798940e-01
3 5 4.16448470216042532e-01
4 5 6.93533787937002044e-01
5 5 9.50825214724776324e-01
6 5 1.17049512883486595e+00
7 5 1.33870675758740054e+00
8 5 1.44840230810552595e+00
9 5 1.50000000000000022e+00
10 5 1.50000000000000022e+00
1 6 0.00000000000000000e+00
2 6 1.49089477030865503e-01
3 6 4.51152509400712720e-01
4 6 7.51328270265085529e-01
5 6 1.03006064928517449e+00
6 6 1.26803638957110465e+00
7 6 1.45026565405301699e+00
8 6 1.56910250044765309e+00
9 6 1.62500000000000022e+00
10 6 1.62500000000000022e+00
1 7 0.00000000000000000e+00
2 7 1.60557898340932093e-01
3 7 4.85856548585382908e-01
4 7 8.09122752593169015e-01
5 7 1.10929608384557254e+00
6 7 1.36557765030734335e+00
7 7 1.56182455051863367e+00
8 7 1.68980269278978024e+00
9 7 1.75000000000000022e+00
10 7 1.75000000000000000e+00
1 8 0.00000000000000000e+00
2 8 1.72026319650998682e-01
3 8 5.20560587770053096e-01
4 8 8.66917234921252389e-01
5 8 1.18853151840597060e+00
6 8 1.46311891104358205e+00
7 8 1.67338344698425057e+00
8 8 1.81050288513190738e+00
9 8 1.87500000000000022e+00
10 8 1.87500000000000000e+00
1 9 0.00000000000000000e+00
2 9 1.83494740961065245e-01
3 9 5.55264626954723339e-01
4 9 9.24711717249335874e-01
5 9 1.26776695296636865e+00
6 9 1.56066017177982119e+00
7 9 1.78494234344986702e+00
8 9 1.93120307747403452e+00
9 9 2.00000000000000000e+00
10 9 2.00000000000000000e+00
