%%MatrixMarket matrix coordinate  real general
10 9 90
1 1 1.00000000000000000e+00
2 1 1.00000000000000000e+00
3 1 9.65601538737017262e-01
4 1 8.92471171724933510e-01
5 1 7.80330085889910485e-01
6 1 6.33883476483184327e-01
7 1 4.62355858624668048e-01
8 1 2.77632313477361725e-01
9 1 9.17473704805326917e-02
10 1 6.12323399573676604e-17
1 2 1.12500000000000000e+00
2 2 1.12500000000000000e+00
3 2 1.08630173107914452e+00
4 2 1.00403006819055007e+00
5 2 8.77871346626149296e-01
6 2 7.13118911043582271e-01
7 2 5.20150340952751478e-01
8 2 3.12336352662031969e-01
9 2 1.03215791790599296e-01
10 2 6.88863824520386194e-17
1 3 1.25000000000000022e+00
2 3 1.25000000000000022e+00
3 3 1.20700192342127188e+00
4 3 1.11558896465616697e+00
5 3 9.75412607362387996e-01
6 3 7.92354345603980326e-01
7 3 5.77944823280835074e-01
8 3 3.47040391846702156e-01
9 3 1.14684213100665872e-01
10 3 7.65404249467095785e-17
1 4 1.37500000000000022e+00
2 4 1.37500000000000022e+00
3 4 1.32770211576339903e+00
4 4 1.22714786112178365e+00
5 4 1.07295386809862658e+00
6 4 8.71589780164378380e-01
7 4 6.35739305608918448e-01
8 4 3.81744431031372344e-01
9 4 1.26152634410732462e-01
10 4 8.41944674413805376e-17
1 5 1.50000000000000022e+00
2 5 1.50000000000000022e+00
3 5 1.44840230810552639e+00
4 5 1.33870675758740032e+00
5 5 1.17049512883486528e+00
6 5 9.50825214724776435e-01
7 5 6.93533787937002044e-01
8 5 4.16448470216042532e-01
9 5 1.37621055720799051e-01
10 5 9.18485099360514844e-17
1 6 1.62500000000000022e+00
2 6 1.62500000000000022e+00
3 6 1.56910250044765354e+00
4 6 1.45026565405301699e+00
5 6 1.26803638957110421e+00
6 6 1.03006064928517449e+00
7 6 7.51328270265085529e-01
8 6 4.51152509400712720e-01
9 6 1.49089477030865641e-01
10 6 9.95025524307224435e-17
1 7 1.75000000000000000e+00
2 7 1.75000000000000022e+00
3 7 1.68980269278978046e+00
4 7 1.56182455051863367e+00
5 7 1.36557765030734313e+00
6 7 1.10929608384557254e+00
7 7 8.09122752593169015e-01
8 7 4.85856548585382964e-01
9 7 1.60557898340932204e-01
10 7 1.07156594925393403e-16
1 8 1.87500000000000000e+00
2 8 1.87500000000000022e+00
3 8 1.81050288513190738e+00
4 8 1.67338344698425034e+00
5 8 1.46311891104358205e+00
6 8 1.18853151840597060e+00
7 8 8.66917234921252611e-01
8 8 5.20560587770053207e-01
9 8 1.72026319650998794e-01
10 8 1.14810637420064349e-16
1 9 2.00000000000000000e+00
2 9 2.00000000000000000e+00
3 9 1.93120307747403452e+00
4 9 1.78494234344986702e+00
5 9 1.56066017177982097e+00
6 9 1.26776695296636865e+00
7 9 9.24711717249336096e-01
8 9 5.55264626954723450e-01
9 9 1.83494740961065383e-01
10 9 1.22464679914735321e-16
