%%MatrixMarket matrix coordinate  real general
6 6 36
1 1 0.00000000000000000e+00
2 1 1.25000000000000000e-01
3 1 3.75000000000000000e-01
4 1 6.25000000000000000e-01
5 1 8.75000000000000000e-01
6 1 1.00000000000000000e+00
1 2 0.00000000000000000e+00
2 2 1.25000000000000000e-01
3 2 3.75000000000000000e-01
4 2 6.25000000000000000e-01
5 2 8.75000000000000000e-01
6 2 1.00000000000000000e+00
1 3 0.00000000000000000e+00
2 3 1.25000000000000000e-01
3 3 3.75000000000000000e-01
4 3 6.25000000000000000e-01
5 3 8.75000000000000000e-01
6 3 1.00000000000000000e+00
1 4 0.00000000000000000e+00
2 4 1.25000000000000000e-01
3 4 3.75000000000000000e-01
4 4 6.25000000000000000e-01
5 4 8.75000000000000000e-01
6 4 1.00000000000000000e+00
1 5 0.00000000000000000e+00
2 5 1.25000000000000000e-01
3 5 3.75000000000000000e-01
4 5 6.25000000000000000e-01
5 5 8.75000000000000000e-01
6 5 1.00000000000000000e+00
1 6 0.00000000000000000e+00
2 6 1.25000000000000000e-01
3 6 3.75000000000000000e-01
4 6 6.25000000000000000e-01
5 6 8.75000000000000000e-01
6 6 1.00000000000000000e+00
