%%MatrixMarket matrix coordinate  real general
6 6 36
1 1 0.00000000000000000e+00
2 1 0.00000000000000000e+00
3 1 0.00000000000000000e+00
4 1 0.00000000000000000e+00
5 1 0.00000000000000000e+00
6 1 0.00000000000000000e+00
1 2 1.25000000000000000e-01
2 2 1.25000000000000000e-01
3 2 1.25000000000000000e-01
4 2 1.25000000000000000e-01
5 2 1.25000000000000000e-01
6 2 1.25000000000000000e-01
1 3 3.75000000000000000e-01
2 3 3.75000000000000000e-01
3 3 3.75000000000000000e-01
4 3 3.75000000000000000e-01
5 3 3.75000000000000000e-01
6 3 3.75000000000000000e-01
1 4 6.25000000000000000e-01
2 4 6.25000000000000000e-01
3 4 6.25000000000000000e-01
4 4 6.25000000000000000e-01
5 4 6.25000000000000000e-01
6 4 6.25000000000000000e-01
1 5 8.75000000000000000e-01
2 5 8.75000000000000000e-01
3 5 8.75000000000000000e-01
4 5 8.75000000000000000e-01
5 5 8.75000000000000000e-01
6 5 8.75000000000000000e-01
1 6 1.00000000000000000e+00
2 6 1.00000000000000000e+00
3 6 1.00000000000000000e+00
4 6 1.00000000000000000e+00
5 6 1.00000000000000000e+00
6 6 1.00000000000000000e+00
