%%MatrixMarket matrix coordinate  real general
133 66 8778
1 1 1.00000000000000000e+00
2 1 9.90847086912079678e-01
3 1 9.73685374872229059e-01
4 1 9.57667776968368356e-01
5 1 9.42794293200497679e-01
6 1 9.29064923568617140e-01
7 1 9.16479668072726517e-01
8 1 9.05038526712826030e-01
9 1 8.94741499488915681e-01
10 1 8.85588586400995359e-01
11 1 8.77579787449064952e-01
12 1 8.70715102633124793e-01
13 1 8.64994531953174439e-01
14 1 8.60418075409214334e-01
15 1 8.56985733001244254e-01
16 1 8.54697504729264090e-01
17 1 8.53553390593274064e-01
18 1 8.53553390593274064e-01
19 1 8.54697504729264201e-01
20 1 8.56985733001244254e-01
21 1 8.60418075409214334e-01
22 1 8.64994531953174550e-01
23 1 8.70715102633124793e-01
24 1 8.77579787449065063e-01
25 1 8.85588586400995359e-01
26 1 8.94741499488915792e-01
27 1 9.05038526712826141e-01
28 1 9.16479668072726628e-01
29 1 9.29064923568617140e-01
30 1 9.42794293200497679e-01
31 1 9.57667776968368245e-01
32 1 9.73685374872228837e-01
33 1 9.90847086912079567e-01
34 1 1.00000000000000000e+00
35 1 9.90847086912079678e-01
36 1 9.73685374872229059e-01
37 1 9.57667776968368356e-01
38 1 9.42794293200497679e-01
39 1 9.29064923568617140e-01
40 1 9.16479668072726517e-01
41 1 9.05038526712826030e-01
42 1 8.94741499488915681e-01
43 1 8.85588586400995359e-01
44 1 8.77579787449064952e-01
45 1 8.70715102633124793e-01
46 1 8.64994531953174439e-01
47 1 8.60418075409214334e-01
48 1 8.56985733001244254e-01
49 1 8.54697504729264090e-01
50 1 8.53553390593274064e-01
51 1 8.53553390593274064e-01
52 1 8.54697504729264201e-01
53 1 8.56985733001244254e-01
54 1 8.60418075409214334e-01
55 1 8.64994531953174550e-01
56 1 8.70715102633124793e-01
57 1 8.77579787449065063e-01
58 1 8.85588586400995359e-01
59 1 8.94741499488915792e-01
60 1 9.05038526712826141e-01
61 1 9.16479668072726628e-01
62 1 9.29064923568617140e-01
63 1 9.42794293200497679e-01
64 1 9.57667776968368245e-01
65 1 9.73685374872228837e-01
66 1 9.90847086912079567e-01
67 1 1.00000000000000000e+00
68 1 9.90847086912079678e-01
69 1 9.73685374872229059e-01
70 1 9.57667776968368356e-01
71 1 9.42794293200497679e-01
72 1 9.29064923568617140e-01
73 1 9.16479668072726517e-01
74 1 9.05038526712826030e-01
75 1 8.94741499488915681e-01
76 1 8.85588586400995359e-01
77 1 8.77579787449064952e-01
78 1 8.70715102633124793e-01
79 1 8.64994531953174439e-01
80 1 8.60418075409214334e-01
81 1 8.56985733001244254e-01
82 1 8.54697504729264090e-01
83 1 8.53553390593274064e-01
84 1 8.53553390593274064e-01
85 1 8.54697504729264201e-01
86 1 8.56985733001244254e-01
87 1 8.60418075409214334e-01
88 1 8.64994531953174550e-01
89 1 8.70715102633124793e-01
90 1 8.77579787449065063e-01
91 1 8.85588586400995359e-01
92 1 8.94741499488915792e-01
93 1 9.05038526712826141e-01
94 1 9.16479668072726628e-01
95 1 9.29064923568617140e-01
96 1 9.42794293200497679e-01
97 1 9.57667776968368245e-01
98 1 9.73685374872228837e-01
99 1 9.90847086912079567e-01
100 1 1.00000000000000000e+00
101 1 9.90847086912079678e-01
102 1 9.73685374872229059e-01
103 1 9.57667776968368356e-01
104 1 9.42794293200497679e-01
105 1 9.29064923568617140e-01
106 1 9.16479668072726517e-01
107 1 9.05038526712826030e-01
108 1 8.94741499488915681e-01
109 1 8.85588586400995359e-01
110 1 8.77579787449064952e-01
111 1 8.70715102633124793e-01
112 1 8.64994531953174439e-01
113 1 8.60418075409214334e-01
114 1 8.56985733001244254e-01
115 1 8.54697504729264090e-01
116 1 8.53553390593274064e-01
117 1 8.53553390593274064e-01
118 1 8.54697504729264201e-01
119 1 8.56985733001244254e-01
120 1 8.60418075409214334e-01
121 1 8.64994531953174550e-01
122 1 8.70715102633124793e-01
123 1 8.77579787449065063e-01
124 1 8.85588586400995359e-01
125 1 8.94741499488915792e-01
126 1 9.05038526712826141e-01
127 1 9.16479668072726628e-01
128 1 9.29064923568617140e-01
129 1 9.42794293200497679e-01
130 1 9.57667776968368245e-01
131 1 9.73685374872228837e-01
132 1 9.90847086912079567e-01
133 1 1.00000000000000000e+00
1 2 9.84375000000000000e-01
2 2 9.75365101179078486e-01
3 2 9.58471540889850537e-01
4 2 9.42704217953237666e-01
5 2 9.28063132369239874e-01
6 2 9.14548284137857603e-01
7 2 9.02159673259090189e-01
8 2 8.90897299732938075e-01
9 2 8.80761163559401483e-01
10 2 8.71751264738479970e-01
11 2 8.63867603270173423e-01
12 2 8.57110179154482288e-01
13 2 8.51478992391406120e-01
14 2 8.46974042980945363e-01
15 2 8.43595330923099906e-01
16 2 8.41342856217869306e-01
17 2 8.40216618865254228e-01
18 2 8.40216618865254228e-01
19 2 8.41342856217869528e-01
20 2 8.43595330923099906e-01
21 2 8.46974042980945363e-01
22 2 8.51478992391406342e-01
23 2 8.57110179154482288e-01
24 2 8.63867603270173534e-01
25 2 8.71751264738479970e-01
26 2 8.80761163559401483e-01
27 2 8.90897299732938297e-01
28 2 9.02159673259090300e-01
29 2 9.14548284137857603e-01
30 2 9.28063132369239874e-01
31 2 9.42704217953237555e-01
32 2 9.58471540889850315e-01
33 2 9.75365101179078486e-01
34 2 9.84375000000000000e-01
35 2 9.75365101179078486e-01
36 2 9.58471540889850537e-01
37 2 9.42704217953237666e-01
38 2 9.28063132369239874e-01
39 2 9.14548284137857603e-01
40 2 9.02159673259090189e-01
41 2 8.90897299732938075e-01
42 2 8.80761163559401483e-01
43 2 8.71751264738479970e-01
44 2 8.63867603270173423e-01
45 2 8.57110179154482288e-01
46 2 8.51478992391406120e-01
47 2 8.46974042980945363e-01
48 2 8.43595330923099906e-01
49 2 8.41342856217869306e-01
50 2 8.40216618865254228e-01
51 2 8.40216618865254228e-01
52 2 8.41342856217869528e-01
53 2 8.43595330923099906e-01
54 2 8.46974042980945363e-01
55 2 8.51478992391406342e-01
56 2 8.57110179154482288e-01
57 2 8.63867603270173534e-01
58 2 8.71751264738479970e-01
59 2 8.80761163559401483e-01
60 2 8.90897299732938297e-01
61 2 9.02159673259090300e-01
62 2 9.14548284137857603e-01
63 2 9.28063132369239874e-01
64 2 9.42704217953237555e-01
65 2 9.58471540889850315e-01
66 2 9.75365101179078486e-01
67 2 9.84375000000000000e-01
68 2 9.75365101179078486e-01
69 2 9.58471540889850537e-01
70 2 9.42704217953237666e-01
71 2 9.28063132369239874e-01
72 2 9.14548284137857603e-01
73 2 9.02159673259090189e-01
74 2 8.90897299732938075e-01
75 2 8.80761163559401483e-01
76 2 8.71751264738479970e-01
77 2 8.63867603270173423e-01
78 2 8.57110179154482288e-01
79 2 8.51478992391406120e-01
80 2 8.46974042980945363e-01
81 2 8.43595330923099906e-01
82 2 8.41342856217869306e-01
83 2 8.40216618865254228e-01
84 2 8.40216618865254228e-01
85 2 8.41342856217869528e-01
86 2 8.43595330923099906e-01
87 2 8.46974042980945363e-01
88 2 8.51478992391406342e-01
89 2 8.57110179154482288e-01
90 2 8.63867603270173534e-01
91 2 8.71751264738479970e-01
92 2 8.80761163559401483e-01
93 2 8.90897299732938297e-01
94 2 9.02159673259090300e-01
95 2 9.14548284137857603e-01
96 2 9.28063132369239874e-01
97 2 9.42704217953237555e-01
98 2 9.58471540889850315e-01
99 2 9.75365101179078486e-01
100 2 9.84375000000000000e-01
101 2 9.75365101179078486e-01
102 2 9.58471540889850537e-01
103 2 9.42704217953237666e-01
104 2 9.28063132369239874e-01
105 2 9.14548284137857603e-01
106 2 9.02159673259090189e-01
107 2 8.90897299732938075e-01
108 2 8.80761163559401483e-01
109 2 8.71751264738479970e-01
110 2 8.63867603270173423e-01
111 2 8.57110179154482288e-01
112 2 8.51478992391406120e-01
113 2 8.46974042980945363e-01
114 2 8.43595330923099906e-01
115 2 8.41342856217869306e-01
116 2 8.40216618865254228e-01
117 2 8.40216618865254228e-01
118 2 8.41342856217869528e-01
119 2 8.43595330923099906e-01
120 2 8.46974042980945363e-01
121 2 8.51478992391406342e-01
122 2 8.57110179154482288e-01
123 2 8.63867603270173534e-01
124 2 8.71751264738479970e-01
125 2 8.80761163559401483e-01
126 2 8.90897299732938297e-01
127 2 9.02159673259090300e-01
128 2 9.14548284137857603e-01
129 2 9.28063132369239874e-01
130 2 9.42704217953237555e-01
131 2 9.58471540889850315e-01
132 2 9.75365101179078486e-01
133 2 9.84375000000000000e-01
1 3 9.54101562500000000e-01
2 3 9.45368753821388630e-01
3 3 9.28994737548991978e-01
4 3 9.13712322361421858e-01
5 3 8.99521508258678049e-01
6 3 8.86422295240760771e-01
7 3 8.74414683307669804e-01
8 3 8.63498672459405259e-01
9 3 8.53674262695967467e-01
10 3 8.44941454017356319e-01
11 3 8.37300246423571037e-01
12 3 8.30750639914612288e-01
13 3 8.25292634490479959e-01
14 3 8.20926230151174274e-01
15 3 8.17651426896695011e-01
16 3 8.15468224727042057e-01
17 3 8.14376623642215636e-01
18 3 8.14376623642215636e-01
19 3 8.15468224727042168e-01
20 3 8.17651426896695011e-01
21 3 8.20926230151174274e-01
22 3 8.25292634490480070e-01
23 3 8.30750639914612288e-01
24 3 8.37300246423571037e-01
25 3 8.44941454017356319e-01
26 3 8.53674262695967467e-01
27 3 8.63498672459405370e-01
28 3 8.74414683307669804e-01
29 3 8.86422295240760771e-01
30 3 8.99521508258678049e-01
31 3 9.13712322361421747e-01
32 3 9.28994737548991978e-01
33 3 9.45368753821388630e-01
34 3 9.54101562500000000e-01
35 3 9.45368753821388630e-01
36 3 9.28994737548991978e-01
37 3 9.13712322361421858e-01
38 3 8.99521508258678049e-01
39 3 8.86422295240760771e-01
40 3 8.74414683307669804e-01
41 3 8.63498672459405259e-01
42 3 8.53674262695967467e-01
43 3 8.44941454017356319e-01
44 3 8.37300246423571037e-01
45 3 8.30750639914612288e-01
46 3 8.25292634490479959e-01
47 3 8.20926230151174274e-01
48 3 8.17651426896695011e-01
49 3 8.15468224727042057e-01
50 3 8.14376623642215636e-01
51 3 8.14376623642215636e-01
52 3 8.15468224727042168e-01
53 3 8.17651426896695011e-01
54 3 8.20926230151174274e-01
55 3 8.25292634490480070e-01
56 3 8.30750639914612288e-01
57 3 8.37300246423571037e-01
58 3 8.44941454017356319e-01
59 3 8.53674262695967467e-01
60 3 8.63498672459405370e-01
61 3 8.74414683307669804e-01
62 3 8.86422295240760771e-01
63 3 8.99521508258678049e-01
64 3 9.13712322361421747e-01
65 3 9.28994737548991978e-01
66 3 9.45368753821388630e-01
67 3 9.54101562500000000e-01
68 3 9.45368753821388630e-01
69 3 9.28994737548991978e-01
70 3 9.13712322361421858e-01
71 3 8.99521508258678049e-01
72 3 8.86422295240760771e-01
73 3 8.74414683307669804e-01
74 3 8.63498672459405259e-01
75 3 8.53674262695967467e-01
76 3 8.44941454017356319e-01
77 3 8.37300246423571037e-01
78 3 8.30750639914612288e-01
79 3 8.25292634490479959e-01
80 3 8.20926230151174274e-01
81 3 8.17651426896695011e-01
82 3 8.15468224727042057e-01
83 3 8.14376623642215636e-01
84 3 8.14376623642215636e-01
85 3 8.15468224727042168e-01
86 3 8.17651426896695011e-01
87 3 8.20926230151174274e-01
88 3 8.25292634490480070e-01
89 3 8.30750639914612288e-01
90 3 8.37300246423571037e-01
91 3 8.44941454017356319e-01
92 3 8.53674262695967467e-01
93 3 8.63498672459405370e-01
94 3 8.74414683307669804e-01
95 3 8.86422295240760771e-01
96 3 8.99521508258678049e-01
97 3 9.13712322361421747e-01
98 3 9.28994737548991978e-01
99 3 9.45368753821388630e-01
100 3 9.54101562500000000e-01
101 3 9.45368753821388630e-01
102 3 9.28994737548991978e-01
103 3 9.13712322361421858e-01
104 3 8.99521508258678049e-01
105 3 8.86422295240760771e-01
106 3 8.74414683307669804e-01
107 3 8.63498672459405259e-01
108 3 8.53674262695967467e-01
109 3 8.44941454017356319e-01
110 3 8.37300246423571037e-01
111 3 8.30750639914612288e-01
112 3 8.25292634490479959e-01
113 3 8.20926230151174274e-01
114 3 8.17651426896695011e-01
115 3 8.15468224727042057e-01
116 3 8.14376623642215636e-01
117 3 8.14376623642215636e-01
118 3 8.15468224727042168e-01
119 3 8.17651426896695011e-01
120 3 8.20926230151174274e-01
121 3 8.25292634490480070e-01
122 3 8.30750639914612288e-01
123 3 8.37300246423571037e-01
124 3 8.44941454017356319e-01
125 3 8.53674262695967467e-01
126 3 8.63498672459405370e-01
127 3 8.74414683307669804e-01
128 3 8.86422295240760771e-01
129 3 8.99521508258678049e-01
130 3 9.13712322361421747e-01
131 3 9.28994737548991978e-01
132 3 9.45368753821388630e-01
133 3 9.54101562500000000e-01
1 4 9.24804687500000000e-01
2 4 9.16340030572011299e-01
3 4 9.00468798832032125e-01
4 4 8.85655649208051621e-01
5 4 8.71900581700069788e-01
6 4 8.59203596308086404e-01
7 4 8.47564693032101690e-01
8 4 8.36983871872115426e-01
9 4 8.27461132828128054e-01
10 4 8.18996475900139465e-01
11 4 8.11589901088149102e-01
12 4 8.05241408392157521e-01
13 4 7.99950997812164277e-01
14 4 7.95718669348169927e-01
15 4 7.92544423000174136e-01
16 4 7.90428258768176906e-01
17 4 7.89370176652178235e-01
18 4 7.89370176652178235e-01
19 4 7.90428258768177017e-01
20 4 7.92544423000174136e-01
21 4 7.95718669348169927e-01
22 4 7.99950997812164388e-01
23 4 8.05241408392157521e-01
24 4 8.11589901088149102e-01
25 4 8.18996475900139465e-01
26 4 8.27461132828128276e-01
27 4 8.36983871872115648e-01
28 4 8.47564693032101690e-01
29 4 8.59203596308086404e-01
30 4 8.71900581700069788e-01
31 4 8.85655649208051621e-01
32 4 9.00468798832032125e-01
33 4 9.16340030572011299e-01
34 4 9.24804687500000000e-01
35 4 9.16340030572011299e-01
36 4 9.00468798832032125e-01
37 4 8.85655649208051621e-01
38 4 8.71900581700069788e-01
39 4 8.59203596308086404e-01
40 4 8.47564693032101690e-01
41 4 8.36983871872115426e-01
42 4 8.27461132828128054e-01
43 4 8.18996475900139465e-01
44 4 8.11589901088149102e-01
45 4 8.05241408392157521e-01
46 4 7.99950997812164277e-01
47 4 7.95718669348169927e-01
48 4 7.92544423000174136e-01
49 4 7.90428258768176906e-01
50 4 7.89370176652178235e-01
51 4 7.89370176652178235e-01
52 4 7.90428258768177017e-01
53 4 7.92544423000174136e-01
54 4 7.95718669348169927e-01
55 4 7.99950997812164388e-01
56 4 8.05241408392157521e-01
57 4 8.11589901088149102e-01
58 4 8.18996475900139465e-01
59 4 8.27461132828128276e-01
60 4 8.36983871872115648e-01
61 4 8.47564693032101690e-01
62 4 8.59203596308086404e-01
63 4 8.71900581700069788e-01
64 4 8.85655649208051621e-01
65 4 9.00468798832032125e-01
66 4 9.16340030572011299e-01
67 4 9.24804687500000000e-01
68 4 9.16340030572011299e-01
69 4 9.00468798832032125e-01
70 4 8.85655649208051621e-01
71 4 8.71900581700069788e-01
72 4 8.59203596308086404e-01
73 4 8.47564693032101690e-01
74 4 8.36983871872115426e-01
75 4 8.27461132828128054e-01
76 4 8.18996475900139465e-01
77 4 8.11589901088149102e-01
78 4 8.05241408392157521e-01
79 4 7.99950997812164277e-01
80 4 7.95718669348169927e-01
81 4 7.92544423000174136e-01
82 4 7.90428258768176906e-01
83 4 7.89370176652178235e-01
84 4 7.89370176652178235e-01
85 4 7.90428258768177017e-01
86 4 7.92544423000174136e-01
87 4 7.95718669348169927e-01
88 4 7.99950997812164388e-01
89 4 8.05241408392157521e-01
90 4 8.11589901088149102e-01
91 4 8.18996475900139465e-01
92 4 8.27461132828128276e-01
93 4 8.36983871872115648e-01
94 4 8.47564693032101690e-01
95 4 8.59203596308086404e-01
96 4 8.71900581700069788e-01
97 4 8.85655649208051621e-01
98 4 9.00468798832032125e-01
99 4 9.16340030572011299e-01
100 4 9.24804687500000000e-01
101 4 9.16340030572011299e-01
102 4 9.00468798832032125e-01
103 4 8.85655649208051621e-01
104 4 8.71900581700069788e-01
105 4 8.59203596308086404e-01
106 4 8.47564693032101690e-01
107 4 8.36983871872115426e-01
108 4 8.27461132828128054e-01
109 4 8.18996475900139465e-01
110 4 8.11589901088149102e-01
111 4 8.05241408392157521e-01
112 4 7.99950997812164277e-01
113 4 7.95718669348169927e-01
114 4 7.92544423000174136e-01
115 4 7.90428258768176906e-01
116 4 7.89370176652178235e-01
117 4 7.89370176652178235e-01
118 4 7.90428258768177017e-01
119 4 7.92544423000174136e-01
120 4 7.95718669348169927e-01
121 4 7.99950997812164388e-01
122 4 8.05241408392157521e-01
123 4 8.11589901088149102e-01
124 4 8.18996475900139465e-01
125 4 8.27461132828128276e-01
126 4 8.36983871872115648e-01
127 4 8.47564693032101690e-01
128 4 8.59203596308086404e-01
129 4 8.71900581700069788e-01
130 4 8.85655649208051621e-01
131 4 9.00468798832032125e-01
132 4 9.16340030572011299e-01
133 4 9.24804687500000000e-01
1 5 8.96484375000000000e-01
2 5 8.88278931430946606e-01
3 5 8.72893724738970977e-01
4 5 8.58534198493127176e-01
5 5 8.45200352693415091e-01
6 5 8.32892187339834722e-01
7 5 8.21609702432385847e-01
8 5 8.11352897971068687e-01
9 5 8.02121773955883466e-01
10 5 7.93916330386829960e-01
11 5 7.86736567263908060e-01
12 5 7.80582484587117986e-01
13 5 7.75454082356459073e-01
14 5 7.71351360571932543e-01
15 5 7.68274319233537284e-01
16 5 7.66222958341273963e-01
17 5 7.65197277895142136e-01
18 5 7.65197277895142136e-01
19 5 7.66222958341274074e-01
20 5 7.68274319233537284e-01
21 5 7.71351360571932543e-01
22 5 7.75454082356459296e-01
23 5 7.80582484587117986e-01
24 5 7.86736567263908060e-01
25 5 7.93916330386829960e-01
26 5 8.02121773955883688e-01
27 5 8.11352897971068798e-01
28 5 8.21609702432385847e-01
29 5 8.32892187339834722e-01
30 5 8.45200352693415091e-01
31 5 8.58534198493127176e-01
32 5 8.72893724738970866e-01
33 5 8.88278931430946606e-01
34 5 8.96484375000000000e-01
35 5 8.88278931430946606e-01
36 5 8.72893724738970977e-01
37 5 8.58534198493127176e-01
38 5 8.45200352693415091e-01
39 5 8.32892187339834722e-01
40 5 8.21609702432385847e-01
41 5 8.11352897971068687e-01
42 5 8.02121773955883466e-01
43 5 7.93916330386829960e-01
44 5 7.86736567263908060e-01
45 5 7.80582484587117986e-01
46 5 7.75454082356459073e-01
47 5 7.71351360571932543e-01
48 5 7.68274319233537284e-01
49 5 7.66222958341273963e-01
50 5 7.65197277895142136e-01
51 5 7.65197277895142136e-01
52 5 7.66222958341274074e-01
53 5 7.68274319233537284e-01
54 5 7.71351360571932543e-01
55 5 7.75454082356459296e-01
56 5 7.80582484587117986e-01
57 5 7.86736567263908060e-01
58 5 7.93916330386829960e-01
59 5 8.02121773955883688e-01
60 5 8.11352897971068798e-01
61 5 8.21609702432385847e-01
62 5 8.32892187339834722e-01
63 5 8.45200352693415091e-01
64 5 8.58534198493127176e-01
65 5 8.72893724738970866e-01
66 5 8.88278931430946606e-01
67 5 8.96484375000000000e-01
68 5 8.88278931430946606e-01
69 5 8.72893724738970977e-01
70 5 8.58534198493127176e-01
71 5 8.45200352693415091e-01
72 5 8.32892187339834722e-01
73 5 8.21609702432385847e-01
74 5 8.11352897971068687e-01
75 5 8.02121773955883466e-01
76 5 7.93916330386829960e-01
77 5 7.86736567263908060e-01
78 5 7.80582484587117986e-01
79 5 7.75454082356459073e-01
80 5 7.71351360571932543e-01
81 5 7.68274319233537284e-01
82 5 7.66222958341273963e-01
83 5 7.65197277895142136e-01
84 5 7.65197277895142136e-01
85 5 7.66222958341274074e-01
86 5 7.68274319233537284e-01
87 5 7.71351360571932543e-01
88 5 7.75454082356459296e-01
89 5 7.80582484587117986e-01
90 5 7.86736567263908060e-01
91 5 7.93916330386829960e-01
92 5 8.02121773955883688e-01
93 5 8.11352897971068798e-01
94 5 8.21609702432385847e-01
95 5 8.32892187339834722e-01
96 5 8.45200352693415091e-01
97 5 8.58534198493127176e-01
98 5 8.72893724738970866e-01
99 5 8.88278931430946606e-01
100 5 8.96484375000000000e-01
101 5 8.88278931430946606e-01
102 5 8.72893724738970977e-01
103 5 8.58534198493127176e-01
104 5 8.45200352693415091e-01
105 5 8.32892187339834722e-01
106 5 8.21609702432385847e-01
107 5 8.11352897971068687e-01
108 5 8.02121773955883466e-01
109 5 7.93916330386829960e-01
110 5 7.86736567263908060e-01
111 5 7.80582484587117986e-01
112 5 7.75454082356459073e-01
113 5 7.71351360571932543e-01
114 5 7.68274319233537284e-01
115 5 7.66222958341273963e-01
116 5 7.65197277895142136e-01
117 5 7.65197277895142136e-01
118 5 7.66222958341274074e-01
119 5 7.68274319233537284e-01
120 5 7.71351360571932543e-01
121 5 7.75454082356459296e-01
122 5 7.80582484587117986e-01
123 5 7.86736567263908060e-01
124 5 7.93916330386829960e-01
125 5 8.02121773955883688e-01
126 5 8.11352897971068798e-01
127 5 8.21609702432385847e-01
128 5 8.32892187339834722e-01
129 5 8.45200352693415091e-01
130 5 8.58534198493127176e-01
131 5 8.72893724738970866e-01
132 5 8.88278931430946606e-01
133 5 8.96484375000000000e-01
1 6 8.69140625000000000e-01
2 6 8.61185456398194438e-01
3 6 8.46269515269808315e-01
4 6 8.32347970216648303e-01
5 6 8.19420821238713959e-01
6 6 8.07488068336005282e-01
7 6 7.96549711508522162e-01
8 6 7.86605750756264932e-01
9 6 7.77656186079233369e-01
10 6 7.69701017477427807e-01
11 6 7.62740244950847690e-01
12 6 7.56773868499493463e-01
13 6 7.51801888123364459e-01
14 6 7.47824303822461789e-01
15 6 7.44841115596784564e-01
16 6 7.42852323446333118e-01
17 6 7.41857927371107340e-01
18 6 7.41857927371107340e-01
19 6 7.42852323446333229e-01
20 6 7.44841115596784564e-01
21 6 7.47824303822461789e-01
22 6 7.51801888123364570e-01
23 6 7.56773868499493463e-01
24 6 7.62740244950847690e-01
25 6 7.69701017477427807e-01
26 6 7.77656186079233702e-01
27 6 7.86605750756264932e-01
28 6 7.96549711508522162e-01
29 6 8.07488068336005282e-01
30 6 8.19420821238713959e-01
31 6 8.32347970216648303e-01
32 6 8.46269515269808315e-01
33 6 8.61185456398194438e-01
34 6 8.69140625000000000e-01
35 6 8.61185456398194438e-01
36 6 8.46269515269808315e-01
37 6 8.32347970216648303e-01
38 6 8.19420821238713959e-01
39 6 8.07488068336005282e-01
40 6 7.96549711508522162e-01
41 6 7.86605750756264932e-01
42 6 7.77656186079233369e-01
43 6 7.69701017477427807e-01
44 6 7.62740244950847690e-01
45 6 7.56773868499493463e-01
46 6 7.51801888123364459e-01
47 6 7.47824303822461789e-01
48 6 7.44841115596784564e-01
49 6 7.42852323446333118e-01
50 6 7.41857927371107340e-01
51 6 7.41857927371107340e-01
52 6 7.42852323446333229e-01
53 6 7.44841115596784564e-01
54 6 7.47824303822461789e-01
55 6 7.51801888123364570e-01
56 6 7.56773868499493463e-01
57 6 7.62740244950847690e-01
58 6 7.69701017477427807e-01
59 6 7.77656186079233702e-01
60 6 7.86605750756264932e-01
61 6 7.96549711508522162e-01
62 6 8.07488068336005282e-01
63 6 8.19420821238713959e-01
64 6 8.32347970216648303e-01
65 6 8.46269515269808315e-01
66 6 8.61185456398194438e-01
67 6 8.69140625000000000e-01
68 6 8.61185456398194438e-01
69 6 8.46269515269808315e-01
70 6 8.32347970216648303e-01
71 6 8.19420821238713959e-01
72 6 8.07488068336005282e-01
73 6 7.96549711508522162e-01
74 6 7.86605750756264932e-01
75 6 7.77656186079233369e-01
76 6 7.69701017477427807e-01
77 6 7.62740244950847690e-01
78 6 7.56773868499493463e-01
79 6 7.51801888123364459e-01
80 6 7.47824303822461789e-01
81 6 7.44841115596784564e-01
82 6 7.42852323446333118e-01
83 6 7.41857927371107340e-01
84 6 7.41857927371107340e-01
85 6 7.42852323446333229e-01
86 6 7.44841115596784564e-01
87 6 7.47824303822461789e-01
88 6 7.51801888123364570e-01
89 6 7.56773868499493463e-01
90 6 7.62740244950847690e-01
91 6 7.69701017477427807e-01
92 6 7.77656186079233702e-01
93 6 7.86605750756264932e-01
94 6 7.96549711508522162e-01
95 6 8.07488068336005282e-01
96 6 8.19420821238713959e-01
97 6 8.32347970216648303e-01
98 6 8.46269515269808315e-01
99 6 8.61185456398194438e-01
100 6 8.69140625000000000e-01
101 6 8.61185456398194438e-01
102 6 8.46269515269808315e-01
103 6 8.32347970216648303e-01
104 6 8.19420821238713959e-01
105 6 8.07488068336005282e-01
106 6 7.96549711508522162e-01
107 6 7.86605750756264932e-01
108 6 7.77656186079233369e-01
109 6 7.69701017477427807e-01
110 6 7.62740244950847690e-01
111 6 7.56773868499493463e-01
112 6 7.51801888123364459e-01
113 6 7.47824303822461789e-01
114 6 7.44841115596784564e-01
115 6 7.42852323446333118e-01
116 6 7.41857927371107340e-01
117 6 7.41857927371107340e-01
118 6 7.42852323446333229e-01
119 6 7.44841115596784564e-01
120 6 7.47824303822461789e-01
121 6 7.51801888123364570e-01
122 6 7.56773868499493463e-01
123 6 7.62740244950847690e-01
124 6 7.69701017477427807e-01
125 6 7.77656186079233702e-01
126 6 7.86605750756264932e-01
127 6 7.96549711508522162e-01
128 6 8.07488068336005282e-01
129 6 8.19420821238713959e-01
130 6 8.32347970216648303e-01
131 6 8.46269515269808315e-01
132 6 8.61185456398194438e-01
133 6 8.69140625000000000e-01
1 7 8.42773437500000000e-01
2 7 8.35059605473754796e-01
3 7 8.20596170424544358e-01
4 7 8.07096964378615112e-01
5 7 7.94561987335966391e-01
6 7 7.82991239296598307e-01
7 7 7.72384720260510749e-01
8 7 7.62742430227703938e-01
9 7 7.54064369198177875e-01
10 7 7.46350537171932782e-01
11 7 7.39600934148967992e-01
12 7 7.33815560129284061e-01
13 7 7.28994415112880323e-01
14 7 7.25137499099757887e-01
15 7 7.22244812089915755e-01
16 7 7.20316354083354371e-01
17 7 7.19352125080073734e-01
18 7 7.19352125080073734e-01
19 7 7.20316354083354593e-01
20 7 7.22244812089915755e-01
21 7 7.25137499099757887e-01
22 7 7.28994415112880434e-01
23 7 7.33815560129284061e-01
24 7 7.39600934148967992e-01
25 7 7.46350537171932782e-01
26 7 7.54064369198178208e-01
27 7 7.62742430227703938e-01
28 7 7.72384720260510749e-01
29 7 7.82991239296598307e-01
30 7 7.94561987335966391e-01
31 7 8.07096964378615112e-01
32 7 8.20596170424544358e-01
33 7 8.35059605473754796e-01
34 7 8.42773437500000000e-01
35 7 8.35059605473754796e-01
36 7 8.20596170424544358e-01
37 7 8.07096964378615112e-01
38 7 7.94561987335966391e-01
39 7 7.82991239296598307e-01
40 7 7.72384720260510749e-01
41 7 7.62742430227703938e-01
42 7 7.54064369198177875e-01
43 7 7.46350537171932782e-01
44 7 7.39600934148967992e-01
45 7 7.33815560129284061e-01
46 7 7.28994415112880323e-01
47 7 7.25137499099757887e-01
48 7 7.22244812089915755e-01
49 7 7.20316354083354371e-01
50 7 7.19352125080073734e-01
51 7 7.19352125080073734e-01
52 7 7.20316354083354593e-01
53 7 7.22244812089915755e-01
54 7 7.25137499099757887e-01
55 7 7.28994415112880434e-01
56 7 7.33815560129284061e-01
57 7 7.39600934148967992e-01
58 7 7.46350537171932782e-01
59 7 7.54064369198178208e-01
60 7 7.62742430227703938e-01
61 7 7.72384720260510749e-01
62 7 7.82991239296598307e-01
63 7 7.94561987335966391e-01
64 7 8.07096964378615112e-01
65 7 8.20596170424544358e-01
66 7 8.35059605473754796e-01
67 7 8.42773437500000000e-01
68 7 8.35059605473754796e-01
69 7 8.20596170424544358e-01
70 7 8.07096964378615112e-01
71 7 7.94561987335966391e-01
72 7 7.82991239296598307e-01
73 7 7.72384720260510749e-01
74 7 7.62742430227703938e-01
75 7 7.54064369198177875e-01
76 7 7.46350537171932782e-01
77 7 7.39600934148967992e-01
78 7 7.33815560129284061e-01
79 7 7.28994415112880323e-01
80 7 7.25137499099757887e-01
81 7 7.22244812089915755e-01
82 7 7.20316354083354371e-01
83 7 7.19352125080073734e-01
84 7 7.19352125080073734e-01
85 7 7.20316354083354593e-01
86 7 7.22244812089915755e-01
87 7 7.25137499099757887e-01
88 7 7.28994415112880434e-01
89 7 7.33815560129284061e-01
90 7 7.39600934148967992e-01
91 7 7.46350537171932782e-01
92 7 7.54064369198178208e-01
93 7 7.62742430227703938e-01
94 7 7.72384720260510749e-01
95 7 7.82991239296598307e-01
96 7 7.94561987335966391e-01
97 7 8.07096964378615112e-01
98 7 8.20596170424544358e-01
99 7 8.35059605473754796e-01
100 7 8.42773437500000000e-01
101 7 8.35059605473754796e-01
102 7 8.20596170424544358e-01
103 7 8.07096964378615112e-01
104 7 7.94561987335966391e-01
105 7 7.82991239296598307e-01
106 7 7.72384720260510749e-01
107 7 7.62742430227703938e-01
108 7 7.54064369198177875e-01
109 7 7.46350537171932782e-01
110 7 7.39600934148967992e-01
111 7 7.33815560129284061e-01
112 7 7.28994415112880323e-01
113 7 7.25137499099757887e-01
114 7 7.22244812089915755e-01
115 7 7.20316354083354371e-01
116 7 7.19352125080073734e-01
117 7 7.19352125080073734e-01
118 7 7.20316354083354593e-01
119 7 7.22244812089915755e-01
120 7 7.25137499099757887e-01
121 7 7.28994415112880434e-01
122 7 7.33815560129284061e-01
123 7 7.39600934148967992e-01
124 7 7.46350537171932782e-01
125 7 7.54064369198178208e-01
126 7 7.62742430227703938e-01
127 7 7.72384720260510749e-01
128 7 7.82991239296598307e-01
129 7 7.94561987335966391e-01
130 7 8.07096964378615112e-01
131 7 8.20596170424544358e-01
132 7 8.35059605473754796e-01
133 7 8.42773437500000000e-01
1 8 8.17382812500000000e-01
2 8 8.09901378657627791e-01
3 8 7.95873690203179218e-01
4 8 7.82781180979027602e-01
5 8 7.70623850985172498e-01
6 8 7.59401700221613907e-01
7 8 7.49114728688351605e-01
8 8 7.39762936385386149e-01
9 8 7.31346323312717095e-01
10 8 7.23864889470344886e-01
11 8 7.17318634858268966e-01
12 8 7.11707559476489893e-01
13 8 7.07031663325006776e-01
14 8 7.03290946403820727e-01
15 8 7.00485408712931079e-01
16 8 6.98615050252337833e-01
17 8 6.97679871022041431e-01
18 8 6.97679871022041431e-01
19 8 6.98615050252338166e-01
20 8 7.00485408712931079e-01
21 8 7.03290946403820727e-01
22 8 7.07031663325006887e-01
23 8 7.11707559476489893e-01
24 8 7.17318634858268966e-01
25 8 7.23864889470344886e-01
26 8 7.31346323312717539e-01
27 8 7.39762936385386149e-01
28 8 7.49114728688351605e-01
29 8 7.59401700221613907e-01
30 8 7.70623850985172498e-01
31 8 7.82781180979027602e-01
32 8 7.95873690203179218e-01
33 8 8.09901378657627791e-01
34 8 8.17382812500000000e-01
35 8 8.09901378657627791e-01
36 8 7.95873690203179218e-01
37 8 7.82781180979027602e-01
38 8 7.70623850985172498e-01
39 8 7.59401700221613907e-01
40 8 7.49114728688351605e-01
41 8 7.39762936385386149e-01
42 8 7.31346323312717095e-01
43 8 7.23864889470344886e-01
44 8 7.17318634858268966e-01
45 8 7.11707559476489893e-01
46 8 7.07031663325006776e-01
47 8 7.03290946403820727e-01
48 8 7.00485408712931079e-01
49 8 6.98615050252337833e-01
50 8 6.97679871022041431e-01
51 8 6.97679871022041431e-01
52 8 6.98615050252338166e-01
53 8 7.00485408712931079e-01
54 8 7.03290946403820727e-01
55 8 7.07031663325006887e-01
56 8 7.11707559476489893e-01
57 8 7.17318634858268966e-01
58 8 7.23864889470344886e-01
59 8 7.31346323312717539e-01
60 8 7.39762936385386149e-01
61 8 7.49114728688351605e-01
62 8 7.59401700221613907e-01
63 8 7.70623850985172498e-01
64 8 7.82781180979027602e-01
65 8 7.95873690203179218e-01
66 8 8.09901378657627791e-01
67 8 8.17382812500000000e-01
68 8 8.09901378657627791e-01
69 8 7.95873690203179218e-01
70 8 7.82781180979027602e-01
71 8 7.70623850985172498e-01
72 8 7.59401700221613907e-01
73 8 7.49114728688351605e-01
74 8 7.39762936385386149e-01
75 8 7.31346323312717095e-01
76 8 7.23864889470344886e-01
77 8 7.17318634858268966e-01
78 8 7.11707559476489893e-01
79 8 7.07031663325006776e-01
80 8 7.03290946403820727e-01
81 8 7.00485408712931079e-01
82 8 6.98615050252337833e-01
83 8 6.97679871022041431e-01
84 8 6.97679871022041431e-01
85 8 6.98615050252338166e-01
86 8 7.00485408712931079e-01
87 8 7.03290946403820727e-01
88 8 7.07031663325006887e-01
89 8 7.11707559476489893e-01
90 8 7.17318634858268966e-01
91 8 7.23864889470344886e-01
92 8 7.31346323312717539e-01
93 8 7.39762936385386149e-01
94 8 7.49114728688351605e-01
95 8 7.59401700221613907e-01
96 8 7.70623850985172498e-01
97 8 7.82781180979027602e-01
98 8 7.95873690203179218e-01
99 8 8.09901378657627791e-01
100 8 8.17382812500000000e-01
101 8 8.09901378657627791e-01
102 8 7.95873690203179218e-01
103 8 7.82781180979027602e-01
104 8 7.70623850985172498e-01
105 8 7.59401700221613907e-01
106 8 7.49114728688351605e-01
107 8 7.39762936385386149e-01
108 8 7.31346323312717095e-01
109 8 7.23864889470344886e-01
110 8 7.17318634858268966e-01
111 8 7.11707559476489893e-01
112 8 7.07031663325006776e-01
113 8 7.03290946403820727e-01
114 8 7.00485408712931079e-01
115 8 6.98615050252337833e-01
116 8 6.97679871022041431e-01
117 8 6.97679871022041431e-01
118 8 6.98615050252338166e-01
119 8 7.00485408712931079e-01
120 8 7.03290946403820727e-01
121 8 7.07031663325006887e-01
122 8 7.11707559476489893e-01
123 8 7.17318634858268966e-01
124 8 7.23864889470344886e-01
125 8 7.31346323312717539e-01
126 8 7.39762936385386149e-01
127 8 7.49114728688351605e-01
128 8 7.59401700221613907e-01
129 8 7.70623850985172498e-01
130 8 7.82781180979027602e-01
131 8 7.95873690203179218e-01
132 8 8.09901378657627791e-01
133 8 8.17382812500000000e-01
1 9 7.92968750000000000e-01
2 9 7.85710775949813311e-01
3 9 7.72102074605712785e-01
4 9 7.59400620017885775e-01
5 9 7.47606412186332281e-01
6 9 7.36719451111051971e-01
7 9 7.26739736792044844e-01
8 9 7.17667269229311344e-01
9 9 7.09502048422851028e-01
10 9 7.02244074372664340e-01
11 9 6.95893347078750835e-01
12 9 6.90449866541110957e-01
13 9 6.85913632759743708e-01
14 9 6.82284645734650530e-01
15 9 6.79562905465830314e-01
16 9 6.77748411953283614e-01
17 9 6.76841165197010319e-01
18 9 6.76841165197010319e-01
19 9 6.77748411953283836e-01
20 9 6.79562905465830314e-01
21 9 6.82284645734650530e-01
22 9 6.85913632759743708e-01
23 9 6.90449866541110957e-01
24 9 6.95893347078750835e-01
25 9 7.02244074372664340e-01
26 9 7.09502048422851361e-01
27 9 7.17667269229311344e-01
28 9 7.26739736792044844e-01
29 9 7.36719451111051971e-01
30 9 7.47606412186332281e-01
31 9 7.59400620017885775e-01
32 9 7.72102074605712785e-01
33 9 7.85710775949813311e-01
34 9 7.92968750000000000e-01
35 9 7.85710775949813311e-01
36 9 7.72102074605712785e-01
37 9 7.59400620017885775e-01
38 9 7.47606412186332281e-01
39 9 7.36719451111051971e-01
40 9 7.26739736792044844e-01
41 9 7.17667269229311344e-01
42 9 7.09502048422851028e-01
43 9 7.02244074372664340e-01
44 9 6.95893347078750835e-01
45 9 6.90449866541110957e-01
46 9 6.85913632759743708e-01
47 9 6.82284645734650530e-01
48 9 6.79562905465830314e-01
49 9 6.77748411953283614e-01
50 9 6.76841165197010319e-01
51 9 6.76841165197010319e-01
52 9 6.77748411953283836e-01
53 9 6.79562905465830314e-01
54 9 6.82284645734650530e-01
55 9 6.85913632759743708e-01
56 9 6.90449866541110957e-01
57 9 6.95893347078750835e-01
58 9 7.02244074372664340e-01
59 9 7.09502048422851361e-01
60 9 7.17667269229311344e-01
61 9 7.26739736792044844e-01
62 9 7.36719451111051971e-01
63 9 7.47606412186332281e-01
64 9 7.59400620017885775e-01
65 9 7.72102074605712785e-01
66 9 7.85710775949813311e-01
67 9 7.92968750000000000e-01
68 9 7.85710775949813311e-01
69 9 7.72102074605712785e-01
70 9 7.59400620017885775e-01
71 9 7.47606412186332281e-01
72 9 7.36719451111051971e-01
73 9 7.26739736792044844e-01
74 9 7.17667269229311344e-01
75 9 7.09502048422851028e-01
76 9 7.02244074372664340e-01
77 9 6.95893347078750835e-01
78 9 6.90449866541110957e-01
79 9 6.85913632759743708e-01
80 9 6.82284645734650530e-01
81 9 6.79562905465830314e-01
82 9 6.77748411953283614e-01
83 9 6.76841165197010319e-01
84 9 6.76841165197010319e-01
85 9 6.77748411953283836e-01
86 9 6.79562905465830314e-01
87 9 6.82284645734650530e-01
88 9 6.85913632759743708e-01
89 9 6.90449866541110957e-01
90 9 6.95893347078750835e-01
91 9 7.02244074372664340e-01
92 9 7.09502048422851361e-01
93 9 7.17667269229311344e-01
94 9 7.26739736792044844e-01
95 9 7.36719451111051971e-01
96 9 7.47606412186332281e-01
97 9 7.59400620017885775e-01
98 9 7.72102074605712785e-01
99 9 7.85710775949813311e-01
100 9 7.92968750000000000e-01
101 9 7.85710775949813311e-01
102 9 7.72102074605712785e-01
103 9 7.59400620017885775e-01
104 9 7.47606412186332281e-01
105 9 7.36719451111051971e-01
106 9 7.26739736792044844e-01
107 9 7.17667269229311344e-01
108 9 7.09502048422851028e-01
109 9 7.02244074372664340e-01
110 9 6.95893347078750835e-01
111 9 6.90449866541110957e-01
112 9 6.85913632759743708e-01
113 9 6.82284645734650530e-01
114 9 6.79562905465830314e-01
115 9 6.77748411953283614e-01
116 9 6.76841165197010319e-01
117 9 6.76841165197010319e-01
118 9 6.77748411953283836e-01
119 9 6.79562905465830314e-01
120 9 6.82284645734650530e-01
121 9 6.85913632759743708e-01
122 9 6.90449866541110957e-01
123 9 6.95893347078750835e-01
124 9 7.02244074372664340e-01
125 9 7.09502048422851361e-01
126 9 7.17667269229311344e-01
127 9 7.26739736792044844e-01
128 9 7.36719451111051971e-01
129 9 7.47606412186332281e-01
130 9 7.59400620017885775e-01
131 9 7.72102074605712785e-01
132 9 7.85710775949813311e-01
133 9 7.92968750000000000e-01
1 10 7.69531250000000000e-01
2 10 7.62487797350311469e-01
3 10 7.49281323632144947e-01
4 10 7.36955281495189629e-01
5 10 7.25509670939445628e-01
6 10 7.14944491964912499e-01
7 10 7.05259744571590241e-01
8 10 6.96455428759479411e-01
9 10 6.88531544528579675e-01
10 10 6.81488091878891034e-01
11 10 6.75325070810413375e-01
12 10 6.70042481323147143e-01
13 10 6.65640323417091229e-01
14 10 6.62118597092246963e-01
15 10 6.59477302348613681e-01
16 10 6.57716439186191493e-01
17 10 6.56836007604980510e-01
18 10 6.56836007604980510e-01
19 10 6.57716439186191715e-01
20 10 6.59477302348613681e-01
21 10 6.62118597092246963e-01
22 10 6.65640323417091229e-01
23 10 6.70042481323147143e-01
24 10 6.75325070810413375e-01
25 10 6.81488091878891034e-01
26 10 6.88531544528579897e-01
27 10 6.96455428759479522e-01
28 10 7.05259744571590241e-01
29 10 7.14944491964912499e-01
30 10 7.25509670939445628e-01
31 10 7.36955281495189629e-01
32 10 7.49281323632144947e-01
33 10 7.62487797350311469e-01
34 10 7.69531250000000000e-01
35 10 7.62487797350311469e-01
36 10 7.49281323632144947e-01
37 10 7.36955281495189629e-01
38 10 7.25509670939445628e-01
39 10 7.14944491964912499e-01
40 10 7.05259744571590241e-01
41 10 6.96455428759479411e-01
42 10 6.88531544528579675e-01
43 10 6.81488091878891034e-01
44 10 6.75325070810413375e-01
45 10 6.70042481323147143e-01
46 10 6.65640323417091229e-01
47 10 6.62118597092246963e-01
48 10 6.59477302348613681e-01
49 10 6.57716439186191493e-01
50 10 6.56836007604980510e-01
51 10 6.56836007604980510e-01
52 10 6.57716439186191715e-01
53 10 6.59477302348613681e-01
54 10 6.62118597092246963e-01
55 10 6.65640323417091229e-01
56 10 6.70042481323147143e-01
57 10 6.75325070810413375e-01
58 10 6.81488091878891034e-01
59 10 6.88531544528579897e-01
60 10 6.96455428759479522e-01
61 10 7.05259744571590241e-01
62 10 7.14944491964912499e-01
63 10 7.25509670939445628e-01
64 10 7.36955281495189629e-01
65 10 7.49281323632144947e-01
66 10 7.62487797350311469e-01
67 10 7.69531250000000000e-01
68 10 7.62487797350311469e-01
69 10 7.49281323632144947e-01
70 10 7.36955281495189629e-01
71 10 7.25509670939445628e-01
72 10 7.14944491964912499e-01
73 10 7.05259744571590241e-01
74 10 6.96455428759479411e-01
75 10 6.88531544528579675e-01
76 10 6.81488091878891034e-01
77 10 6.75325070810413375e-01
78 10 6.70042481323147143e-01
79 10 6.65640323417091229e-01
80 10 6.62118597092246963e-01
81 10 6.59477302348613681e-01
82 10 6.57716439186191493e-01
83 10 6.56836007604980510e-01
84 10 6.56836007604980510e-01
85 10 6.57716439186191715e-01
86 10 6.59477302348613681e-01
87 10 6.62118597092246963e-01
88 10 6.65640323417091229e-01
89 10 6.70042481323147143e-01
90 10 6.75325070810413375e-01
91 10 6.81488091878891034e-01
92 10 6.88531544528579897e-01
93 10 6.96455428759479522e-01
94 10 7.05259744571590241e-01
95 10 7.14944491964912499e-01
96 10 7.25509670939445628e-01
97 10 7.36955281495189629e-01
98 10 7.49281323632144947e-01
99 10 7.62487797350311469e-01
100 10 7.69531250000000000e-01
101 10 7.62487797350311469e-01
102 10 7.49281323632144947e-01
103 10 7.36955281495189629e-01
104 10 7.25509670939445628e-01
105 10 7.14944491964912499e-01
106 10 7.05259744571590241e-01
107 10 6.96455428759479411e-01
108 10 6.88531544528579675e-01
109 10 6.81488091878891034e-01
110 10 6.75325070810413375e-01
111 10 6.70042481323147143e-01
112 10 6.65640323417091229e-01
113 10 6.62118597092246963e-01
114 10 6.59477302348613681e-01
115 10 6.57716439186191493e-01
116 10 6.56836007604980510e-01
117 10 6.56836007604980510e-01
118 10 6.57716439186191715e-01
119 10 6.59477302348613681e-01
120 10 6.62118597092246963e-01
121 10 6.65640323417091229e-01
122 10 6.70042481323147143e-01
123 10 6.75325070810413375e-01
124 10 6.81488091878891034e-01
125 10 6.88531544528579897e-01
126 10 6.96455428759479522e-01
127 10 7.05259744571590241e-01
128 10 7.14944491964912499e-01
129 10 7.25509670939445628e-01
130 10 7.36955281495189629e-01
131 10 7.49281323632144947e-01
132 10 7.62487797350311469e-01
133 10 7.69531250000000000e-01
1 11 7.47070312500000000e-01
2 11 7.40232442859122153e-01
3 11 7.27411437282475815e-01
4 11 7.15445165410939166e-01
5 11 7.04333627244512539e-01
6 11 6.94076822783195491e-01
7 11 6.84674752026988021e-01
8 11 6.76127414975890573e-01
9 11 6.68434811629902814e-01
10 11 6.61596941989024967e-01
11 11 6.55613806053256587e-01
12 11 6.50485403822598451e-01
13 11 6.46211735297049228e-01
14 11 6.42792800476610360e-01
15 11 6.40228599361281070e-01
16 11 6.38519131951061469e-01
17 11 6.37664398245951891e-01
18 11 6.37664398245951891e-01
19 11 6.38519131951061802e-01
20 11 6.40228599361281070e-01
21 11 6.42792800476610360e-01
22 11 6.46211735297049228e-01
23 11 6.50485403822598451e-01
24 11 6.55613806053256587e-01
25 11 6.61596941989024967e-01
26 11 6.68434811629903036e-01
27 11 6.76127414975890684e-01
28 11 6.84674752026988021e-01
29 11 6.94076822783195491e-01
30 11 7.04333627244512539e-01
31 11 7.15445165410939166e-01
32 11 7.27411437282475815e-01
33 11 7.40232442859122153e-01
34 11 7.47070312500000000e-01
35 11 7.40232442859122153e-01
36 11 7.27411437282475815e-01
37 11 7.15445165410939166e-01
38 11 7.04333627244512539e-01
39 11 6.94076822783195491e-01
40 11 6.84674752026988021e-01
41 11 6.76127414975890573e-01
42 11 6.68434811629902814e-01
43 11 6.61596941989024967e-01
44 11 6.55613806053256587e-01
45 11 6.50485403822598451e-01
46 11 6.46211735297049228e-01
47 11 6.42792800476610360e-01
48 11 6.40228599361281070e-01
49 11 6.38519131951061469e-01
50 11 6.37664398245951891e-01
51 11 6.37664398245951891e-01
52 11 6.38519131951061802e-01
53 11 6.40228599361281070e-01
54 11 6.42792800476610360e-01
55 11 6.46211735297049228e-01
56 11 6.50485403822598451e-01
57 11 6.55613806053256587e-01
58 11 6.61596941989024967e-01
59 11 6.68434811629903036e-01
60 11 6.76127414975890684e-01
61 11 6.84674752026988021e-01
62 11 6.94076822783195491e-01
63 11 7.04333627244512539e-01
64 11 7.15445165410939166e-01
65 11 7.27411437282475815e-01
66 11 7.40232442859122153e-01
67 11 7.47070312500000000e-01
68 11 7.40232442859122153e-01
69 11 7.27411437282475815e-01
70 11 7.15445165410939166e-01
71 11 7.04333627244512539e-01
72 11 6.94076822783195491e-01
73 11 6.84674752026988021e-01
74 11 6.76127414975890573e-01
75 11 6.68434811629902814e-01
76 11 6.61596941989024967e-01
77 11 6.55613806053256587e-01
78 11 6.50485403822598451e-01
79 11 6.46211735297049228e-01
80 11 6.42792800476610360e-01
81 11 6.40228599361281070e-01
82 11 6.38519131951061469e-01
83 11 6.37664398245951891e-01
84 11 6.37664398245951891e-01
85 11 6.38519131951061802e-01
86 11 6.40228599361281070e-01
87 11 6.42792800476610360e-01
88 11 6.46211735297049228e-01
89 11 6.50485403822598451e-01
90 11 6.55613806053256587e-01
91 11 6.61596941989024967e-01
92 11 6.68434811629903036e-01
93 11 6.76127414975890684e-01
94 11 6.84674752026988021e-01
95 11 6.94076822783195491e-01
96 11 7.04333627244512539e-01
97 11 7.15445165410939166e-01
98 11 7.27411437282475815e-01
99 11 7.40232442859122153e-01
100 11 7.47070312500000000e-01
101 11 7.40232442859122153e-01
102 11 7.27411437282475815e-01
103 11 7.15445165410939166e-01
104 11 7.04333627244512539e-01
105 11 6.94076822783195491e-01
106 11 6.84674752026988021e-01
107 11 6.76127414975890573e-01
108 11 6.68434811629902814e-01
109 11 6.61596941989024967e-01
110 11 6.55613806053256587e-01
111 11 6.50485403822598451e-01
112 11 6.46211735297049228e-01
113 11 6.42792800476610360e-01
114 11 6.40228599361281070e-01
115 11 6.38519131951061469e-01
116 11 6.37664398245951891e-01
117 11 6.37664398245951891e-01
118 11 6.38519131951061802e-01
119 11 6.40228599361281070e-01
120 11 6.42792800476610360e-01
121 11 6.46211735297049228e-01
122 11 6.50485403822598451e-01
123 11 6.55613806053256587e-01
124 11 6.61596941989024967e-01
125 11 6.68434811629903036e-01
126 11 6.76127414975890684e-01
127 11 6.84674752026988021e-01
128 11 6.94076822783195491e-01
129 11 7.04333627244512539e-01
130 11 7.15445165410939166e-01
131 11 7.27411437282475815e-01
132 11 7.40232442859122153e-01
133 11 7.47070312500000000e-01
1 12 7.25585937500000000e-01
2 12 7.18944712476245473e-01
3 12 7.06492415556705389e-01
4 12 6.94870271765134384e-01
5 12 6.84078281101533126e-01
6 12 6.74116443565901058e-01
7 12 6.64984759158238070e-01
8 12 6.56683227878544828e-01
9 12 6.49211849726820667e-01
10 12 6.42570624703066140e-01
11 12 6.36759552807280693e-01
12 12 6.31778634039464881e-01
13 12 6.27627868399617816e-01
14 12 6.24307255887740498e-01
15 12 6.21816796503832592e-01
16 12 6.20156490247893766e-01
17 12 6.19326337119924575e-01
18 12 6.19326337119924575e-01
19 12 6.20156490247893988e-01
20 12 6.21816796503832592e-01
21 12 6.24307255887740498e-01
22 12 6.27627868399617816e-01
23 12 6.31778634039464881e-01
24 12 6.36759552807280693e-01
25 12 6.42570624703066140e-01
26 12 6.49211849726820889e-01
27 12 6.56683227878544828e-01
28 12 6.64984759158238070e-01
29 12 6.74116443565901058e-01
30 12 6.84078281101533126e-01
31 12 6.94870271765134384e-01
32 12 7.06492415556705389e-01
33 12 7.18944712476245473e-01
34 12 7.25585937500000000e-01
35 12 7.18944712476245473e-01
36 12 7.06492415556705389e-01
37 12 6.94870271765134384e-01
38 12 6.84078281101533126e-01
39 12 6.74116443565901058e-01
40 12 6.64984759158238070e-01
41 12 6.56683227878544828e-01
42 12 6.49211849726820667e-01
43 12 6.42570624703066140e-01
44 12 6.36759552807280693e-01
45 12 6.31778634039464881e-01
46 12 6.27627868399617816e-01
47 12 6.24307255887740498e-01
48 12 6.21816796503832592e-01
49 12 6.20156490247893766e-01
50 12 6.19326337119924575e-01
51 12 6.19326337119924575e-01
52 12 6.20156490247893988e-01
53 12 6.21816796503832592e-01
54 12 6.24307255887740498e-01
55 12 6.27627868399617816e-01
56 12 6.31778634039464881e-01
57 12 6.36759552807280693e-01
58 12 6.42570624703066140e-01
59 12 6.49211849726820889e-01
60 12 6.56683227878544828e-01
61 12 6.64984759158238070e-01
62 12 6.74116443565901058e-01
63 12 6.84078281101533126e-01
64 12 6.94870271765134384e-01
65 12 7.06492415556705389e-01
66 12 7.18944712476245473e-01
67 12 7.25585937500000000e-01
68 12 7.18944712476245473e-01
69 12 7.06492415556705389e-01
70 12 6.94870271765134384e-01
71 12 6.84078281101533126e-01
72 12 6.74116443565901058e-01
73 12 6.64984759158238070e-01
74 12 6.56683227878544828e-01
75 12 6.49211849726820667e-01
76 12 6.42570624703066140e-01
77 12 6.36759552807280693e-01
78 12 6.31778634039464881e-01
79 12 6.27627868399617816e-01
80 12 6.24307255887740498e-01
81 12 6.21816796503832592e-01
82 12 6.20156490247893766e-01
83 12 6.19326337119924575e-01
84 12 6.19326337119924575e-01
85 12 6.20156490247893988e-01
86 12 6.21816796503832592e-01
87 12 6.24307255887740498e-01
88 12 6.27627868399617816e-01
89 12 6.31778634039464881e-01
90 12 6.36759552807280693e-01
91 12 6.42570624703066140e-01
92 12 6.49211849726820889e-01
93 12 6.56683227878544828e-01
94 12 6.64984759158238070e-01
95 12 6.74116443565901058e-01
96 12 6.84078281101533126e-01
97 12 6.94870271765134384e-01
98 12 7.06492415556705389e-01
99 12 7.18944712476245473e-01
100 12 7.25585937500000000e-01
101 12 7.18944712476245473e-01
102 12 7.06492415556705389e-01
103 12 6.94870271765134384e-01
104 12 6.84078281101533126e-01
105 12 6.74116443565901058e-01
106 12 6.64984759158238070e-01
107 12 6.56683227878544828e-01
108 12 6.49211849726820667e-01
109 12 6.42570624703066140e-01
110 12 6.36759552807280693e-01
111 12 6.31778634039464881e-01
112 12 6.27627868399617816e-01
113 12 6.24307255887740498e-01
114 12 6.21816796503832592e-01
115 12 6.20156490247893766e-01
116 12 6.19326337119924575e-01
117 12 6.19326337119924575e-01
118 12 6.20156490247893988e-01
119 12 6.21816796503832592e-01
120 12 6.24307255887740498e-01
121 12 6.27627868399617816e-01
122 12 6.31778634039464881e-01
123 12 6.36759552807280693e-01
124 12 6.42570624703066140e-01
125 12 6.49211849726820889e-01
126 12 6.56683227878544828e-01
127 12 6.64984759158238070e-01
128 12 6.74116443565901058e-01
129 12 6.84078281101533126e-01
130 12 6.94870271765134384e-01
131 12 7.06492415556705389e-01
132 12 7.18944712476245473e-01
133 12 7.25585937500000000e-01
1 13 7.05078125000000000e-01
2 13 6.98624606201681320e-01
3 13 6.86524258454833447e-01
4 13 6.75230600557775285e-01
5 13 6.64743632510507276e-01
6 13 6.55063354313028978e-01
7 13 6.46189765965340390e-01
8 13 6.38122867467441957e-01
9 13 6.30862658819333122e-01
10 13 6.24409140021014553e-01
11 13 6.18762311072485360e-01
12 13 6.13922171973746433e-01
13 13 6.09888722724796772e-01
14 13 6.06661963325637488e-01
15 13 6.04241893776267913e-01
16 13 6.02628514076688160e-01
17 13 6.01821824226898339e-01
18 13 6.01821824226898339e-01
19 13 6.02628514076688382e-01
20 13 6.04241893776267913e-01
21 13 6.06661963325637488e-01
22 13 6.09888722724796772e-01
23 13 6.13922171973746433e-01
24 13 6.18762311072485360e-01
25 13 6.24409140021014553e-01
26 13 6.30862658819333344e-01
27 13 6.38122867467441957e-01
28 13 6.46189765965340390e-01
29 13 6.55063354313028978e-01
30 13 6.64743632510507276e-01
31 13 6.75230600557775285e-01
32 13 6.86524258454833447e-01
33 13 6.98624606201681320e-01
34 13 7.05078125000000000e-01
35 13 6.98624606201681320e-01
36 13 6.86524258454833447e-01
37 13 6.75230600557775285e-01
38 13 6.64743632510507276e-01
39 13 6.55063354313028978e-01
40 13 6.46189765965340390e-01
41 13 6.38122867467441957e-01
42 13 6.30862658819333122e-01
43 13 6.24409140021014553e-01
44 13 6.18762311072485360e-01
45 13 6.13922171973746433e-01
46 13 6.09888722724796772e-01
47 13 6.06661963325637488e-01
48 13 6.04241893776267913e-01
49 13 6.02628514076688160e-01
50 13 6.01821824226898339e-01
51 13 6.01821824226898339e-01
52 13 6.02628514076688382e-01
53 13 6.04241893776267913e-01
54 13 6.06661963325637488e-01
55 13 6.09888722724796772e-01
56 13 6.13922171973746433e-01
57 13 6.18762311072485360e-01
58 13 6.24409140021014553e-01
59 13 6.30862658819333344e-01
60 13 6.38122867467441957e-01
61 13 6.46189765965340390e-01
62 13 6.55063354313028978e-01
63 13 6.64743632510507276e-01
64 13 6.75230600557775285e-01
65 13 6.86524258454833447e-01
66 13 6.98624606201681320e-01
67 13 7.05078125000000000e-01
68 13 6.98624606201681320e-01
69 13 6.86524258454833447e-01
70 13 6.75230600557775285e-01
71 13 6.64743632510507276e-01
72 13 6.55063354313028978e-01
73 13 6.46189765965340390e-01
74 13 6.38122867467441957e-01
75 13 6.30862658819333122e-01
76 13 6.24409140021014553e-01
77 13 6.18762311072485360e-01
78 13 6.13922171973746433e-01
79 13 6.09888722724796772e-01
80 13 6.06661963325637488e-01
81 13 6.04241893776267913e-01
82 13 6.02628514076688160e-01
83 13 6.01821824226898339e-01
84 13 6.01821824226898339e-01
85 13 6.02628514076688382e-01
86 13 6.04241893776267913e-01
87 13 6.06661963325637488e-01
88 13 6.09888722724796772e-01
89 13 6.13922171973746433e-01
90 13 6.18762311072485360e-01
91 13 6.24409140021014553e-01
92 13 6.30862658819333344e-01
93 13 6.38122867467441957e-01
94 13 6.46189765965340390e-01
95 13 6.55063354313028978e-01
96 13 6.64743632510507276e-01
97 13 6.75230600557775285e-01
98 13 6.86524258454833447e-01
99 13 6.98624606201681320e-01
100 13 7.05078125000000000e-01
101 13 6.98624606201681320e-01
102 13 6.86524258454833447e-01
103 13 6.75230600557775285e-01
104 13 6.64743632510507276e-01
105 13 6.55063354313028978e-01
106 13 6.46189765965340390e-01
107 13 6.38122867467441957e-01
108 13 6.30862658819333122e-01
109 13 6.24409140021014553e-01
110 13 6.18762311072485360e-01
111 13 6.13922171973746433e-01
112 13 6.09888722724796772e-01
113 13 6.06661963325637488e-01
114 13 6.04241893776267913e-01
115 13 6.02628514076688160e-01
116 13 6.01821824226898339e-01
117 13 6.01821824226898339e-01
118 13 6.02628514076688382e-01
119 13 6.04241893776267913e-01
120 13 6.06661963325637488e-01
121 13 6.09888722724796772e-01
122 13 6.13922171973746433e-01
123 13 6.18762311072485360e-01
124 13 6.24409140021014553e-01
125 13 6.30862658819333344e-01
126 13 6.38122867467441957e-01
127 13 6.46189765965340390e-01
128 13 6.55063354313028978e-01
129 13 6.64743632510507276e-01
130 13 6.75230600557775285e-01
131 13 6.86524258454833447e-01
132 13 6.98624606201681320e-01
133 13 7.05078125000000000e-01
1 14 6.85546875000000000e-01
2 14 6.79272124035429803e-01
3 14 6.67506965976860211e-01
4 14 6.56526151788861756e-01
5 14 6.46329681471435102e-01
6 14 6.36917555024579363e-01
7 14 6.28289772448294981e-01
8 14 6.20446333742582068e-01
9 14 6.13387238907440291e-01
10 14 6.07112487942870094e-01
11 14 6.01622080848870810e-01
12 14 5.96916017625443218e-01
13 14 5.92994298272586318e-01
14 14 5.89856922790301219e-01
15 14 5.87503891178587367e-01
16 14 5.85935203437444763e-01
17 14 5.85150859566873405e-01
18 14 5.85150859566873405e-01
19 14 5.85935203437444985e-01
20 14 5.87503891178587367e-01
21 14 5.89856922790301219e-01
22 14 5.92994298272586429e-01
23 14 5.96916017625443218e-01
24 14 6.01622080848870810e-01
25 14 6.07112487942870094e-01
26 14 6.13387238907440513e-01
27 14 6.20446333742582068e-01
28 14 6.28289772448294981e-01
29 14 6.36917555024579363e-01
30 14 6.46329681471435102e-01
31 14 6.56526151788861756e-01
32 14 6.67506965976860211e-01
33 14 6.79272124035429803e-01
34 14 6.85546875000000000e-01
35 14 6.79272124035429803e-01
36 14 6.67506965976860211e-01
37 14 6.56526151788861756e-01
38 14 6.46329681471435102e-01
39 14 6.36917555024579363e-01
40 14 6.28289772448294981e-01
41 14 6.20446333742582068e-01
42 14 6.13387238907440291e-01
43 14 6.07112487942870094e-01
44 14 6.01622080848870810e-01
45 14 5.96916017625443218e-01
46 14 5.92994298272586318e-01
47 14 5.89856922790301219e-01
48 14 5.87503891178587367e-01
49 14 5.85935203437444763e-01
50 14 5.85150859566873405e-01
51 14 5.85150859566873405e-01
52 14 5.85935203437444985e-01
53 14 5.87503891178587367e-01
54 14 5.89856922790301219e-01
55 14 5.92994298272586429e-01
56 14 5.96916017625443218e-01
57 14 6.01622080848870810e-01
58 14 6.07112487942870094e-01
59 14 6.13387238907440513e-01
60 14 6.20446333742582068e-01
61 14 6.28289772448294981e-01
62 14 6.36917555024579363e-01
63 14 6.46329681471435102e-01
64 14 6.56526151788861756e-01
65 14 6.67506965976860211e-01
66 14 6.79272124035429803e-01
67 14 6.85546875000000000e-01
68 14 6.79272124035429803e-01
69 14 6.67506965976860211e-01
70 14 6.56526151788861756e-01
71 14 6.46329681471435102e-01
72 14 6.36917555024579363e-01
73 14 6.28289772448294981e-01
74 14 6.20446333742582068e-01
75 14 6.13387238907440291e-01
76 14 6.07112487942870094e-01
77 14 6.01622080848870810e-01
78 14 5.96916017625443218e-01
79 14 5.92994298272586318e-01
80 14 5.89856922790301219e-01
81 14 5.87503891178587367e-01
82 14 5.85935203437444763e-01
83 14 5.85150859566873405e-01
84 14 5.85150859566873405e-01
85 14 5.85935203437444985e-01
86 14 5.87503891178587367e-01
87 14 5.89856922790301219e-01
88 14 5.92994298272586429e-01
89 14 5.96916017625443218e-01
90 14 6.01622080848870810e-01
91 14 6.07112487942870094e-01
92 14 6.13387238907440513e-01
93 14 6.20446333742582068e-01
94 14 6.28289772448294981e-01
95 14 6.36917555024579363e-01
96 14 6.46329681471435102e-01
97 14 6.56526151788861756e-01
98 14 6.67506965976860211e-01
99 14 6.79272124035429803e-01
100 14 6.85546875000000000e-01
101 14 6.79272124035429803e-01
102 14 6.67506965976860211e-01
103 14 6.56526151788861756e-01
104 14 6.46329681471435102e-01
105 14 6.36917555024579363e-01
106 14 6.28289772448294981e-01
107 14 6.20446333742582068e-01
108 14 6.13387238907440291e-01
109 14 6.07112487942870094e-01
110 14 6.01622080848870810e-01
111 14 5.96916017625443218e-01
112 14 5.92994298272586318e-01
113 14 5.89856922790301219e-01
114 14 5.87503891178587367e-01
115 14 5.85935203437444763e-01
116 14 5.85150859566873405e-01
117 14 5.85150859566873405e-01
118 14 5.85935203437444985e-01
119 14 5.87503891178587367e-01
120 14 5.89856922790301219e-01
121 14 5.92994298272586429e-01
122 14 5.96916017625443218e-01
123 14 6.01622080848870810e-01
124 14 6.07112487942870094e-01
125 14 6.13387238907440513e-01
126 14 6.20446333742582068e-01
127 14 6.28289772448294981e-01
128 14 6.36917555024579363e-01
129 14 6.46329681471435102e-01
130 14 6.56526151788861756e-01
131 14 6.67506965976860211e-01
132 14 6.79272124035429803e-01
133 14 6.85546875000000000e-01
1 15 6.66992187500000000e-01
2 15 6.60887265977490701e-01
3 15 6.49440538122785682e-01
4 15 6.38756925458394020e-01
5 15 6.28836427984316493e-01
6 15 6.19679045700552211e-01
7 15 6.11284778607101842e-01
8 15 6.03653626703965163e-01
9 15 5.96785589991142063e-01
10 15 5.90680668468632764e-01
11 15 5.85338862136437044e-01
12 15 5.80760170994555125e-01
13 15 5.76944595042986341e-01
14 15 5.73892134281731803e-01
15 15 5.71602788710790843e-01
16 15 5.70076558330163463e-01
17 15 5.69313443139849662e-01
18 15 5.69313443139849662e-01
19 15 5.70076558330163685e-01
20 15 5.71602788710790843e-01
21 15 5.73892134281731803e-01
22 15 5.76944595042986452e-01
23 15 5.80760170994555125e-01
24 15 5.85338862136437044e-01
25 15 5.90680668468632764e-01
26 15 5.96785589991142174e-01
27 15 6.03653626703965163e-01
28 15 6.11284778607101842e-01
29 15 6.19679045700552211e-01
30 15 6.28836427984316493e-01
31 15 6.38756925458394020e-01
32 15 6.49440538122785682e-01
33 15 6.60887265977490701e-01
34 15 6.66992187500000000e-01
35 15 6.60887265977490701e-01
36 15 6.49440538122785682e-01
37 15 6.38756925458394020e-01
38 15 6.28836427984316493e-01
39 15 6.19679045700552211e-01
40 15 6.11284778607101842e-01
41 15 6.03653626703965163e-01
42 15 5.96785589991142063e-01
43 15 5.90680668468632764e-01
44 15 5.85338862136437044e-01
45 15 5.80760170994555125e-01
46 15 5.76944595042986341e-01
47 15 5.73892134281731803e-01
48 15 5.71602788710790843e-01
49 15 5.70076558330163463e-01
50 15 5.69313443139849662e-01
51 15 5.69313443139849662e-01
52 15 5.70076558330163685e-01
53 15 5.71602788710790843e-01
54 15 5.73892134281731803e-01
55 15 5.76944595042986452e-01
56 15 5.80760170994555125e-01
57 15 5.85338862136437044e-01
58 15 5.90680668468632764e-01
59 15 5.96785589991142174e-01
60 15 6.03653626703965163e-01
61 15 6.11284778607101842e-01
62 15 6.19679045700552211e-01
63 15 6.28836427984316493e-01
64 15 6.38756925458394020e-01
65 15 6.49440538122785682e-01
66 15 6.60887265977490701e-01
67 15 6.66992187500000000e-01
68 15 6.60887265977490701e-01
69 15 6.49440538122785682e-01
70 15 6.38756925458394020e-01
71 15 6.28836427984316493e-01
72 15 6.19679045700552211e-01
73 15 6.11284778607101842e-01
74 15 6.03653626703965163e-01
75 15 5.96785589991142063e-01
76 15 5.90680668468632764e-01
77 15 5.85338862136437044e-01
78 15 5.80760170994555125e-01
79 15 5.76944595042986341e-01
80 15 5.73892134281731803e-01
81 15 5.71602788710790843e-01
82 15 5.70076558330163463e-01
83 15 5.69313443139849662e-01
84 15 5.69313443139849662e-01
85 15 5.70076558330163685e-01
86 15 5.71602788710790843e-01
87 15 5.73892134281731803e-01
88 15 5.76944595042986452e-01
89 15 5.80760170994555125e-01
90 15 5.85338862136437044e-01
91 15 5.90680668468632764e-01
92 15 5.96785589991142174e-01
93 15 6.03653626703965163e-01
94 15 6.11284778607101842e-01
95 15 6.19679045700552211e-01
96 15 6.28836427984316493e-01
97 15 6.38756925458394020e-01
98 15 6.49440538122785682e-01
99 15 6.60887265977490701e-01
100 15 6.66992187500000000e-01
101 15 6.60887265977490701e-01
102 15 6.49440538122785682e-01
103 15 6.38756925458394020e-01
104 15 6.28836427984316493e-01
105 15 6.19679045700552211e-01
106 15 6.11284778607101842e-01
107 15 6.03653626703965163e-01
108 15 5.96785589991142063e-01
109 15 5.90680668468632764e-01
110 15 5.85338862136437044e-01
111 15 5.80760170994555125e-01
112 15 5.76944595042986341e-01
113 15 5.73892134281731803e-01
114 15 5.71602788710790843e-01
115 15 5.70076558330163463e-01
116 15 5.69313443139849662e-01
117 15 5.69313443139849662e-01
118 15 5.70076558330163685e-01
119 15 5.71602788710790843e-01
120 15 5.73892134281731803e-01
121 15 5.76944595042986452e-01
122 15 5.80760170994555125e-01
123 15 5.85338862136437044e-01
124 15 5.90680668468632764e-01
125 15 5.96785589991142174e-01
126 15 6.03653626703965163e-01
127 15 6.11284778607101842e-01
128 15 6.19679045700552211e-01
129 15 6.28836427984316493e-01
130 15 6.38756925458394020e-01
131 15 6.49440538122785682e-01
132 15 6.60887265977490701e-01
133 15 6.66992187500000000e-01
1 16 6.49414062500000000e-01
2 16 6.43470032027864347e-01
3 16 6.32324974892609748e-01
4 16 6.21922921566371856e-01
5 16 6.12263872049151447e-01
6 16 6.03347826340947524e-01
7 16 5.95174784441760973e-01
8 16 5.87744746351591241e-01
9 16 5.81057712070438437e-01
10 16 5.75113681598302784e-01
11 16 5.69912654935183949e-01
12 16 5.65454632081082265e-01
13 16 5.61739613035996954e-01
14 16 5.58767597799929128e-01
15 16 5.56538586372878341e-01
16 16 5.55052578754844372e-01
17 16 5.54309574945827221e-01
18 16 5.54309574945827221e-01
19 16 5.55052578754844594e-01
20 16 5.56538586372878341e-01
21 16 5.58767597799929128e-01
22 16 5.61739613035997065e-01
23 16 5.65454632081082265e-01
24 16 5.69912654935183949e-01
25 16 5.75113681598302784e-01
26 16 5.81057712070438548e-01
27 16 5.87744746351591241e-01
28 16 5.95174784441760973e-01
29 16 6.03347826340947524e-01
30 16 6.12263872049151447e-01
31 16 6.21922921566371856e-01
32 16 6.32324974892609748e-01
33 16 6.43470032027864347e-01
34 16 6.49414062500000000e-01
35 16 6.43470032027864347e-01
36 16 6.32324974892609748e-01
37 16 6.21922921566371856e-01
38 16 6.12263872049151447e-01
39 16 6.03347826340947524e-01
40 16 5.95174784441760973e-01
41 16 5.87744746351591241e-01
42 16 5.81057712070438437e-01
43 16 5.75113681598302784e-01
44 16 5.69912654935183949e-01
45 16 5.65454632081082265e-01
46 16 5.61739613035996954e-01
47 16 5.58767597799929128e-01
48 16 5.56538586372878341e-01
49 16 5.55052578754844372e-01
50 16 5.54309574945827221e-01
51 16 5.54309574945827221e-01
52 16 5.55052578754844594e-01
53 16 5.56538586372878341e-01
54 16 5.58767597799929128e-01
55 16 5.61739613035997065e-01
56 16 5.65454632081082265e-01
57 16 5.69912654935183949e-01
58 16 5.75113681598302784e-01
59 16 5.81057712070438548e-01
60 16 5.87744746351591241e-01
61 16 5.95174784441760973e-01
62 16 6.03347826340947524e-01
63 16 6.12263872049151447e-01
64 16 6.21922921566371856e-01
65 16 6.32324974892609748e-01
66 16 6.43470032027864347e-01
67 16 6.49414062500000000e-01
68 16 6.43470032027864347e-01
69 16 6.32324974892609748e-01
70 16 6.21922921566371856e-01
71 16 6.12263872049151447e-01
72 16 6.03347826340947524e-01
73 16 5.95174784441760973e-01
74 16 5.87744746351591241e-01
75 16 5.81057712070438437e-01
76 16 5.75113681598302784e-01
77 16 5.69912654935183949e-01
78 16 5.65454632081082265e-01
79 16 5.61739613035996954e-01
80 16 5.58767597799929128e-01
81 16 5.56538586372878341e-01
82 16 5.55052578754844372e-01
83 16 5.54309574945827221e-01
84 16 5.54309574945827221e-01
85 16 5.55052578754844594e-01
86 16 5.56538586372878341e-01
87 16 5.58767597799929128e-01
88 16 5.61739613035997065e-01
89 16 5.65454632081082265e-01
90 16 5.69912654935183949e-01
91 16 5.75113681598302784e-01
92 16 5.81057712070438548e-01
93 16 5.87744746351591241e-01
94 16 5.95174784441760973e-01
95 16 6.03347826340947524e-01
96 16 6.12263872049151447e-01
97 16 6.21922921566371856e-01
98 16 6.32324974892609748e-01
99 16 6.43470032027864347e-01
100 16 6.49414062500000000e-01
101 16 6.43470032027864347e-01
102 16 6.32324974892609748e-01
103 16 6.21922921566371856e-01
104 16 6.12263872049151447e-01
105 16 6.03347826340947524e-01
106 16 5.95174784441760973e-01
107 16 5.87744746351591241e-01
108 16 5.81057712070438437e-01
109 16 5.75113681598302784e-01
110 16 5.69912654935183949e-01
111 16 5.65454632081082265e-01
112 16 5.61739613035996954e-01
113 16 5.58767597799929128e-01
114 16 5.56538586372878341e-01
115 16 5.55052578754844372e-01
116 16 5.54309574945827221e-01
117 16 5.54309574945827221e-01
118 16 5.55052578754844594e-01
119 16 5.56538586372878341e-01
120 16 5.58767597799929128e-01
121 16 5.61739613035997065e-01
122 16 5.65454632081082265e-01
123 16 5.69912654935183949e-01
124 16 5.75113681598302784e-01
125 16 5.81057712070438548e-01
126 16 5.87744746351591241e-01
127 16 5.95174784441760973e-01
128 16 6.03347826340947524e-01
129 16 6.12263872049151447e-01
130 16 6.21922921566371856e-01
131 16 6.32324974892609748e-01
132 16 6.43470032027864347e-01
133 16 6.49414062500000000e-01
1 17 6.32812500000000000e-01
2 17 6.27020422186550519e-01
3 17 6.16160276286332520e-01
4 17 6.06024140112795484e-01
5 17 5.96612013665940077e-01
6 17 5.87923896945765412e-01
7 17 5.79959789952272375e-01
8 17 5.72719692685460302e-01
9 17 5.66203605145329525e-01
10 17 5.60411527331879933e-01
11 17 5.55343459245111526e-01
12 17 5.50999400885024526e-01
13 17 5.47379352251618156e-01
14 17 5.44483313344893416e-01
15 17 5.42311284164849861e-01
16 17 5.40863264711487490e-01
17 17 5.40139254984806083e-01
18 17 5.40139254984806083e-01
19 17 5.40863264711487712e-01
20 17 5.42311284164849861e-01
21 17 5.44483313344893416e-01
22 17 5.47379352251618156e-01
23 17 5.50999400885024526e-01
24 17 5.55343459245111526e-01
25 17 5.60411527331879933e-01
26 17 5.66203605145329636e-01
27 17 5.72719692685460302e-01
28 17 5.79959789952272375e-01
29 17 5.87923896945765412e-01
30 17 5.96612013665940077e-01
31 17 6.06024140112795484e-01
32 17 6.16160276286332520e-01
33 17 6.27020422186550519e-01
34 17 6.32812500000000000e-01
35 17 6.27020422186550519e-01
36 17 6.16160276286332520e-01
37 17 6.06024140112795484e-01
38 17 5.96612013665940077e-01
39 17 5.87923896945765412e-01
40 17 5.79959789952272375e-01
41 17 5.72719692685460302e-01
42 17 5.66203605145329525e-01
43 17 5.60411527331879933e-01
44 17 5.55343459245111526e-01
45 17 5.50999400885024526e-01
46 17 5.47379352251618156e-01
47 17 5.44483313344893416e-01
48 17 5.42311284164849861e-01
49 17 5.40863264711487490e-01
50 17 5.40139254984806083e-01
51 17 5.40139254984806083e-01
52 17 5.40863264711487712e-01
53 17 5.42311284164849861e-01
54 17 5.44483313344893416e-01
55 17 5.47379352251618156e-01
56 17 5.50999400885024526e-01
57 17 5.55343459245111526e-01
58 17 5.60411527331879933e-01
59 17 5.66203605145329636e-01
60 17 5.72719692685460302e-01
61 17 5.79959789952272375e-01
62 17 5.87923896945765412e-01
63 17 5.96612013665940077e-01
64 17 6.06024140112795484e-01
65 17 6.16160276286332520e-01
66 17 6.27020422186550519e-01
67 17 6.32812500000000000e-01
68 17 6.27020422186550519e-01
69 17 6.16160276286332520e-01
70 17 6.06024140112795484e-01
71 17 5.96612013665940077e-01
72 17 5.87923896945765412e-01
73 17 5.79959789952272375e-01
74 17 5.72719692685460302e-01
75 17 5.66203605145329525e-01
76 17 5.60411527331879933e-01
77 17 5.55343459245111526e-01
78 17 5.50999400885024526e-01
79 17 5.47379352251618156e-01
80 17 5.44483313344893416e-01
81 17 5.42311284164849861e-01
82 17 5.40863264711487490e-01
83 17 5.40139254984806083e-01
84 17 5.40139254984806083e-01
85 17 5.40863264711487712e-01
86 17 5.42311284164849861e-01
87 17 5.44483313344893416e-01
88 17 5.47379352251618156e-01
89 17 5.50999400885024526e-01
90 17 5.55343459245111526e-01
91 17 5.60411527331879933e-01
92 17 5.66203605145329636e-01
93 17 5.72719692685460302e-01
94 17 5.79959789952272375e-01
95 17 5.87923896945765412e-01
96 17 5.96612013665940077e-01
97 17 6.06024140112795484e-01
98 17 6.16160276286332520e-01
99 17 6.27020422186550519e-01
100 17 6.32812500000000000e-01
101 17 6.27020422186550519e-01
102 17 6.16160276286332520e-01
103 17 6.06024140112795484e-01
104 17 5.96612013665940077e-01
105 17 5.87923896945765412e-01
106 17 5.79959789952272375e-01
107 17 5.72719692685460302e-01
108 17 5.66203605145329525e-01
109 17 5.60411527331879933e-01
110 17 5.55343459245111526e-01
111 17 5.50999400885024526e-01
112 17 5.47379352251618156e-01
113 17 5.44483313344893416e-01
114 17 5.42311284164849861e-01
115 17 5.40863264711487490e-01
116 17 5.40139254984806083e-01
117 17 5.40139254984806083e-01
118 17 5.40863264711487712e-01
119 17 5.42311284164849861e-01
120 17 5.44483313344893416e-01
121 17 5.47379352251618156e-01
122 17 5.50999400885024526e-01
123 17 5.55343459245111526e-01
124 17 5.60411527331879933e-01
125 17 5.66203605145329636e-01
126 17 5.72719692685460302e-01
127 17 5.79959789952272375e-01
128 17 5.87923896945765412e-01
129 17 5.96612013665940077e-01
130 17 6.06024140112795484e-01
131 17 6.16160276286332520e-01
132 17 6.27020422186550519e-01
133 17 6.32812500000000000e-01
1 18 6.17187500000000000e-01
2 18 6.11538436453549328e-01
3 18 6.00946442303953887e-01
4 18 5.91060581097664683e-01
5 18 5.81880852834682272e-01
6 18 5.73407257515005764e-01
7 18 5.65639795138636048e-01
8 18 5.58578465705572458e-01
9 18 5.52223269215815216e-01
10 18 5.46574205669364432e-01
11 18 5.41631275066219886e-01
12 18 5.37394477406381910e-01
13 18 5.33863812689849837e-01
14 18 5.31039280916624445e-01
15 18 5.28920882086705513e-01
16 18 5.27508616200092706e-01
17 18 5.26802483256786247e-01
18 18 5.26802483256786247e-01
19 18 5.27508616200092928e-01
20 18 5.28920882086705513e-01
21 18 5.31039280916624445e-01
22 18 5.33863812689849837e-01
23 18 5.37394477406381910e-01
24 18 5.41631275066219886e-01
25 18 5.46574205669364432e-01
26 18 5.52223269215815327e-01
27 18 5.58578465705572458e-01
28 18 5.65639795138636048e-01
29 18 5.73407257515005764e-01
30 18 5.81880852834682272e-01
31 18 5.91060581097664683e-01
32 18 6.00946442303953887e-01
33 18 6.11538436453549328e-01
34 18 6.17187500000000000e-01
35 18 6.11538436453549328e-01
36 18 6.00946442303953887e-01
37 18 5.91060581097664683e-01
38 18 5.81880852834682272e-01
39 18 5.73407257515005764e-01
40 18 5.65639795138636048e-01
41 18 5.58578465705572458e-01
42 18 5.52223269215815216e-01
43 18 5.46574205669364432e-01
44 18 5.41631275066219886e-01
45 18 5.37394477406381910e-01
46 18 5.33863812689849837e-01
47 18 5.31039280916624445e-01
48 18 5.28920882086705513e-01
49 18 5.27508616200092706e-01
50 18 5.26802483256786247e-01
51 18 5.26802483256786247e-01
52 18 5.27508616200092928e-01
53 18 5.28920882086705513e-01
54 18 5.31039280916624445e-01
55 18 5.33863812689849837e-01
56 18 5.37394477406381910e-01
57 18 5.41631275066219886e-01
58 18 5.46574205669364432e-01
59 18 5.52223269215815327e-01
60 18 5.58578465705572458e-01
61 18 5.65639795138636048e-01
62 18 5.73407257515005764e-01
63 18 5.81880852834682272e-01
64 18 5.91060581097664683e-01
65 18 6.00946442303953887e-01
66 18 6.11538436453549328e-01
67 18 6.17187500000000000e-01
68 18 6.11538436453549328e-01
69 18 6.00946442303953887e-01
70 18 5.91060581097664683e-01
71 18 5.81880852834682272e-01
72 18 5.73407257515005764e-01
73 18 5.65639795138636048e-01
74 18 5.58578465705572458e-01
75 18 5.52223269215815216e-01
76 18 5.46574205669364432e-01
77 18 5.41631275066219886e-01
78 18 5.37394477406381910e-01
79 18 5.33863812689849837e-01
80 18 5.31039280916624445e-01
81 18 5.28920882086705513e-01
82 18 5.27508616200092706e-01
83 18 5.26802483256786247e-01
84 18 5.26802483256786247e-01
85 18 5.27508616200092928e-01
86 18 5.28920882086705513e-01
87 18 5.31039280916624445e-01
88 18 5.33863812689849837e-01
89 18 5.37394477406381910e-01
90 18 5.41631275066219886e-01
91 18 5.46574205669364432e-01
92 18 5.52223269215815327e-01
93 18 5.58578465705572458e-01
94 18 5.65639795138636048e-01
95 18 5.73407257515005764e-01
96 18 5.81880852834682272e-01
97 18 5.91060581097664683e-01
98 18 6.00946442303953887e-01
99 18 6.11538436453549328e-01
100 18 6.17187500000000000e-01
101 18 6.11538436453549328e-01
102 18 6.00946442303953887e-01
103 18 5.91060581097664683e-01
104 18 5.81880852834682272e-01
105 18 5.73407257515005764e-01
106 18 5.65639795138636048e-01
107 18 5.58578465705572458e-01
108 18 5.52223269215815216e-01
109 18 5.46574205669364432e-01
110 18 5.41631275066219886e-01
111 18 5.37394477406381910e-01
112 18 5.33863812689849837e-01
113 18 5.31039280916624445e-01
114 18 5.28920882086705513e-01
115 18 5.27508616200092706e-01
116 18 5.26802483256786247e-01
117 18 5.26802483256786247e-01
118 18 5.27508616200092928e-01
119 18 5.28920882086705513e-01
120 18 5.31039280916624445e-01
121 18 5.33863812689849837e-01
122 18 5.37394477406381910e-01
123 18 5.41631275066219886e-01
124 18 5.46574205669364432e-01
125 18 5.52223269215815327e-01
126 18 5.58578465705572458e-01
127 18 5.65639795138636048e-01
128 18 5.73407257515005764e-01
129 18 5.81880852834682272e-01
130 18 5.91060581097664683e-01
131 18 6.00946442303953887e-01
132 18 6.11538436453549328e-01
133 18 6.17187500000000000e-01
1 19 6.02539062500000000e-01
2 19 5.97024074828860662e-01
3 19 5.86683472945473961e-01
4 19 5.77032244520979676e-01
5 19 5.68070389555378141e-01
6 19 5.59797908048668691e-01
7 19 5.52214800000851991e-01
8 19 5.45321065411927597e-01
9 19 5.39116704281895620e-01
10 19 5.33601716610756061e-01
11 19 5.28776102398509029e-01
12 19 5.24639861645154526e-01
13 19 5.21192994350691996e-01
14 19 5.18435500515122327e-01
15 19 5.16367380138445076e-01
16 19 5.14988633220660130e-01
17 19 5.14299259761767602e-01
18 19 5.14299259761767602e-01
19 19 5.14988633220660352e-01
20 19 5.16367380138445076e-01
21 19 5.18435500515122327e-01
22 19 5.21192994350692107e-01
23 19 5.24639861645154526e-01
24 19 5.28776102398509029e-01
25 19 5.33601716610756061e-01
26 19 5.39116704281895620e-01
27 19 5.45321065411927597e-01
28 19 5.52214800000851991e-01
29 19 5.59797908048668691e-01
30 19 5.68070389555378141e-01
31 19 5.77032244520979676e-01
32 19 5.86683472945473961e-01
33 19 5.97024074828860662e-01
34 19 6.02539062500000000e-01
35 19 5.97024074828860662e-01
36 19 5.86683472945473961e-01
37 19 5.77032244520979676e-01
38 19 5.68070389555378141e-01
39 19 5.59797908048668691e-01
40 19 5.52214800000851991e-01
41 19 5.45321065411927597e-01
42 19 5.39116704281895620e-01
43 19 5.33601716610756061e-01
44 19 5.28776102398509029e-01
45 19 5.24639861645154526e-01
46 19 5.21192994350691996e-01
47 19 5.18435500515122327e-01
48 19 5.16367380138445076e-01
49 19 5.14988633220660130e-01
50 19 5.14299259761767602e-01
51 19 5.14299259761767602e-01
52 19 5.14988633220660352e-01
53 19 5.16367380138445076e-01
54 19 5.18435500515122327e-01
55 19 5.21192994350692107e-01
56 19 5.24639861645154526e-01
57 19 5.28776102398509029e-01
58 19 5.33601716610756061e-01
59 19 5.39116704281895620e-01
60 19 5.45321065411927597e-01
61 19 5.52214800000851991e-01
62 19 5.59797908048668691e-01
63 19 5.68070389555378141e-01
64 19 5.77032244520979676e-01
65 19 5.86683472945473961e-01
66 19 5.97024074828860662e-01
67 19 6.02539062500000000e-01
68 19 5.97024074828860662e-01
69 19 5.86683472945473961e-01
70 19 5.77032244520979676e-01
71 19 5.68070389555378141e-01
72 19 5.59797908048668691e-01
73 19 5.52214800000851991e-01
74 19 5.45321065411927597e-01
75 19 5.39116704281895620e-01
76 19 5.33601716610756061e-01
77 19 5.28776102398509029e-01
78 19 5.24639861645154526e-01
79 19 5.21192994350691996e-01
80 19 5.18435500515122327e-01
81 19 5.16367380138445076e-01
82 19 5.14988633220660130e-01
83 19 5.14299259761767602e-01
84 19 5.14299259761767602e-01
85 19 5.14988633220660352e-01
86 19 5.16367380138445076e-01
87 19 5.18435500515122327e-01
88 19 5.21192994350692107e-01
89 19 5.24639861645154526e-01
90 19 5.28776102398509029e-01
91 19 5.33601716610756061e-01
92 19 5.39116704281895620e-01
93 19 5.45321065411927597e-01
94 19 5.52214800000851991e-01
95 19 5.59797908048668691e-01
96 19 5.68070389555378141e-01
97 19 5.77032244520979676e-01
98 19 5.86683472945473961e-01
99 19 5.97024074828860662e-01
100 19 6.02539062500000000e-01
101 19 5.97024074828860662e-01
102 19 5.86683472945473961e-01
103 19 5.77032244520979676e-01
104 19 5.68070389555378141e-01
105 19 5.59797908048668691e-01
106 19 5.52214800000851991e-01
107 19 5.45321065411927597e-01
108 19 5.39116704281895620e-01
109 19 5.33601716610756061e-01
110 19 5.28776102398509029e-01
111 19 5.24639861645154526e-01
112 19 5.21192994350691996e-01
113 19 5.18435500515122327e-01
114 19 5.16367380138445076e-01
115 19 5.14988633220660130e-01
116 19 5.14299259761767602e-01
117 19 5.14299259761767602e-01
118 19 5.14988633220660352e-01
119 19 5.16367380138445076e-01
120 19 5.18435500515122327e-01
121 19 5.21192994350692107e-01
122 19 5.24639861645154526e-01
123 19 5.28776102398509029e-01
124 19 5.33601716610756061e-01
125 19 5.39116704281895620e-01
126 19 5.45321065411927597e-01
127 19 5.52214800000851991e-01
128 19 5.59797908048668691e-01
129 19 5.68070389555378141e-01
130 19 5.77032244520979676e-01
131 19 5.86683472945473961e-01
132 19 5.97024074828860662e-01
133 19 6.02539062500000000e-01
1 20 5.88867187499999889e-01
2 20 5.83477337312484634e-01
3 20 5.73371368210892740e-01
4 20 5.63939130382740350e-01
5 20 5.55180623828027575e-01
6 20 5.47095848546753971e-01
7 20 5.39684804538920204e-01
8 20 5.32947491804525608e-01
9 20 5.26883910343570627e-01
10 20 5.21494060156054928e-01
11 20 5.16777941241978844e-01
12 20 5.12735553601342264e-01
13 20 5.09366897234144744e-01
14 20 5.06671972140386950e-01
15 20 5.04650778320068660e-01
16 20 5.03303315773189763e-01
17 20 5.02629584499750148e-01
18 20 5.02629584499750148e-01
19 20 5.03303315773189874e-01
20 20 5.04650778320068660e-01
21 20 5.06671972140386950e-01
22 20 5.09366897234144855e-01
23 20 5.12735553601342264e-01
24 20 5.16777941241978844e-01
25 20 5.21494060156054928e-01
26 20 5.26883910343570627e-01
27 20 5.32947491804525608e-01
28 20 5.39684804538920204e-01
29 20 5.47095848546753971e-01
30 20 5.55180623828027575e-01
31 20 5.63939130382740350e-01
32 20 5.73371368210892740e-01
33 20 5.83477337312484634e-01
34 20 5.88867187499999889e-01
35 20 5.83477337312484634e-01
36 20 5.73371368210892740e-01
37 20 5.63939130382740350e-01
38 20 5.55180623828027575e-01
39 20 5.47095848546753971e-01
40 20 5.39684804538920204e-01
41 20 5.32947491804525608e-01
42 20 5.26883910343570627e-01
43 20 5.21494060156054928e-01
44 20 5.16777941241978844e-01
45 20 5.12735553601342264e-01
46 20 5.09366897234144744e-01
47 20 5.06671972140386950e-01
48 20 5.04650778320068660e-01
49 20 5.03303315773189763e-01
50 20 5.02629584499750148e-01
51 20 5.02629584499750148e-01
52 20 5.03303315773189874e-01
53 20 5.04650778320068660e-01
54 20 5.06671972140386950e-01
55 20 5.09366897234144855e-01
56 20 5.12735553601342264e-01
57 20 5.16777941241978844e-01
58 20 5.21494060156054928e-01
59 20 5.26883910343570627e-01
60 20 5.32947491804525608e-01
61 20 5.39684804538920204e-01
62 20 5.47095848546753971e-01
63 20 5.55180623828027575e-01
64 20 5.63939130382740350e-01
65 20 5.73371368210892740e-01
66 20 5.83477337312484634e-01
67 20 5.88867187499999889e-01
68 20 5.83477337312484634e-01
69 20 5.73371368210892740e-01
70 20 5.63939130382740350e-01
71 20 5.55180623828027575e-01
72 20 5.47095848546753971e-01
73 20 5.39684804538920204e-01
74 20 5.32947491804525608e-01
75 20 5.26883910343570627e-01
76 20 5.21494060156054928e-01
77 20 5.16777941241978844e-01
78 20 5.12735553601342264e-01
79 20 5.09366897234144744e-01
80 20 5.06671972140386950e-01
81 20 5.04650778320068660e-01
82 20 5.03303315773189763e-01
83 20 5.02629584499750148e-01
84 20 5.02629584499750148e-01
85 20 5.03303315773189874e-01
86 20 5.04650778320068660e-01
87 20 5.06671972140386950e-01
88 20 5.09366897234144855e-01
89 20 5.12735553601342264e-01
90 20 5.16777941241978844e-01
91 20 5.21494060156054928e-01
92 20 5.26883910343570627e-01
93 20 5.32947491804525608e-01
94 20 5.39684804538920204e-01
95 20 5.47095848546753971e-01
96 20 5.55180623828027575e-01
97 20 5.63939130382740350e-01
98 20 5.73371368210892740e-01
99 20 5.83477337312484634e-01
100 20 5.88867187499999889e-01
101 20 5.83477337312484634e-01
102 20 5.73371368210892740e-01
103 20 5.63939130382740350e-01
104 20 5.55180623828027575e-01
105 20 5.47095848546753971e-01
106 20 5.39684804538920204e-01
107 20 5.32947491804525608e-01
108 20 5.26883910343570627e-01
109 20 5.21494060156054928e-01
110 20 5.16777941241978844e-01
111 20 5.12735553601342264e-01
112 20 5.09366897234144744e-01
113 20 5.06671972140386950e-01
114 20 5.04650778320068660e-01
115 20 5.03303315773189763e-01
116 20 5.02629584499750148e-01
117 20 5.02629584499750148e-01
118 20 5.03303315773189874e-01
119 20 5.04650778320068660e-01
120 20 5.06671972140386950e-01
121 20 5.09366897234144855e-01
122 20 5.12735553601342264e-01
123 20 5.16777941241978844e-01
124 20 5.21494060156054928e-01
125 20 5.26883910343570627e-01
126 20 5.32947491804525608e-01
127 20 5.39684804538920204e-01
128 20 5.47095848546753971e-01
129 20 5.55180623828027575e-01
130 20 5.63939130382740350e-01
131 20 5.73371368210892740e-01
132 20 5.83477337312484634e-01
133 20 5.88867187499999889e-01
1 21 5.76171874999999889e-01
2 21 5.70898223904421132e-01
3 21 5.61010128100210115e-01
4 21 5.51781238682946595e-01
5 21 5.43211555652630684e-01
6 21 5.35301079009261715e-01
7 21 5.28049808752840688e-01
8 21 5.21457744883366603e-01
9 21 5.15524887400840237e-01
10 21 5.10251236305261036e-01
11 21 5.05636791596629331e-01
12 21 5.01681553274945125e-01
13 21 4.98385521340207971e-01
14 21 4.95748695792418370e-01
15 21 4.93771076631576322e-01
16 21 4.92452663857681494e-01
17 21 4.91793457470733997e-01
18 21 4.91793457470733997e-01
19 21 4.92452663857681661e-01
20 21 4.93771076631576322e-01
21 21 4.95748695792418370e-01
22 21 4.98385521340208082e-01
23 21 5.01681553274945125e-01
24 21 5.05636791596629331e-01
25 21 5.10251236305261036e-01
26 21 5.15524887400840237e-01
27 21 5.21457744883366714e-01
28 21 5.28049808752840688e-01
29 21 5.35301079009261715e-01
30 21 5.43211555652630684e-01
31 21 5.51781238682946595e-01
32 21 5.61010128100210115e-01
33 21 5.70898223904421132e-01
34 21 5.76171874999999889e-01
35 21 5.70898223904421132e-01
36 21 5.61010128100210115e-01
37 21 5.51781238682946595e-01
38 21 5.43211555652630684e-01
39 21 5.35301079009261715e-01
40 21 5.28049808752840688e-01
41 21 5.21457744883366603e-01
42 21 5.15524887400840237e-01
43 21 5.10251236305261036e-01
44 21 5.05636791596629331e-01
45 21 5.01681553274945125e-01
46 21 4.98385521340207971e-01
47 21 4.95748695792418370e-01
48 21 4.93771076631576322e-01
49 21 4.92452663857681494e-01
50 21 4.91793457470733997e-01
51 21 4.91793457470733997e-01
52 21 4.92452663857681661e-01
53 21 4.93771076631576322e-01
54 21 4.95748695792418370e-01
55 21 4.98385521340208082e-01
56 21 5.01681553274945125e-01
57 21 5.05636791596629331e-01
58 21 5.10251236305261036e-01
59 21 5.15524887400840237e-01
60 21 5.21457744883366714e-01
61 21 5.28049808752840688e-01
62 21 5.35301079009261715e-01
63 21 5.43211555652630684e-01
64 21 5.51781238682946595e-01
65 21 5.61010128100210115e-01
66 21 5.70898223904421132e-01
67 21 5.76171874999999889e-01
68 21 5.70898223904421132e-01
69 21 5.61010128100210115e-01
70 21 5.51781238682946595e-01
71 21 5.43211555652630684e-01
72 21 5.35301079009261715e-01
73 21 5.28049808752840688e-01
74 21 5.21457744883366603e-01
75 21 5.15524887400840237e-01
76 21 5.10251236305261036e-01
77 21 5.05636791596629331e-01
78 21 5.01681553274945125e-01
79 21 4.98385521340207971e-01
80 21 4.95748695792418370e-01
81 21 4.93771076631576322e-01
82 21 4.92452663857681494e-01
83 21 4.91793457470733997e-01
84 21 4.91793457470733997e-01
85 21 4.92452663857681661e-01
86 21 4.93771076631576322e-01
87 21 4.95748695792418370e-01
88 21 4.98385521340208082e-01
89 21 5.01681553274945125e-01
90 21 5.05636791596629331e-01
91 21 5.10251236305261036e-01
92 21 5.15524887400840237e-01
93 21 5.21457744883366714e-01
94 21 5.28049808752840688e-01
95 21 5.35301079009261715e-01
96 21 5.43211555652630684e-01
97 21 5.51781238682946595e-01
98 21 5.61010128100210115e-01
99 21 5.70898223904421132e-01
100 21 5.76171874999999889e-01
101 21 5.70898223904421132e-01
102 21 5.61010128100210115e-01
103 21 5.51781238682946595e-01
104 21 5.43211555652630684e-01
105 21 5.35301079009261715e-01
106 21 5.28049808752840688e-01
107 21 5.21457744883366603e-01
108 21 5.15524887400840237e-01
109 21 5.10251236305261036e-01
110 21 5.05636791596629331e-01
111 21 5.01681553274945125e-01
112 21 4.98385521340207971e-01
113 21 4.95748695792418370e-01
114 21 4.93771076631576322e-01
115 21 4.92452663857681494e-01
116 21 4.91793457470733997e-01
117 21 4.91793457470733997e-01
118 21 4.92452663857681661e-01
119 21 4.93771076631576322e-01
120 21 4.95748695792418370e-01
121 21 4.98385521340208082e-01
122 21 5.01681553274945125e-01
123 21 5.05636791596629331e-01
124 21 5.10251236305261036e-01
125 21 5.15524887400840237e-01
126 21 5.21457744883366714e-01
127 21 5.28049808752840688e-01
128 21 5.35301079009261715e-01
129 21 5.43211555652630684e-01
130 21 5.51781238682946595e-01
131 21 5.61010128100210115e-01
132 21 5.70898223904421132e-01
133 21 5.76171874999999889e-01
1 22 5.64453124999999889e-01
2 22 5.59286734604670155e-01
3 22 5.49599752613426196e-01
4 22 5.40558569421598523e-01
5 22 5.32163185029187358e-01
6 22 5.24413599436192035e-01
7 22 5.17309812642613442e-01
8 22 5.10851824648450581e-01
9 22 5.05039635453704450e-01
10 22 4.99873245058374382e-01
11 22 4.95352653462460601e-01
12 22 4.91477860665963107e-01
13 22 4.88248866668881731e-01
14 22 4.85665671471216587e-01
15 22 4.83728275072968006e-01
16 22 4.82436677474135434e-01
17 22 4.81790878674719092e-01
18 22 4.81790878674719092e-01
19 22 4.82436677474135545e-01
20 22 4.83728275072968006e-01
21 22 4.85665671471216587e-01
22 22 4.88248866668881842e-01
23 22 4.91477860665963107e-01
24 22 4.95352653462460601e-01
25 22 4.99873245058374382e-01
26 22 5.05039635453704450e-01
27 22 5.10851824648450803e-01
28 22 5.17309812642613442e-01
29 22 5.24413599436192035e-01
30 22 5.32163185029187358e-01
31 22 5.40558569421598523e-01
32 22 5.49599752613426196e-01
33 22 5.59286734604670155e-01
34 22 5.64453124999999889e-01
35 22 5.59286734604670155e-01
36 22 5.49599752613426196e-01
37 22 5.40558569421598523e-01
38 22 5.32163185029187358e-01
39 22 5.24413599436192035e-01
40 22 5.17309812642613442e-01
41 22 5.10851824648450581e-01
42 22 5.05039635453704450e-01
43 22 4.99873245058374382e-01
44 22 4.95352653462460601e-01
45 22 4.91477860665963107e-01
46 22 4.88248866668881731e-01
47 22 4.85665671471216587e-01
48 22 4.83728275072968006e-01
49 22 4.82436677474135434e-01
50 22 4.81790878674719092e-01
51 22 4.81790878674719092e-01
52 22 4.82436677474135545e-01
53 22 4.83728275072968006e-01
54 22 4.85665671471216587e-01
55 22 4.88248866668881842e-01
56 22 4.91477860665963107e-01
57 22 4.95352653462460601e-01
58 22 4.99873245058374382e-01
59 22 5.05039635453704450e-01
60 22 5.10851824648450803e-01
61 22 5.17309812642613442e-01
62 22 5.24413599436192035e-01
63 22 5.32163185029187358e-01
64 22 5.40558569421598523e-01
65 22 5.49599752613426196e-01
66 22 5.59286734604670155e-01
67 22 5.64453124999999889e-01
68 22 5.59286734604670155e-01
69 22 5.49599752613426196e-01
70 22 5.40558569421598523e-01
71 22 5.32163185029187358e-01
72 22 5.24413599436192035e-01
73 22 5.17309812642613442e-01
74 22 5.10851824648450581e-01
75 22 5.05039635453704450e-01
76 22 4.99873245058374382e-01
77 22 4.95352653462460601e-01
78 22 4.91477860665963107e-01
79 22 4.88248866668881731e-01
80 22 4.85665671471216587e-01
81 22 4.83728275072968006e-01
82 22 4.82436677474135434e-01
83 22 4.81790878674719092e-01
84 22 4.81790878674719092e-01
85 22 4.82436677474135545e-01
86 22 4.83728275072968006e-01
87 22 4.85665671471216587e-01
88 22 4.88248866668881842e-01
89 22 4.91477860665963107e-01
90 22 4.95352653462460601e-01
91 22 4.99873245058374382e-01
92 22 5.05039635453704450e-01
93 22 5.10851824648450803e-01
94 22 5.17309812642613442e-01
95 22 5.24413599436192035e-01
96 22 5.32163185029187358e-01
97 22 5.40558569421598523e-01
98 22 5.49599752613426196e-01
99 22 5.59286734604670155e-01
100 22 5.64453124999999889e-01
101 22 5.59286734604670155e-01
102 22 5.49599752613426196e-01
103 22 5.40558569421598523e-01
104 22 5.32163185029187358e-01
105 22 5.24413599436192035e-01
106 22 5.17309812642613442e-01
107 22 5.10851824648450581e-01
108 22 5.05039635453704450e-01
109 22 4.99873245058374382e-01
110 22 4.95352653462460601e-01
111 22 4.91477860665963107e-01
112 22 4.88248866668881731e-01
113 22 4.85665671471216587e-01
114 22 4.83728275072968006e-01
115 22 4.82436677474135434e-01
116 22 4.81790878674719092e-01
117 22 4.81790878674719092e-01
118 22 4.82436677474135545e-01
119 22 4.83728275072968006e-01
120 22 4.85665671471216587e-01
121 22 4.88248866668881842e-01
122 22 4.91477860665963107e-01
123 22 4.95352653462460601e-01
124 22 4.99873245058374382e-01
125 22 5.05039635453704450e-01
126 22 5.10851824648450803e-01
127 22 5.17309812642613442e-01
128 22 5.24413599436192035e-01
129 22 5.32163185029187358e-01
130 22 5.40558569421598523e-01
131 22 5.49599752613426196e-01
132 22 5.59286734604670155e-01
133 22 5.64453124999999889e-01
1 23 5.53710937500000000e-01
2 23 5.48642869413231815e-01
3 23 5.39140241750540872e-01
4 23 5.30271122598696132e-01
5 23 5.22035511957697707e-01
6 23 5.14433409827544819e-01
7 23 5.07464816208238467e-01
8 23 5.01129731099777653e-01
9 23 4.95428154502163376e-01
10 23 4.90360086415394969e-01
11 23 4.85925526839472599e-01
12 23 4.82124475774396377e-01
13 23 4.78956933220165970e-01
14 23 4.76422899176781711e-01
15 23 4.74522373644243711e-01
16 23 4.73255356622551582e-01
17 23 4.72621848111705434e-01
18 23 4.72621848111705434e-01
19 23 4.73255356622551693e-01
20 23 4.74522373644243711e-01
21 23 4.76422899176781711e-01
22 23 4.78956933220166081e-01
23 23 4.82124475774396377e-01
24 23 4.85925526839472599e-01
25 23 4.90360086415394969e-01
26 23 4.95428154502163376e-01
27 23 5.01129731099777875e-01
28 23 5.07464816208238467e-01
29 23 5.14433409827544819e-01
30 23 5.22035511957697707e-01
31 23 5.30271122598696132e-01
32 23 5.39140241750540872e-01
33 23 5.48642869413231815e-01
34 23 5.53710937500000000e-01
35 23 5.48642869413231815e-01
36 23 5.39140241750540872e-01
37 23 5.30271122598696132e-01
38 23 5.22035511957697707e-01
39 23 5.14433409827544819e-01
40 23 5.07464816208238467e-01
41 23 5.01129731099777653e-01
42 23 4.95428154502163376e-01
43 23 4.90360086415394969e-01
44 23 4.85925526839472599e-01
45 23 4.82124475774396377e-01
46 23 4.78956933220165970e-01
47 23 4.76422899176781711e-01
48 23 4.74522373644243711e-01
49 23 4.73255356622551582e-01
50 23 4.72621848111705434e-01
51 23 4.72621848111705434e-01
52 23 4.73255356622551693e-01
53 23 4.74522373644243711e-01
54 23 4.76422899176781711e-01
55 23 4.78956933220166081e-01
56 23 4.82124475774396377e-01
57 23 4.85925526839472599e-01
58 23 4.90360086415394969e-01
59 23 4.95428154502163376e-01
60 23 5.01129731099777875e-01
61 23 5.07464816208238467e-01
62 23 5.14433409827544819e-01
63 23 5.22035511957697707e-01
64 23 5.30271122598696132e-01
65 23 5.39140241750540872e-01
66 23 5.48642869413231815e-01
67 23 5.53710937500000000e-01
68 23 5.48642869413231815e-01
69 23 5.39140241750540872e-01
70 23 5.30271122598696132e-01
71 23 5.22035511957697707e-01
72 23 5.14433409827544819e-01
73 23 5.07464816208238467e-01
74 23 5.01129731099777653e-01
75 23 4.95428154502163376e-01
76 23 4.90360086415394969e-01
77 23 4.85925526839472599e-01
78 23 4.82124475774396377e-01
79 23 4.78956933220165970e-01
80 23 4.76422899176781711e-01
81 23 4.74522373644243711e-01
82 23 4.73255356622551582e-01
83 23 4.72621848111705434e-01
84 23 4.72621848111705434e-01
85 23 4.73255356622551693e-01
86 23 4.74522373644243711e-01
87 23 4.76422899176781711e-01
88 23 4.78956933220166081e-01
89 23 4.82124475774396377e-01
90 23 4.85925526839472599e-01
91 23 4.90360086415394969e-01
92 23 4.95428154502163376e-01
93 23 5.01129731099777875e-01
94 23 5.07464816208238467e-01
95 23 5.14433409827544819e-01
96 23 5.22035511957697707e-01
97 23 5.30271122598696132e-01
98 23 5.39140241750540872e-01
99 23 5.48642869413231815e-01
100 23 5.53710937500000000e-01
101 23 5.48642869413231815e-01
102 23 5.39140241750540872e-01
103 23 5.30271122598696132e-01
104 23 5.22035511957697707e-01
105 23 5.14433409827544819e-01
106 23 5.07464816208238467e-01
107 23 5.01129731099777653e-01
108 23 4.95428154502163376e-01
109 23 4.90360086415394969e-01
110 23 4.85925526839472599e-01
111 23 4.82124475774396377e-01
112 23 4.78956933220165970e-01
113 23 4.76422899176781711e-01
114 23 4.74522373644243711e-01
115 23 4.73255356622551582e-01
116 23 4.72621848111705434e-01
117 23 4.72621848111705434e-01
118 23 4.73255356622551693e-01
119 23 4.74522373644243711e-01
120 23 4.76422899176781711e-01
121 23 4.78956933220166081e-01
122 23 4.82124475774396377e-01
123 23 4.85925526839472599e-01
124 23 4.90360086415394969e-01
125 23 4.95428154502163376e-01
126 23 5.01129731099777875e-01
127 23 5.07464816208238467e-01
128 23 5.14433409827544819e-01
129 23 5.22035511957697707e-01
130 23 5.30271122598696132e-01
131 23 5.39140241750540872e-01
132 23 5.48642869413231815e-01
133 23 5.53710937500000000e-01
1 24 5.43945312500000000e-01
2 24 5.38966628330106001e-01
3 24 5.29631595511554254e-01
4 24 5.20918898214239423e-01
5 24 5.12828536438161509e-01
6 24 5.05360510183320066e-01
7 24 4.98514819449715652e-01
8 24 4.92291464237347709e-01
9 24 4.86690444546216905e-01
10 24 4.81711760376322684e-01
11 24 4.77355411727665269e-01
12 24 4.73621398600244714e-01
13 24 4.70509720994060743e-01
14 24 4.68020378909113577e-01
15 24 4.66153372345403438e-01
16 24 4.64908701302929828e-01
17 24 4.64286365781692967e-01
18 24 4.64286365781692967e-01
19 24 4.64908701302929939e-01
20 24 4.66153372345403438e-01
21 24 4.68020378909113577e-01
22 24 4.70509720994060854e-01
23 24 4.73621398600244714e-01
24 24 4.77355411727665269e-01
25 24 4.81711760376322684e-01
26 24 4.86690444546216905e-01
27 24 4.92291464237347876e-01
28 24 4.98514819449715652e-01
29 24 5.05360510183320066e-01
30 24 5.12828536438161509e-01
31 24 5.20918898214239423e-01
32 24 5.29631595511554254e-01
33 24 5.38966628330106001e-01
34 24 5.43945312500000000e-01
35 24 5.38966628330106001e-01
36 24 5.29631595511554254e-01
37 24 5.20918898214239423e-01
38 24 5.12828536438161509e-01
39 24 5.05360510183320066e-01
40 24 4.98514819449715652e-01
41 24 4.92291464237347709e-01
42 24 4.86690444546216905e-01
43 24 4.81711760376322684e-01
44 24 4.77355411727665269e-01
45 24 4.73621398600244714e-01
46 24 4.70509720994060743e-01
47 24 4.68020378909113577e-01
48 24 4.66153372345403438e-01
49 24 4.64908701302929828e-01
50 24 4.64286365781692967e-01
51 24 4.64286365781692967e-01
52 24 4.64908701302929939e-01
53 24 4.66153372345403438e-01
54 24 4.68020378909113577e-01
55 24 4.70509720994060854e-01
56 24 4.73621398600244714e-01
57 24 4.77355411727665269e-01
58 24 4.81711760376322684e-01
59 24 4.86690444546216905e-01
60 24 4.92291464237347876e-01
61 24 4.98514819449715652e-01
62 24 5.05360510183320066e-01
63 24 5.12828536438161509e-01
64 24 5.20918898214239423e-01
65 24 5.29631595511554254e-01
66 24 5.38966628330106001e-01
67 24 5.43945312500000000e-01
68 24 5.38966628330106001e-01
69 24 5.29631595511554254e-01
70 24 5.20918898214239423e-01
71 24 5.12828536438161509e-01
72 24 5.05360510183320066e-01
73 24 4.98514819449715652e-01
74 24 4.92291464237347709e-01
75 24 4.86690444546216905e-01
76 24 4.81711760376322684e-01
77 24 4.77355411727665269e-01
78 24 4.73621398600244714e-01
79 24 4.70509720994060743e-01
80 24 4.68020378909113577e-01
81 24 4.66153372345403438e-01
82 24 4.64908701302929828e-01
83 24 4.64286365781692967e-01
84 24 4.64286365781692967e-01
85 24 4.64908701302929939e-01
86 24 4.66153372345403438e-01
87 24 4.68020378909113577e-01
88 24 4.70509720994060854e-01
89 24 4.73621398600244714e-01
90 24 4.77355411727665269e-01
91 24 4.81711760376322684e-01
92 24 4.86690444546216905e-01
93 24 4.92291464237347876e-01
94 24 4.98514819449715652e-01
95 24 5.05360510183320066e-01
96 24 5.12828536438161509e-01
97 24 5.20918898214239423e-01
98 24 5.29631595511554254e-01
99 24 5.38966628330106001e-01
100 24 5.43945312500000000e-01
101 24 5.38966628330106001e-01
102 24 5.29631595511554254e-01
103 24 5.20918898214239423e-01
104 24 5.12828536438161509e-01
105 24 5.05360510183320066e-01
106 24 4.98514819449715652e-01
107 24 4.92291464237347709e-01
108 24 4.86690444546216905e-01
109 24 4.81711760376322684e-01
110 24 4.77355411727665269e-01
111 24 4.73621398600244714e-01
112 24 4.70509720994060743e-01
113 24 4.68020378909113577e-01
114 24 4.66153372345403438e-01
115 24 4.64908701302929828e-01
116 24 4.64286365781692967e-01
117 24 4.64286365781692967e-01
118 24 4.64908701302929939e-01
119 24 4.66153372345403438e-01
120 24 4.68020378909113577e-01
121 24 4.70509720994060854e-01
122 24 4.73621398600244714e-01
123 24 4.77355411727665269e-01
124 24 4.81711760376322684e-01
125 24 4.86690444546216905e-01
126 24 4.92291464237347876e-01
127 24 4.98514819449715652e-01
128 24 5.05360510183320066e-01
129 24 5.12828536438161509e-01
130 24 5.20918898214239423e-01
131 24 5.29631595511554254e-01
132 24 5.38966628330106001e-01
133 24 5.43945312500000000e-01
1 25 5.35156250000000000e-01
2 25 5.30258011355292824e-01
3 25 5.21073813896466342e-01
4 25 5.12501896268228396e-01
5 25 5.04542258470578986e-01
6 25 4.97194900503517778e-01
7 25 4.90459822367045217e-01
8 25 4.84337024061160748e-01
9 25 4.78826505585865148e-01
10 25 4.73928266941157694e-01
11 25 4.69642308127038721e-01
12 25 4.65968629143508284e-01
13 25 4.62907229990566105e-01
14 25 4.60458110668212295e-01
15 25 4.58621271176447243e-01
16 25 4.57396711515270282e-01
17 25 4.56784431684681802e-01
18 25 4.56784431684681802e-01
19 25 4.57396711515270393e-01
20 25 4.58621271176447243e-01
21 25 4.60458110668212295e-01
22 25 4.62907229990566216e-01
23 25 4.65968629143508284e-01
24 25 4.69642308127038721e-01
25 25 4.73928266941157694e-01
26 25 4.78826505585865148e-01
27 25 4.84337024061160915e-01
28 25 4.90459822367045217e-01
29 25 4.97194900503517778e-01
30 25 5.04542258470578986e-01
31 25 5.12501896268228396e-01
32 25 5.21073813896466342e-01
33 25 5.30258011355292824e-01
34 25 5.35156250000000000e-01
35 25 5.30258011355292824e-01
36 25 5.21073813896466342e-01
37 25 5.12501896268228396e-01
38 25 5.04542258470578986e-01
39 25 4.97194900503517778e-01
40 25 4.90459822367045217e-01
41 25 4.84337024061160748e-01
42 25 4.78826505585865148e-01
43 25 4.73928266941157694e-01
44 25 4.69642308127038721e-01
45 25 4.65968629143508284e-01
46 25 4.62907229990566105e-01
47 25 4.60458110668212295e-01
48 25 4.58621271176447243e-01
49 25 4.57396711515270282e-01
50 25 4.56784431684681802e-01
51 25 4.56784431684681802e-01
52 25 4.57396711515270393e-01
53 25 4.58621271176447243e-01
54 25 4.60458110668212295e-01
55 25 4.62907229990566216e-01
56 25 4.65968629143508284e-01
57 25 4.69642308127038721e-01
58 25 4.73928266941157694e-01
59 25 4.78826505585865148e-01
60 25 4.84337024061160915e-01
61 25 4.90459822367045217e-01
62 25 4.97194900503517778e-01
63 25 5.04542258470578986e-01
64 25 5.12501896268228396e-01
65 25 5.21073813896466342e-01
66 25 5.30258011355292824e-01
67 25 5.35156250000000000e-01
68 25 5.30258011355292824e-01
69 25 5.21073813896466342e-01
70 25 5.12501896268228396e-01
71 25 5.04542258470578986e-01
72 25 4.97194900503517778e-01
73 25 4.90459822367045217e-01
74 25 4.84337024061160748e-01
75 25 4.78826505585865148e-01
76 25 4.73928266941157694e-01
77 25 4.69642308127038721e-01
78 25 4.65968629143508284e-01
79 25 4.62907229990566105e-01
80 25 4.60458110668212295e-01
81 25 4.58621271176447243e-01
82 25 4.57396711515270282e-01
83 25 4.56784431684681802e-01
84 25 4.56784431684681802e-01
85 25 4.57396711515270393e-01
86 25 4.58621271176447243e-01
87 25 4.60458110668212295e-01
88 25 4.62907229990566216e-01
89 25 4.65968629143508284e-01
90 25 4.69642308127038721e-01
91 25 4.73928266941157694e-01
92 25 4.78826505585865148e-01
93 25 4.84337024061160915e-01
94 25 4.90459822367045217e-01
95 25 4.97194900503517778e-01
96 25 5.04542258470578986e-01
97 25 5.12501896268228396e-01
98 25 5.21073813896466342e-01
99 25 5.30258011355292824e-01
100 25 5.35156250000000000e-01
101 25 5.30258011355292824e-01
102 25 5.21073813896466342e-01
103 25 5.12501896268228396e-01
104 25 5.04542258470578986e-01
105 25 4.97194900503517778e-01
106 25 4.90459822367045217e-01
107 25 4.84337024061160748e-01
108 25 4.78826505585865148e-01
109 25 4.73928266941157694e-01
110 25 4.69642308127038721e-01
111 25 4.65968629143508284e-01
112 25 4.62907229990566105e-01
113 25 4.60458110668212295e-01
114 25 4.58621271176447243e-01
115 25 4.57396711515270282e-01
116 25 4.56784431684681802e-01
117 25 4.56784431684681802e-01
118 25 4.57396711515270393e-01
119 25 4.58621271176447243e-01
120 25 4.60458110668212295e-01
121 25 4.62907229990566216e-01
122 25 4.65968629143508284e-01
123 25 4.69642308127038721e-01
124 25 4.73928266941157694e-01
125 25 4.78826505585865148e-01
126 25 4.84337024061160915e-01
127 25 4.90459822367045217e-01
128 25 4.97194900503517778e-01
129 25 5.04542258470578986e-01
130 25 5.12501896268228396e-01
131 25 5.21073813896466342e-01
132 25 5.30258011355292824e-01
133 25 5.35156250000000000e-01
1 26 5.27343750000000000e-01
2 26 5.22517018488792173e-01
3 26 5.13466896905277026e-01
4 26 5.05020116760663051e-01
5 26 4.97176678054950028e-01
6 26 4.89936580788137954e-01
7 26 4.83299824960226998e-01
8 26 4.77266410571216770e-01
9 26 4.71836337621107993e-01
10 26 4.67009606109899889e-01
11 26 4.62786216037592846e-01
12 26 4.59166167404186976e-01
13 26 4.56149460209681890e-01
14 26 4.53736094454077810e-01
15 26 4.51926070137375013e-01
16 26 4.50719387259572890e-01
17 26 4.50116045820671884e-01
18 26 4.50116045820671884e-01
19 26 4.50719387259572946e-01
20 26 4.51926070137375013e-01
21 26 4.53736094454077810e-01
22 26 4.56149460209682001e-01
23 26 4.59166167404186976e-01
24 26 4.62786216037592846e-01
25 26 4.67009606109899889e-01
26 26 4.71836337621107993e-01
27 26 4.77266410571216937e-01
28 26 4.83299824960226998e-01
29 26 4.89936580788137954e-01
30 26 4.97176678054950028e-01
31 26 5.05020116760662940e-01
32 26 5.13466896905277026e-01
33 26 5.22517018488792173e-01
34 26 5.27343750000000000e-01
35 26 5.22517018488792173e-01
36 26 5.13466896905277026e-01
37 26 5.05020116760663051e-01
38 26 4.97176678054950028e-01
39 26 4.89936580788137954e-01
40 26 4.83299824960226998e-01
41 26 4.77266410571216770e-01
42 26 4.71836337621107993e-01
43 26 4.67009606109899889e-01
44 26 4.62786216037592846e-01
45 26 4.59166167404186976e-01
46 26 4.56149460209681890e-01
47 26 4.53736094454077810e-01
48 26 4.51926070137375013e-01
49 26 4.50719387259572890e-01
50 26 4.50116045820671884e-01
51 26 4.50116045820671884e-01
52 26 4.50719387259572946e-01
53 26 4.51926070137375013e-01
54 26 4.53736094454077810e-01
55 26 4.56149460209682001e-01
56 26 4.59166167404186976e-01
57 26 4.62786216037592846e-01
58 26 4.67009606109899889e-01
59 26 4.71836337621107993e-01
60 26 4.77266410571216937e-01
61 26 4.83299824960226998e-01
62 26 4.89936580788137954e-01
63 26 4.97176678054950028e-01
64 26 5.05020116760662940e-01
65 26 5.13466896905277026e-01
66 26 5.22517018488792173e-01
67 26 5.27343750000000000e-01
68 26 5.22517018488792173e-01
69 26 5.13466896905277026e-01
70 26 5.05020116760663051e-01
71 26 4.97176678054950028e-01
72 26 4.89936580788137954e-01
73 26 4.83299824960226998e-01
74 26 4.77266410571216770e-01
75 26 4.71836337621107993e-01
76 26 4.67009606109899889e-01
77 26 4.62786216037592846e-01
78 26 4.59166167404186976e-01
79 26 4.56149460209681890e-01
80 26 4.53736094454077810e-01
81 26 4.51926070137375013e-01
82 26 4.50719387259572890e-01
83 26 4.50116045820671884e-01
84 26 4.50116045820671884e-01
85 26 4.50719387259572946e-01
86 26 4.51926070137375013e-01
87 26 4.53736094454077810e-01
88 26 4.56149460209682001e-01
89 26 4.59166167404186976e-01
90 26 4.62786216037592846e-01
91 26 4.67009606109899889e-01
92 26 4.71836337621107993e-01
93 26 4.77266410571216937e-01
94 26 4.83299824960226998e-01
95 26 4.89936580788137954e-01
96 26 4.97176678054950028e-01
97 26 5.05020116760662940e-01
98 26 5.13466896905277026e-01
99 26 5.22517018488792173e-01
100 26 5.27343750000000000e-01
101 26 5.22517018488792173e-01
102 26 5.13466896905277026e-01
103 26 5.05020116760663051e-01
104 26 4.97176678054950028e-01
105 26 4.89936580788137954e-01
106 26 4.83299824960226998e-01
107 26 4.77266410571216770e-01
108 26 4.71836337621107993e-01
109 26 4.67009606109899889e-01
110 26 4.62786216037592846e-01
111 26 4.59166167404186976e-01
112 26 4.56149460209681890e-01
113 26 4.53736094454077810e-01
114 26 4.51926070137375013e-01
115 26 4.50719387259572890e-01
116 26 4.50116045820671884e-01
117 26 4.50116045820671884e-01
118 26 4.50719387259572946e-01
119 26 4.51926070137375013e-01
120 26 4.53736094454077810e-01
121 26 4.56149460209682001e-01
122 26 4.59166167404186976e-01
123 26 4.62786216037592846e-01
124 26 4.67009606109899889e-01
125 26 4.71836337621107993e-01
126 26 4.77266410571216937e-01
127 26 4.83299824960226998e-01
128 26 4.89936580788137954e-01
129 26 4.97176678054950028e-01
130 26 5.05020116760662940e-01
131 26 5.13466896905277026e-01
132 26 5.22517018488792173e-01
133 26 5.27343750000000000e-01
1 27 5.20507812500000000e-01
2 27 5.15743649730604048e-01
3 27 5.06810844537986305e-01
4 27 4.98473559691543333e-01
5 27 4.90731795191274689e-01
6 27 4.83585551037180594e-01
7 27 4.77034827229261049e-01
8 27 4.71079623767515776e-01
9 27 4.65719940651945441e-01
10 27 4.60955777882549322e-01
11 27 4.56787135459327753e-01
12 27 4.53214013382280845e-01
13 27 4.50236411651408208e-01
14 27 4.47854330266710121e-01
15 27 4.46067769228186806e-01
16 27 4.44876728535837651e-01
17 27 4.44281208189663157e-01
18 27 4.44281208189663157e-01
19 27 4.44876728535837707e-01
20 27 4.46067769228186806e-01
21 27 4.47854330266710121e-01
22 27 4.50236411651408319e-01
23 27 4.53214013382280845e-01
24 27 4.56787135459327753e-01
25 27 4.60955777882549322e-01
26 27 4.65719940651945441e-01
27 27 4.71079623767515943e-01
28 27 4.77034827229261049e-01
29 27 4.83585551037180594e-01
30 27 4.90731795191274689e-01
31 27 4.98473559691543222e-01
32 27 5.06810844537986305e-01
33 27 5.15743649730604048e-01
34 27 5.20507812500000000e-01
35 27 5.15743649730604048e-01
36 27 5.06810844537986305e-01
37 27 4.98473559691543333e-01
38 27 4.90731795191274689e-01
39 27 4.83585551037180594e-01
40 27 4.77034827229261049e-01
41 27 4.71079623767515776e-01
42 27 4.65719940651945441e-01
43 27 4.60955777882549322e-01
44 27 4.56787135459327753e-01
45 27 4.53214013382280845e-01
46 27 4.50236411651408208e-01
47 27 4.47854330266710121e-01
48 27 4.46067769228186806e-01
49 27 4.44876728535837651e-01
50 27 4.44281208189663157e-01
51 27 4.44281208189663157e-01
52 27 4.44876728535837707e-01
53 27 4.46067769228186806e-01
54 27 4.47854330266710121e-01
55 27 4.50236411651408319e-01
56 27 4.53214013382280845e-01
57 27 4.56787135459327753e-01
58 27 4.60955777882549322e-01
59 27 4.65719940651945441e-01
60 27 4.71079623767515943e-01
61 27 4.77034827229261049e-01
62 27 4.83585551037180594e-01
63 27 4.90731795191274689e-01
64 27 4.98473559691543222e-01
65 27 5.06810844537986305e-01
66 27 5.15743649730604048e-01
67 27 5.20507812500000000e-01
68 27 5.15743649730604048e-01
69 27 5.06810844537986305e-01
70 27 4.98473559691543333e-01
71 27 4.90731795191274689e-01
72 27 4.83585551037180594e-01
73 27 4.77034827229261049e-01
74 27 4.71079623767515776e-01
75 27 4.65719940651945441e-01
76 27 4.60955777882549322e-01
77 27 4.56787135459327753e-01
78 27 4.53214013382280845e-01
79 27 4.50236411651408208e-01
80 27 4.47854330266710121e-01
81 27 4.46067769228186806e-01
82 27 4.44876728535837651e-01
83 27 4.44281208189663157e-01
84 27 4.44281208189663157e-01
85 27 4.44876728535837707e-01
86 27 4.46067769228186806e-01
87 27 4.47854330266710121e-01
88 27 4.50236411651408319e-01
89 27 4.53214013382280845e-01
90 27 4.56787135459327753e-01
91 27 4.60955777882549322e-01
92 27 4.65719940651945441e-01
93 27 4.71079623767515943e-01
94 27 4.77034827229261049e-01
95 27 4.83585551037180594e-01
96 27 4.90731795191274689e-01
97 27 4.98473559691543222e-01
98 27 5.06810844537986305e-01
99 27 5.15743649730604048e-01
100 27 5.20507812500000000e-01
101 27 5.15743649730604048e-01
102 27 5.06810844537986305e-01
103 27 4.98473559691543333e-01
104 27 4.90731795191274689e-01
105 27 4.83585551037180594e-01
106 27 4.77034827229261049e-01
107 27 4.71079623767515776e-01
108 27 4.65719940651945441e-01
109 27 4.60955777882549322e-01
110 27 4.56787135459327753e-01
111 27 4.53214013382280845e-01
112 27 4.50236411651408208e-01
113 27 4.47854330266710121e-01
114 27 4.46067769228186806e-01
115 27 4.44876728535837651e-01
116 27 4.44281208189663157e-01
117 27 4.44281208189663157e-01
118 27 4.44876728535837707e-01
119 27 4.46067769228186806e-01
120 27 4.47854330266710121e-01
121 27 4.50236411651408319e-01
122 27 4.53214013382280845e-01
123 27 4.56787135459327753e-01
124 27 4.60955777882549322e-01
125 27 4.65719940651945441e-01
126 27 4.71079623767515943e-01
127 27 4.77034827229261049e-01
128 27 4.83585551037180594e-01
129 27 4.90731795191274689e-01
130 27 4.98473559691543222e-01
131 27 5.06810844537986305e-01
132 27 5.15743649730604048e-01
133 27 5.20507812500000000e-01
1 28 5.14648437500000000e-01
2 28 5.09937905080728560e-01
3 28 5.01105656794594401e-01
4 28 4.92862225060869297e-01
5 28 4.85207609879553026e-01
6 28 4.78141811250645754e-01
7 28 4.71664829174147426e-01
8 28 4.65776663650057821e-01
9 28 4.60477314678377603e-01
10 28 4.55766782259105996e-01
11 28 4.51645066392243388e-01
12 28 4.48112167077789836e-01
13 28 4.45168084315745061e-01
14 28 4.42812818106109229e-01
15 28 4.41046368448882620e-01
16 28 4.39868735344064621e-01
17 28 4.39279918791655677e-01
18 28 4.39279918791655677e-01
19 28 4.39868735344064676e-01
20 28 4.41046368448882620e-01
21 28 4.42812818106109229e-01
22 28 4.45168084315745172e-01
23 28 4.48112167077789836e-01
24 28 4.51645066392243388e-01
25 28 4.55766782259105996e-01
26 28 4.60477314678377603e-01
27 28 4.65776663650057987e-01
28 28 4.71664829174147426e-01
29 28 4.78141811250645754e-01
30 28 4.85207609879553026e-01
31 28 4.92862225060869186e-01
32 28 5.01105656794594290e-01
33 28 5.09937905080728560e-01
34 28 5.14648437500000000e-01
35 28 5.09937905080728560e-01
36 28 5.01105656794594401e-01
37 28 4.92862225060869297e-01
38 28 4.85207609879553026e-01
39 28 4.78141811250645754e-01
40 28 4.71664829174147426e-01
41 28 4.65776663650057821e-01
42 28 4.60477314678377603e-01
43 28 4.55766782259105996e-01
44 28 4.51645066392243388e-01
45 28 4.48112167077789836e-01
46 28 4.45168084315745061e-01
47 28 4.42812818106109229e-01
48 28 4.41046368448882620e-01
49 28 4.39868735344064621e-01
50 28 4.39279918791655677e-01
51 28 4.39279918791655677e-01
52 28 4.39868735344064676e-01
53 28 4.41046368448882620e-01
54 28 4.42812818106109229e-01
55 28 4.45168084315745172e-01
56 28 4.48112167077789836e-01
57 28 4.51645066392243388e-01
58 28 4.55766782259105996e-01
59 28 4.60477314678377603e-01
60 28 4.65776663650057987e-01
61 28 4.71664829174147426e-01
62 28 4.78141811250645754e-01
63 28 4.85207609879553026e-01
64 28 4.92862225060869186e-01
65 28 5.01105656794594290e-01
66 28 5.09937905080728560e-01
67 28 5.14648437500000000e-01
68 28 5.09937905080728560e-01
69 28 5.01105656794594401e-01
70 28 4.92862225060869297e-01
71 28 4.85207609879553026e-01
72 28 4.78141811250645754e-01
73 28 4.71664829174147426e-01
74 28 4.65776663650057821e-01
75 28 4.60477314678377603e-01
76 28 4.55766782259105996e-01
77 28 4.51645066392243388e-01
78 28 4.48112167077789836e-01
79 28 4.45168084315745061e-01
80 28 4.42812818106109229e-01
81 28 4.41046368448882620e-01
82 28 4.39868735344064621e-01
83 28 4.39279918791655677e-01
84 28 4.39279918791655677e-01
85 28 4.39868735344064676e-01
86 28 4.41046368448882620e-01
87 28 4.42812818106109229e-01
88 28 4.45168084315745172e-01
89 28 4.48112167077789836e-01
90 28 4.51645066392243388e-01
91 28 4.55766782259105996e-01
92 28 4.60477314678377603e-01
93 28 4.65776663650057987e-01
94 28 4.71664829174147426e-01
95 28 4.78141811250645754e-01
96 28 4.85207609879553026e-01
97 28 4.92862225060869186e-01
98 28 5.01105656794594290e-01
99 28 5.09937905080728560e-01
100 28 5.14648437500000000e-01
101 28 5.09937905080728560e-01
102 28 5.01105656794594401e-01
103 28 4.92862225060869297e-01
104 28 4.85207609879553026e-01
105 28 4.78141811250645754e-01
106 28 4.71664829174147426e-01
107 28 4.65776663650057821e-01
108 28 4.60477314678377603e-01
109 28 4.55766782259105996e-01
110 28 4.51645066392243388e-01
111 28 4.48112167077789836e-01
112 28 4.45168084315745061e-01
113 28 4.42812818106109229e-01
114 28 4.41046368448882620e-01
115 28 4.39868735344064621e-01
116 28 4.39279918791655677e-01
117 28 4.39279918791655677e-01
118 28 4.39868735344064676e-01
119 28 4.41046368448882620e-01
120 28 4.42812818106109229e-01
121 28 4.45168084315745172e-01
122 28 4.48112167077789836e-01
123 28 4.51645066392243388e-01
124 28 4.55766782259105996e-01
125 28 4.60477314678377603e-01
126 28 4.65776663650057987e-01
127 28 4.71664829174147426e-01
128 28 4.78141811250645754e-01
129 28 4.85207609879553026e-01
130 28 4.92862225060869186e-01
131 28 5.01105656794594290e-01
132 28 5.09937905080728560e-01
133 28 5.14648437500000000e-01
1 29 5.09765625000000000e-01
2 29 5.05099784539165597e-01
3 29 4.96351333675101036e-01
4 29 4.88186112868640887e-01
5 29 4.80604122119784927e-01
6 29 4.73605361428533322e-01
7 29 4.67189830794886074e-01
8 29 4.61357530218842848e-01
9 29 4.56108459700404367e-01
10 29 4.51442619239569853e-01
11 29 4.47360008836339751e-01
12 29 4.43860628490714004e-01
13 29 4.40944478202692447e-01
14 29 4.38611557972275135e-01
15 29 4.36861867799462456e-01
16 29 4.35695407684253744e-01
17 29 4.35112177626649443e-01
18 29 4.35112177626649443e-01
19 29 4.35695407684253799e-01
20 29 4.36861867799462456e-01
21 29 4.38611557972275135e-01
22 29 4.40944478202692502e-01
23 29 4.43860628490714004e-01
24 29 4.47360008836339751e-01
25 29 4.51442619239569853e-01
26 29 4.56108459700404367e-01
27 29 4.61357530218842959e-01
28 29 4.67189830794886074e-01
29 29 4.73605361428533322e-01
30 29 4.80604122119784927e-01
31 29 4.88186112868640776e-01
32 29 4.96351333675100925e-01
33 29 5.05099784539165597e-01
34 29 5.09765625000000000e-01
35 29 5.05099784539165597e-01
36 29 4.96351333675101036e-01
37 29 4.88186112868640887e-01
38 29 4.80604122119784927e-01
39 29 4.73605361428533322e-01
40 29 4.67189830794886074e-01
41 29 4.61357530218842848e-01
42 29 4.56108459700404367e-01
43 29 4.51442619239569853e-01
44 29 4.47360008836339751e-01
45 29 4.43860628490714004e-01
46 29 4.40944478202692447e-01
47 29 4.38611557972275135e-01
48 29 4.36861867799462456e-01
49 29 4.35695407684253744e-01
50 29 4.35112177626649443e-01
51 29 4.35112177626649443e-01
52 29 4.35695407684253799e-01
53 29 4.36861867799462456e-01
54 29 4.38611557972275135e-01
55 29 4.40944478202692502e-01
56 29 4.43860628490714004e-01
57 29 4.47360008836339751e-01
58 29 4.51442619239569853e-01
59 29 4.56108459700404367e-01
60 29 4.61357530218842959e-01
61 29 4.67189830794886074e-01
62 29 4.73605361428533322e-01
63 29 4.80604122119784927e-01
64 29 4.88186112868640776e-01
65 29 4.96351333675100925e-01
66 29 5.05099784539165597e-01
67 29 5.09765625000000000e-01
68 29 5.05099784539165597e-01
69 29 4.96351333675101036e-01
70 29 4.88186112868640887e-01
71 29 4.80604122119784927e-01
72 29 4.73605361428533322e-01
73 29 4.67189830794886074e-01
74 29 4.61357530218842848e-01
75 29 4.56108459700404367e-01
76 29 4.51442619239569853e-01
77 29 4.47360008836339751e-01
78 29 4.43860628490714004e-01
79 29 4.40944478202692447e-01
80 29 4.38611557972275135e-01
81 29 4.36861867799462456e-01
82 29 4.35695407684253744e-01
83 29 4.35112177626649443e-01
84 29 4.35112177626649443e-01
85 29 4.35695407684253799e-01
86 29 4.36861867799462456e-01
87 29 4.38611557972275135e-01
88 29 4.40944478202692502e-01
89 29 4.43860628490714004e-01
90 29 4.47360008836339751e-01
91 29 4.51442619239569853e-01
92 29 4.56108459700404367e-01
93 29 4.61357530218842959e-01
94 29 4.67189830794886074e-01
95 29 4.73605361428533322e-01
96 29 4.80604122119784927e-01
97 29 4.88186112868640776e-01
98 29 4.96351333675100925e-01
99 29 5.05099784539165597e-01
100 29 5.09765625000000000e-01
101 29 5.05099784539165597e-01
102 29 4.96351333675101036e-01
103 29 4.88186112868640887e-01
104 29 4.80604122119784927e-01
105 29 4.73605361428533322e-01
106 29 4.67189830794886074e-01
107 29 4.61357530218842848e-01
108 29 4.56108459700404367e-01
109 29 4.51442619239569853e-01
110 29 4.47360008836339751e-01
111 29 4.43860628490714004e-01
112 29 4.40944478202692447e-01
113 29 4.38611557972275135e-01
114 29 4.36861867799462456e-01
115 29 4.35695407684253744e-01
116 29 4.35112177626649443e-01
117 29 4.35112177626649443e-01
118 29 4.35695407684253799e-01
119 29 4.36861867799462456e-01
120 29 4.38611557972275135e-01
121 29 4.40944478202692502e-01
122 29 4.43860628490714004e-01
123 29 4.47360008836339751e-01
124 29 4.51442619239569853e-01
125 29 4.56108459700404367e-01
126 29 4.61357530218842959e-01
127 29 4.67189830794886074e-01
128 29 4.73605361428533322e-01
129 29 4.80604122119784927e-01
130 29 4.88186112868640776e-01
131 29 4.96351333675100925e-01
132 29 5.05099784539165597e-01
133 29 5.09765625000000000e-01
1 30 5.05859375000000000e-01
2 30 5.01229288105915272e-01
3 30 4.92547875179506378e-01
4 30 4.84445223114858159e-01
5 30 4.76921331911970503e-01
6 30 4.69976201570843410e-01
7 30 4.63609832091476992e-01
8 30 4.57822223473870915e-01
9 30 4.52613375718025790e-01
10 30 4.47983288823941006e-01
11 30 4.43931962791616841e-01
12 30 4.40459397621053350e-01
13 30 4.37565593312250367e-01
14 30 4.35250549865207947e-01
15 30 4.33514267279926313e-01
16 30 4.32356745556405075e-01
17 30 4.31777984694644512e-01
18 30 4.31777984694644512e-01
19 30 4.32356745556405131e-01
20 30 4.33514267279926313e-01
21 30 4.35250549865207947e-01
22 30 4.37565593312250423e-01
23 30 4.40459397621053350e-01
24 30 4.43931962791616841e-01
25 30 4.47983288823941006e-01
26 30 4.52613375718025790e-01
27 30 4.57822223473870971e-01
28 30 4.63609832091476992e-01
29 30 4.69976201570843410e-01
30 30 4.76921331911970503e-01
31 30 4.84445223114858103e-01
32 30 4.92547875179506267e-01
33 30 5.01229288105915272e-01
34 30 5.05859375000000000e-01
35 30 5.01229288105915272e-01
36 30 4.92547875179506378e-01
37 30 4.84445223114858159e-01
38 30 4.76921331911970503e-01
39 30 4.69976201570843410e-01
40 30 4.63609832091476992e-01
41 30 4.57822223473870915e-01
42 30 4.52613375718025790e-01
43 30 4.47983288823941006e-01
44 30 4.43931962791616841e-01
45 30 4.40459397621053350e-01
46 30 4.37565593312250367e-01
47 30 4.35250549865207947e-01
48 30 4.33514267279926313e-01
49 30 4.32356745556405075e-01
50 30 4.31777984694644512e-01
51 30 4.31777984694644512e-01
52 30 4.32356745556405131e-01
53 30 4.33514267279926313e-01
54 30 4.35250549865207947e-01
55 30 4.37565593312250423e-01
56 30 4.40459397621053350e-01
57 30 4.43931962791616841e-01
58 30 4.47983288823941006e-01
59 30 4.52613375718025790e-01
60 30 4.57822223473870971e-01
61 30 4.63609832091476992e-01
62 30 4.69976201570843410e-01
63 30 4.76921331911970503e-01
64 30 4.84445223114858103e-01
65 30 4.92547875179506267e-01
66 30 5.01229288105915272e-01
67 30 5.05859375000000000e-01
68 30 5.01229288105915272e-01
69 30 4.92547875179506378e-01
70 30 4.84445223114858159e-01
71 30 4.76921331911970503e-01
72 30 4.69976201570843410e-01
73 30 4.63609832091476992e-01
74 30 4.57822223473870915e-01
75 30 4.52613375718025790e-01
76 30 4.47983288823941006e-01
77 30 4.43931962791616841e-01
78 30 4.40459397621053350e-01
79 30 4.37565593312250367e-01
80 30 4.35250549865207947e-01
81 30 4.33514267279926313e-01
82 30 4.32356745556405075e-01
83 30 4.31777984694644512e-01
84 30 4.31777984694644512e-01
85 30 4.32356745556405131e-01
86 30 4.33514267279926313e-01
87 30 4.35250549865207947e-01
88 30 4.37565593312250423e-01
89 30 4.40459397621053350e-01
90 30 4.43931962791616841e-01
91 30 4.47983288823941006e-01
92 30 4.52613375718025790e-01
93 30 4.57822223473870971e-01
94 30 4.63609832091476992e-01
95 30 4.69976201570843410e-01
96 30 4.76921331911970503e-01
97 30 4.84445223114858103e-01
98 30 4.92547875179506267e-01
99 30 5.01229288105915272e-01
100 30 5.05859375000000000e-01
101 30 5.01229288105915272e-01
102 30 4.92547875179506378e-01
103 30 4.84445223114858159e-01
104 30 4.76921331911970503e-01
105 30 4.69976201570843410e-01
106 30 4.63609832091476992e-01
107 30 4.57822223473870915e-01
108 30 4.52613375718025790e-01
109 30 4.47983288823941006e-01
110 30 4.43931962791616841e-01
111 30 4.40459397621053350e-01
112 30 4.37565593312250367e-01
113 30 4.35250549865207947e-01
114 30 4.33514267279926313e-01
115 30 4.32356745556405075e-01
116 30 4.31777984694644512e-01
117 30 4.31777984694644512e-01
118 30 4.32356745556405131e-01
119 30 4.33514267279926313e-01
120 30 4.35250549865207947e-01
121 30 4.37565593312250423e-01
122 30 4.40459397621053350e-01
123 30 4.43931962791616841e-01
124 30 4.47983288823941006e-01
125 30 4.52613375718025790e-01
126 30 4.57822223473870971e-01
127 30 4.63609832091476992e-01
128 30 4.69976201570843410e-01
129 30 4.76921331911970503e-01
130 30 4.84445223114858103e-01
131 30 4.92547875179506267e-01
132 30 5.01229288105915272e-01
133 30 5.05859375000000000e-01
1 31 5.02929687500000000e-01
2 31 4.98326415780977527e-01
3 31 4.89695281307810371e-01
4 31 4.81639555799521113e-01
5 31 4.74159239256109644e-01
6 31 4.67254331677575963e-01
7 31 4.60924833063920181e-01
8 31 4.55170743415141910e-01
9 31 4.49992062731241815e-01
10 31 4.45388791012219287e-01
11 31 4.41360928258074658e-01
12 31 4.37908474468807873e-01
13 31 4.35031429644418766e-01
14 31 4.32729793784907557e-01
15 31 4.31003566890274192e-01
16 31 4.29852748960518560e-01
17 31 4.29277339995640772e-01
18 31 4.29277339995640772e-01
19 31 4.29852748960518616e-01
20 31 4.31003566890274192e-01
21 31 4.32729793784907557e-01
22 31 4.35031429644418877e-01
23 31 4.37908474468807873e-01
24 31 4.41360928258074658e-01
25 31 4.45388791012219287e-01
26 31 4.49992062731241815e-01
27 31 4.55170743415142021e-01
28 31 4.60924833063920181e-01
29 31 4.67254331677575963e-01
30 31 4.74159239256109644e-01
31 31 4.81639555799521057e-01
32 31 4.89695281307810260e-01
33 31 4.98326415780977472e-01
34 31 5.02929687500000000e-01
35 31 4.98326415780977527e-01
36 31 4.89695281307810371e-01
37 31 4.81639555799521113e-01
38 31 4.74159239256109644e-01
39 31 4.67254331677575963e-01
40 31 4.60924833063920181e-01
41 31 4.55170743415141910e-01
42 31 4.49992062731241815e-01
43 31 4.45388791012219287e-01
44 31 4.41360928258074658e-01
45 31 4.37908474468807873e-01
46 31 4.35031429644418766e-01
47 31 4.32729793784907557e-01
48 31 4.31003566890274192e-01
49 31 4.29852748960518560e-01
50 31 4.29277339995640772e-01
51 31 4.29277339995640772e-01
52 31 4.29852748960518616e-01
53 31 4.31003566890274192e-01
54 31 4.32729793784907557e-01
55 31 4.35031429644418877e-01
56 31 4.37908474468807873e-01
57 31 4.41360928258074658e-01
58 31 4.45388791012219287e-01
59 31 4.49992062731241815e-01
60 31 4.55170743415142021e-01
61 31 4.60924833063920181e-01
62 31 4.67254331677575963e-01
63 31 4.74159239256109644e-01
64 31 4.81639555799521057e-01
65 31 4.89695281307810260e-01
66 31 4.98326415780977472e-01
67 31 5.02929687500000000e-01
68 31 4.98326415780977527e-01
69 31 4.89695281307810371e-01
70 31 4.81639555799521113e-01
71 31 4.74159239256109644e-01
72 31 4.67254331677575963e-01
73 31 4.60924833063920181e-01
74 31 4.55170743415141910e-01
75 31 4.49992062731241815e-01
76 31 4.45388791012219287e-01
77 31 4.41360928258074658e-01
78 31 4.37908474468807873e-01
79 31 4.35031429644418766e-01
80 31 4.32729793784907557e-01
81 31 4.31003566890274192e-01
82 31 4.29852748960518560e-01
83 31 4.29277339995640772e-01
84 31 4.29277339995640772e-01
85 31 4.29852748960518616e-01
86 31 4.31003566890274192e-01
87 31 4.32729793784907557e-01
88 31 4.35031429644418877e-01
89 31 4.37908474468807873e-01
90 31 4.41360928258074658e-01
91 31 4.45388791012219287e-01
92 31 4.49992062731241815e-01
93 31 4.55170743415142021e-01
94 31 4.60924833063920181e-01
95 31 4.67254331677575963e-01
96 31 4.74159239256109644e-01
97 31 4.81639555799521057e-01
98 31 4.89695281307810260e-01
99 31 4.98326415780977472e-01
100 31 5.02929687500000000e-01
101 31 4.98326415780977527e-01
102 31 4.89695281307810371e-01
103 31 4.81639555799521113e-01
104 31 4.74159239256109644e-01
105 31 4.67254331677575963e-01
106 31 4.60924833063920181e-01
107 31 4.55170743415141910e-01
108 31 4.49992062731241815e-01
109 31 4.45388791012219287e-01
110 31 4.41360928258074658e-01
111 31 4.37908474468807873e-01
112 31 4.35031429644418766e-01
113 31 4.32729793784907557e-01
114 31 4.31003566890274192e-01
115 31 4.29852748960518560e-01
116 31 4.29277339995640772e-01
117 31 4.29277339995640772e-01
118 31 4.29852748960518616e-01
119 31 4.31003566890274192e-01
120 31 4.32729793784907557e-01
121 31 4.35031429644418877e-01
122 31 4.37908474468807873e-01
123 31 4.41360928258074658e-01
124 31 4.45388791012219287e-01
125 31 4.49992062731241815e-01
126 31 4.55170743415142021e-01
127 31 4.60924833063920181e-01
128 31 4.67254331677575963e-01
129 31 4.74159239256109644e-01
130 31 4.81639555799521057e-01
131 31 4.89695281307810260e-01
132 31 4.98326415780977472e-01
133 31 5.02929687500000000e-01
1 32 5.00976562500000000e-01
2 32 4.96391167564352365e-01
3 32 4.87793552060013014e-01
4 32 4.79769110922629749e-01
5 32 4.72317844152202404e-01
6 32 4.65439751748730979e-01
7 32 4.59134833712215584e-01
8 32 4.53403090042655887e-01
9 32 4.48244520740052499e-01
10 32 4.43659125804404808e-01
11 32 4.39646905235713203e-01
12 32 4.36207859033977519e-01
13 32 4.33341987199197698e-01
14 32 4.31049289731373908e-01
15 32 4.29329766630506149e-01
16 32 4.28183417896594198e-01
17 32 4.27610243529638223e-01
18 32 4.27610243529638223e-01
19 32 4.28183417896594198e-01
20 32 4.29329766630506149e-01
21 32 4.31049289731373908e-01
22 32 4.33341987199197809e-01
23 32 4.36207859033977519e-01
24 32 4.39646905235713203e-01
25 32 4.43659125804404808e-01
26 32 4.48244520740052554e-01
27 32 4.53403090042655998e-01
28 32 4.59134833712215584e-01
29 32 4.65439751748730979e-01
30 32 4.72317844152202404e-01
31 32 4.79769110922629693e-01
32 32 4.87793552060012903e-01
33 32 4.96391167564352309e-01
34 32 5.00976562500000000e-01
35 32 4.96391167564352365e-01
36 32 4.87793552060013014e-01
37 32 4.79769110922629749e-01
38 32 4.72317844152202404e-01
39 32 4.65439751748730979e-01
40 32 4.59134833712215584e-01
41 32 4.53403090042655887e-01
42 32 4.48244520740052499e-01
43 32 4.43659125804404808e-01
44 32 4.39646905235713203e-01
45 32 4.36207859033977519e-01
46 32 4.33341987199197698e-01
47 32 4.31049289731373908e-01
48 32 4.29329766630506149e-01
49 32 4.28183417896594198e-01
50 32 4.27610243529638223e-01
51 32 4.27610243529638223e-01
52 32 4.28183417896594198e-01
53 32 4.29329766630506149e-01
54 32 4.31049289731373908e-01
55 32 4.33341987199197809e-01
56 32 4.36207859033977519e-01
57 32 4.39646905235713203e-01
58 32 4.43659125804404808e-01
59 32 4.48244520740052554e-01
60 32 4.53403090042655998e-01
61 32 4.59134833712215584e-01
62 32 4.65439751748730979e-01
63 32 4.72317844152202404e-01
64 32 4.79769110922629693e-01
65 32 4.87793552060012903e-01
66 32 4.96391167564352309e-01
67 32 5.00976562500000000e-01
68 32 4.96391167564352365e-01
69 32 4.87793552060013014e-01
70 32 4.79769110922629749e-01
71 32 4.72317844152202404e-01
72 32 4.65439751748730979e-01
73 32 4.59134833712215584e-01
74 32 4.53403090042655887e-01
75 32 4.48244520740052499e-01
76 32 4.43659125804404808e-01
77 32 4.39646905235713203e-01
78 32 4.36207859033977519e-01
79 32 4.33341987199197698e-01
80 32 4.31049289731373908e-01
81 32 4.29329766630506149e-01
82 32 4.28183417896594198e-01
83 32 4.27610243529638223e-01
84 32 4.27610243529638223e-01
85 32 4.28183417896594198e-01
86 32 4.29329766630506149e-01
87 32 4.31049289731373908e-01
88 32 4.33341987199197809e-01
89 32 4.36207859033977519e-01
90 32 4.39646905235713203e-01
91 32 4.43659125804404808e-01
92 32 4.48244520740052554e-01
93 32 4.53403090042655998e-01
94 32 4.59134833712215584e-01
95 32 4.65439751748730979e-01
96 32 4.72317844152202404e-01
97 32 4.79769110922629693e-01
98 32 4.87793552060012903e-01
99 32 4.96391167564352309e-01
100 32 5.00976562500000000e-01
101 32 4.96391167564352365e-01
102 32 4.87793552060013014e-01
103 32 4.79769110922629749e-01
104 32 4.72317844152202404e-01
105 32 4.65439751748730979e-01
106 32 4.59134833712215584e-01
107 32 4.53403090042655887e-01
108 32 4.48244520740052499e-01
109 32 4.43659125804404808e-01
110 32 4.39646905235713203e-01
111 32 4.36207859033977519e-01
112 32 4.33341987199197698e-01
113 32 4.31049289731373908e-01
114 32 4.29329766630506149e-01
115 32 4.28183417896594198e-01
116 32 4.27610243529638223e-01
117 32 4.27610243529638223e-01
118 32 4.28183417896594198e-01
119 32 4.29329766630506149e-01
120 32 4.31049289731373908e-01
121 32 4.33341987199197809e-01
122 32 4.36207859033977519e-01
123 32 4.39646905235713203e-01
124 32 4.43659125804404808e-01
125 32 4.48244520740052554e-01
126 32 4.53403090042655998e-01
127 32 4.59134833712215584e-01
128 32 4.65439751748730979e-01
129 32 4.72317844152202404e-01
130 32 4.79769110922629693e-01
131 32 4.87793552060012903e-01
132 32 4.96391167564352309e-01
133 32 5.00976562500000000e-01
1 33 5.00000000000000000e-01
2 33 4.95423543456039783e-01
3 33 4.86842687436114363e-01
4 33 4.78833888484184067e-01
5 33 4.71397146600248784e-01
6 33 4.64532461784308515e-01
7 33 4.58239834036363314e-01
8 33 4.52519263356412904e-01
9 33 4.47370749744457841e-01
10 33 4.42794293200497568e-01
11 33 4.38789893724532476e-01
12 33 4.35357551316562341e-01
13 33 4.32497265976587164e-01
14 33 4.30209037704607111e-01
15 33 4.28492866500622127e-01
16 33 4.27348752364632045e-01
17 33 4.26776695296636921e-01
18 33 4.26776695296636921e-01
19 33 4.27348752364632045e-01
20 33 4.28492866500622127e-01
21 33 4.30209037704607111e-01
22 33 4.32497265976587275e-01
23 33 4.35357551316562341e-01
24 33 4.38789893724532476e-01
25 33 4.42794293200497568e-01
26 33 4.47370749744457896e-01
27 33 4.52519263356412960e-01
28 33 4.58239834036363314e-01
29 33 4.64532461784308515e-01
30 33 4.71397146600248784e-01
31 33 4.78833888484184012e-01
32 33 4.86842687436114252e-01
33 33 4.95423543456039728e-01
34 33 5.00000000000000000e-01
35 33 4.95423543456039783e-01
36 33 4.86842687436114363e-01
37 33 4.78833888484184067e-01
38 33 4.71397146600248784e-01
39 33 4.64532461784308515e-01
40 33 4.58239834036363314e-01
41 33 4.52519263356412904e-01
42 33 4.47370749744457841e-01
43 33 4.42794293200497568e-01
44 33 4.38789893724532476e-01
45 33 4.35357551316562341e-01
46 33 4.32497265976587164e-01
47 33 4.30209037704607111e-01
48 33 4.28492866500622127e-01
49 33 4.27348752364632045e-01
50 33 4.26776695296636921e-01
51 33 4.26776695296636921e-01
52 33 4.27348752364632045e-01
53 33 4.28492866500622127e-01
54 33 4.30209037704607111e-01
55 33 4.32497265976587275e-01
56 33 4.35357551316562341e-01
57 33 4.38789893724532476e-01
58 33 4.42794293200497568e-01
59 33 4.47370749744457896e-01
60 33 4.52519263356412960e-01
61 33 4.58239834036363314e-01
62 33 4.64532461784308515e-01
63 33 4.71397146600248784e-01
64 33 4.78833888484184012e-01
65 33 4.86842687436114252e-01
66 33 4.95423543456039728e-01
67 33 5.00000000000000000e-01
68 33 4.95423543456039783e-01
69 33 4.86842687436114363e-01
70 33 4.78833888484184067e-01
71 33 4.71397146600248784e-01
72 33 4.64532461784308515e-01
73 33 4.58239834036363314e-01
74 33 4.52519263356412904e-01
75 33 4.47370749744457841e-01
76 33 4.42794293200497568e-01
77 33 4.38789893724532476e-01
78 33 4.35357551316562341e-01
79 33 4.32497265976587164e-01
80 33 4.30209037704607111e-01
81 33 4.28492866500622127e-01
82 33 4.27348752364632045e-01
83 33 4.26776695296636921e-01
84 33 4.26776695296636921e-01
85 33 4.27348752364632045e-01
86 33 4.28492866500622127e-01
87 33 4.30209037704607111e-01
88 33 4.32497265976587275e-01
89 33 4.35357551316562341e-01
90 33 4.38789893724532476e-01
91 33 4.42794293200497568e-01
92 33 4.47370749744457896e-01
93 33 4.52519263356412960e-01
94 33 4.58239834036363314e-01
95 33 4.64532461784308515e-01
96 33 4.71397146600248784e-01
97 33 4.78833888484184012e-01
98 33 4.86842687436114252e-01
99 33 4.95423543456039728e-01
100 33 5.00000000000000000e-01
101 33 4.95423543456039783e-01
102 33 4.86842687436114363e-01
103 33 4.78833888484184067e-01
104 33 4.71397146600248784e-01
105 33 4.64532461784308515e-01
106 33 4.58239834036363314e-01
107 33 4.52519263356412904e-01
108 33 4.47370749744457841e-01
109 33 4.42794293200497568e-01
110 33 4.38789893724532476e-01
111 33 4.35357551316562341e-01
112 33 4.32497265976587164e-01
113 33 4.30209037704607111e-01
114 33 4.28492866500622127e-01
115 33 4.27348752364632045e-01
116 33 4.26776695296636921e-01
117 33 4.26776695296636921e-01
118 33 4.27348752364632045e-01
119 33 4.28492866500622127e-01
120 33 4.30209037704607111e-01
121 33 4.32497265976587275e-01
122 33 4.35357551316562341e-01
123 33 4.38789893724532476e-01
124 33 4.42794293200497568e-01
125 33 4.47370749744457896e-01
126 33 4.52519263356412960e-01
127 33 4.58239834036363314e-01
128 33 4.64532461784308515e-01
129 33 4.71397146600248784e-01
130 33 4.78833888484184012e-01
131 33 4.86842687436114252e-01
132 33 4.95423543456039728e-01
133 33 5.00000000000000000e-01
1 34 5.00000000000000000e-01
2 34 4.95423543456039783e-01
3 34 4.86842687436114363e-01
4 34 4.78833888484184067e-01
5 34 4.71397146600248784e-01
6 34 4.64532461784308515e-01
7 34 4.58239834036363314e-01
8 34 4.52519263356412849e-01
9 34 4.47370749744457785e-01
10 34 4.42794293200497513e-01
11 34 4.38789893724532476e-01
12 34 4.35357551316562286e-01
13 34 4.32497265976587109e-01
14 34 4.30209037704607111e-01
15 34 4.28492866500622072e-01
16 34 4.27348752364631990e-01
17 34 4.26776695296636865e-01
18 34 4.26776695296636865e-01
19 34 4.27348752364631990e-01
20 34 4.28492866500622072e-01
21 34 4.30209037704607111e-01
22 34 4.32497265976587275e-01
23 34 4.35357551316562286e-01
24 34 4.38789893724532476e-01
25 34 4.42794293200497513e-01
26 34 4.47370749744457841e-01
27 34 4.52519263356412960e-01
28 34 4.58239834036363314e-01
29 34 4.64532461784308515e-01
30 34 4.71397146600248784e-01
31 34 4.78833888484184012e-01
32 34 4.86842687436114252e-01
33 34 4.95423543456039672e-01
34 34 5.00000000000000000e-01
35 34 4.95423543456039783e-01
36 34 4.86842687436114363e-01
37 34 4.78833888484184067e-01
38 34 4.71397146600248784e-01
39 34 4.64532461784308515e-01
40 34 4.58239834036363314e-01
41 34 4.52519263356412849e-01
42 34 4.47370749744457785e-01
43 34 4.42794293200497513e-01
44 34 4.38789893724532476e-01
45 34 4.35357551316562286e-01
46 34 4.32497265976587109e-01
47 34 4.30209037704607111e-01
48 34 4.28492866500622072e-01
49 34 4.27348752364631990e-01
50 34 4.26776695296636865e-01
51 34 4.26776695296636865e-01
52 34 4.27348752364631990e-01
53 34 4.28492866500622072e-01
54 34 4.30209037704607111e-01
55 34 4.32497265976587275e-01
56 34 4.35357551316562286e-01
57 34 4.38789893724532476e-01
58 34 4.42794293200497513e-01
59 34 4.47370749744457841e-01
60 34 4.52519263356412960e-01
61 34 4.58239834036363314e-01
62 34 4.64532461784308515e-01
63 34 4.71397146600248784e-01
64 34 4.78833888484184012e-01
65 34 4.86842687436114252e-01
66 34 4.95423543456039672e-01
67 34 5.00000000000000000e-01
68 34 4.95423543456039783e-01
69 34 4.86842687436114363e-01
70 34 4.78833888484184067e-01
71 34 4.71397146600248784e-01
72 34 4.64532461784308515e-01
73 34 4.58239834036363314e-01
74 34 4.52519263356412849e-01
75 34 4.47370749744457785e-01
76 34 4.42794293200497513e-01
77 34 4.38789893724532476e-01
78 34 4.35357551316562286e-01
79 34 4.32497265976587109e-01
80 34 4.30209037704607111e-01
81 34 4.28492866500622072e-01
82 34 4.27348752364631990e-01
83 34 4.26776695296636865e-01
84 34 4.26776695296636865e-01
85 34 4.27348752364631990e-01
86 34 4.28492866500622072e-01
87 34 4.30209037704607111e-01
88 34 4.32497265976587275e-01
89 34 4.35357551316562286e-01
90 34 4.38789893724532476e-01
91 34 4.42794293200497513e-01
92 34 4.47370749744457841e-01
93 34 4.52519263356412960e-01
94 34 4.58239834036363314e-01
95 34 4.64532461784308515e-01
96 34 4.71397146600248784e-01
97 34 4.78833888484184012e-01
98 34 4.86842687436114252e-01
99 34 4.95423543456039672e-01
100 34 5.00000000000000000e-01
101 34 4.95423543456039783e-01
102 34 4.86842687436114363e-01
103 34 4.78833888484184067e-01
104 34 4.71397146600248784e-01
105 34 4.64532461784308515e-01
106 34 4.58239834036363314e-01
107 34 4.52519263356412849e-01
108 34 4.47370749744457785e-01
109 34 4.42794293200497513e-01
110 34 4.38789893724532476e-01
111 34 4.35357551316562286e-01
112 34 4.32497265976587109e-01
113 34 4.30209037704607111e-01
114 34 4.28492866500622072e-01
115 34 4.27348752364631990e-01
116 34 4.26776695296636865e-01
117 34 4.26776695296636865e-01
118 34 4.27348752364631990e-01
119 34 4.28492866500622072e-01
120 34 4.30209037704607111e-01
121 34 4.32497265976587275e-01
122 34 4.35357551316562286e-01
123 34 4.38789893724532476e-01
124 34 4.42794293200497513e-01
125 34 4.47370749744457841e-01
126 34 4.52519263356412960e-01
127 34 4.58239834036363314e-01
128 34 4.64532461784308515e-01
129 34 4.71397146600248784e-01
130 34 4.78833888484184012e-01
131 34 4.86842687436114252e-01
132 34 4.95423543456039672e-01
133 34 5.00000000000000000e-01
1 35 5.00976562500000000e-01
2 35 4.96391167564352420e-01
3 35 4.87793552060013069e-01
4 35 4.79769110922629749e-01
5 35 4.72317844152202349e-01
6 35 4.65439751748730979e-01
7 35 4.59134833712215529e-01
8 35 4.53403090042655832e-01
9 35 4.48244520740052388e-01
10 35 4.43659125804404697e-01
11 35 4.39646905235713259e-01
12 35 4.36207859033977408e-01
13 35 4.33341987199197587e-01
14 35 4.31049289731373908e-01
15 35 4.29329766630506149e-01
16 35 4.28183417896594198e-01
17 35 4.27610243529638168e-01
18 35 4.27610243529638168e-01
19 35 4.28183417896594198e-01
20 35 4.29329766630506149e-01
21 35 4.31049289731373908e-01
22 35 4.33341987199197809e-01
23 35 4.36207859033977408e-01
24 35 4.39646905235713259e-01
25 35 4.43659125804404697e-01
26 35 4.48244520740052499e-01
27 35 4.53403090042655998e-01
28 35 4.59134833712215529e-01
29 35 4.65439751748730979e-01
30 35 4.72317844152202349e-01
31 35 4.79769110922629638e-01
32 35 4.87793552060012958e-01
33 35 4.96391167564352198e-01
34 35 5.00976562500000000e-01
35 35 4.96391167564352420e-01
36 35 4.87793552060013069e-01
37 35 4.79769110922629749e-01
38 35 4.72317844152202349e-01
39 35 4.65439751748730979e-01
40 35 4.59134833712215529e-01
41 35 4.53403090042655832e-01
42 35 4.48244520740052388e-01
43 35 4.43659125804404697e-01
44 35 4.39646905235713259e-01
45 35 4.36207859033977408e-01
46 35 4.33341987199197587e-01
47 35 4.31049289731373908e-01
48 35 4.29329766630506149e-01
49 35 4.28183417896594198e-01
50 35 4.27610243529638168e-01
51 35 4.27610243529638168e-01
52 35 4.28183417896594198e-01
53 35 4.29329766630506149e-01
54 35 4.31049289731373908e-01
55 35 4.33341987199197809e-01
56 35 4.36207859033977408e-01
57 35 4.39646905235713259e-01
58 35 4.43659125804404697e-01
59 35 4.48244520740052499e-01
60 35 4.53403090042655998e-01
61 35 4.59134833712215529e-01
62 35 4.65439751748730979e-01
63 35 4.72317844152202349e-01
64 35 4.79769110922629638e-01
65 35 4.87793552060012958e-01
66 35 4.96391167564352198e-01
67 35 5.00976562500000000e-01
68 35 4.96391167564352420e-01
69 35 4.87793552060013069e-01
70 35 4.79769110922629749e-01
71 35 4.72317844152202349e-01
72 35 4.65439751748730979e-01
73 35 4.59134833712215529e-01
74 35 4.53403090042655832e-01
75 35 4.48244520740052388e-01
76 35 4.43659125804404697e-01
77 35 4.39646905235713259e-01
78 35 4.36207859033977408e-01
79 35 4.33341987199197587e-01
80 35 4.31049289731373908e-01
81 35 4.29329766630506149e-01
82 35 4.28183417896594198e-01
83 35 4.27610243529638168e-01
84 35 4.27610243529638168e-01
85 35 4.28183417896594198e-01
86 35 4.29329766630506149e-01
87 35 4.31049289731373908e-01
88 35 4.33341987199197809e-01
89 35 4.36207859033977408e-01
90 35 4.39646905235713259e-01
91 35 4.43659125804404697e-01
92 35 4.48244520740052499e-01
93 35 4.53403090042655998e-01
94 35 4.59134833712215529e-01
95 35 4.65439751748730979e-01
96 35 4.72317844152202349e-01
97 35 4.79769110922629638e-01
98 35 4.87793552060012958e-01
99 35 4.96391167564352198e-01
100 35 5.00976562500000000e-01
101 35 4.96391167564352420e-01
102 35 4.87793552060013069e-01
103 35 4.79769110922629749e-01
104 35 4.72317844152202349e-01
105 35 4.65439751748730979e-01
106 35 4.59134833712215529e-01
107 35 4.53403090042655832e-01
108 35 4.48244520740052388e-01
109 35 4.43659125804404697e-01
110 35 4.39646905235713259e-01
111 35 4.36207859033977408e-01
112 35 4.33341987199197587e-01
113 35 4.31049289731373908e-01
114 35 4.29329766630506149e-01
115 35 4.28183417896594198e-01
116 35 4.27610243529638168e-01
117 35 4.27610243529638168e-01
118 35 4.28183417896594198e-01
119 35 4.29329766630506149e-01
120 35 4.31049289731373908e-01
121 35 4.33341987199197809e-01
122 35 4.36207859033977408e-01
123 35 4.39646905235713259e-01
124 35 4.43659125804404697e-01
125 35 4.48244520740052499e-01
126 35 4.53403090042655998e-01
127 35 4.59134833712215529e-01
128 35 4.65439751748730979e-01
129 35 4.72317844152202349e-01
130 35 4.79769110922629638e-01
131 35 4.87793552060012958e-01
132 35 4.96391167564352198e-01
133 35 5.00976562500000000e-01
1 36 5.02929687500000000e-01
2 36 4.98326415780977527e-01
3 36 4.89695281307810371e-01
4 36 4.81639555799521113e-01
5 36 4.74159239256109588e-01
6 36 4.67254331677575907e-01
7 36 4.60924833063920125e-01
8 36 4.55170743415141854e-01
9 36 4.49992062731241704e-01
10 36 4.45388791012219176e-01
11 36 4.41360928258074658e-01
12 36 4.37908474468807762e-01
13 36 4.35031429644418655e-01
14 36 4.32729793784907502e-01
15 36 4.31003566890274137e-01
16 36 4.29852748960518505e-01
17 36 4.29277339995640661e-01
18 36 4.29277339995640661e-01
19 36 4.29852748960518505e-01
20 36 4.31003566890274137e-01
21 36 4.32729793784907502e-01
22 36 4.35031429644418877e-01
23 36 4.37908474468807762e-01
24 36 4.41360928258074658e-01
25 36 4.45388791012219176e-01
26 36 4.49992062731241815e-01
27 36 4.55170743415141965e-01
28 36 4.60924833063920125e-01
29 36 4.67254331677575907e-01
30 36 4.74159239256109588e-01
31 36 4.81639555799521002e-01
32 36 4.89695281307810260e-01
33 36 4.98326415780977416e-01
34 36 5.02929687500000000e-01
35 36 4.98326415780977527e-01
36 36 4.89695281307810371e-01
37 36 4.81639555799521113e-01
38 36 4.74159239256109588e-01
39 36 4.67254331677575907e-01
40 36 4.60924833063920125e-01
41 36 4.55170743415141854e-01
42 36 4.49992062731241704e-01
43 36 4.45388791012219176e-01
44 36 4.41360928258074658e-01
45 36 4.37908474468807762e-01
46 36 4.35031429644418655e-01
47 36 4.32729793784907502e-01
48 36 4.31003566890274137e-01
49 36 4.29852748960518505e-01
50 36 4.29277339995640661e-01
51 36 4.29277339995640661e-01
52 36 4.29852748960518505e-01
53 36 4.31003566890274137e-01
54 36 4.32729793784907502e-01
55 36 4.35031429644418877e-01
56 36 4.37908474468807762e-01
57 36 4.41360928258074658e-01
58 36 4.45388791012219176e-01
59 36 4.49992062731241815e-01
60 36 4.55170743415141965e-01
61 36 4.60924833063920125e-01
62 36 4.67254331677575907e-01
63 36 4.74159239256109588e-01
64 36 4.81639555799521002e-01
65 36 4.89695281307810260e-01
66 36 4.98326415780977416e-01
67 36 5.02929687500000000e-01
68 36 4.98326415780977527e-01
69 36 4.89695281307810371e-01
70 36 4.81639555799521113e-01
71 36 4.74159239256109588e-01
72 36 4.67254331677575907e-01
73 36 4.60924833063920125e-01
74 36 4.55170743415141854e-01
75 36 4.49992062731241704e-01
76 36 4.45388791012219176e-01
77 36 4.41360928258074658e-01
78 36 4.37908474468807762e-01
79 36 4.35031429644418655e-01
80 36 4.32729793784907502e-01
81 36 4.31003566890274137e-01
82 36 4.29852748960518505e-01
83 36 4.29277339995640661e-01
84 36 4.29277339995640661e-01
85 36 4.29852748960518505e-01
86 36 4.31003566890274137e-01
87 36 4.32729793784907502e-01
88 36 4.35031429644418877e-01
89 36 4.37908474468807762e-01
90 36 4.41360928258074658e-01
91 36 4.45388791012219176e-01
92 36 4.49992062731241815e-01
93 36 4.55170743415141965e-01
94 36 4.60924833063920125e-01
95 36 4.67254331677575907e-01
96 36 4.74159239256109588e-01
97 36 4.81639555799521002e-01
98 36 4.89695281307810260e-01
99 36 4.98326415780977416e-01
100 36 5.02929687500000000e-01
101 36 4.98326415780977527e-01
102 36 4.89695281307810371e-01
103 36 4.81639555799521113e-01
104 36 4.74159239256109588e-01
105 36 4.67254331677575907e-01
106 36 4.60924833063920125e-01
107 36 4.55170743415141854e-01
108 36 4.49992062731241704e-01
109 36 4.45388791012219176e-01
110 36 4.41360928258074658e-01
111 36 4.37908474468807762e-01
112 36 4.35031429644418655e-01
113 36 4.32729793784907502e-01
114 36 4.31003566890274137e-01
115 36 4.29852748960518505e-01
116 36 4.29277339995640661e-01
117 36 4.29277339995640661e-01
118 36 4.29852748960518505e-01
119 36 4.31003566890274137e-01
120 36 4.32729793784907502e-01
121 36 4.35031429644418877e-01
122 36 4.37908474468807762e-01
123 36 4.41360928258074658e-01
124 36 4.45388791012219176e-01
125 36 4.49992062731241815e-01
126 36 4.55170743415141965e-01
127 36 4.60924833063920125e-01
128 36 4.67254331677575907e-01
129 36 4.74159239256109588e-01
130 36 4.81639555799521002e-01
131 36 4.89695281307810260e-01
132 36 4.98326415780977416e-01
133 36 5.02929687500000000e-01
1 37 5.05859375000000000e-01
2 37 5.01229288105915272e-01
3 37 4.92547875179506378e-01
4 37 4.84445223114858159e-01
5 37 4.76921331911970448e-01
6 37 4.69976201570843355e-01
7 37 4.63609832091476937e-01
8 37 4.57822223473870915e-01
9 37 4.52613375718025623e-01
10 37 4.47983288823940895e-01
11 37 4.43931962791616841e-01
12 37 4.40459397621053239e-01
13 37 4.37565593312250256e-01
14 37 4.35250549865207947e-01
15 37 4.33514267279926202e-01
16 37 4.32356745556405020e-01
17 37 4.31777984694644401e-01
18 37 4.31777984694644401e-01
19 37 4.32356745556405020e-01
20 37 4.33514267279926202e-01
21 37 4.35250549865207947e-01
22 37 4.37565593312250423e-01
23 37 4.40459397621053239e-01
24 37 4.43931962791616841e-01
25 37 4.47983288823940895e-01
26 37 4.52613375718025734e-01
27 37 4.57822223473871026e-01
28 37 4.63609832091476937e-01
29 37 4.69976201570843355e-01
30 37 4.76921331911970448e-01
31 37 4.84445223114858048e-01
32 37 4.92547875179506267e-01
33 37 5.01229288105915161e-01
34 37 5.05859375000000000e-01
35 37 5.01229288105915272e-01
36 37 4.92547875179506378e-01
37 37 4.84445223114858159e-01
38 37 4.76921331911970448e-01
39 37 4.69976201570843355e-01
40 37 4.63609832091476937e-01
41 37 4.57822223473870915e-01
42 37 4.52613375718025623e-01
43 37 4.47983288823940895e-01
44 37 4.43931962791616841e-01
45 37 4.40459397621053239e-01
46 37 4.37565593312250256e-01
47 37 4.35250549865207947e-01
48 37 4.33514267279926202e-01
49 37 4.32356745556405020e-01
50 37 4.31777984694644401e-01
51 37 4.31777984694644401e-01
52 37 4.32356745556405020e-01
53 37 4.33514267279926202e-01
54 37 4.35250549865207947e-01
55 37 4.37565593312250423e-01
56 37 4.40459397621053239e-01
57 37 4.43931962791616841e-01
58 37 4.47983288823940895e-01
59 37 4.52613375718025734e-01
60 37 4.57822223473871026e-01
61 37 4.63609832091476937e-01
62 37 4.69976201570843355e-01
63 37 4.76921331911970448e-01
64 37 4.84445223114858048e-01
65 37 4.92547875179506267e-01
66 37 5.01229288105915161e-01
67 37 5.05859375000000000e-01
68 37 5.01229288105915272e-01
69 37 4.92547875179506378e-01
70 37 4.84445223114858159e-01
71 37 4.76921331911970448e-01
72 37 4.69976201570843355e-01
73 37 4.63609832091476937e-01
74 37 4.57822223473870915e-01
75 37 4.52613375718025623e-01
76 37 4.47983288823940895e-01
77 37 4.43931962791616841e-01
78 37 4.40459397621053239e-01
79 37 4.37565593312250256e-01
80 37 4.35250549865207947e-01
81 37 4.33514267279926202e-01
82 37 4.32356745556405020e-01
83 37 4.31777984694644401e-01
84 37 4.31777984694644401e-01
85 37 4.32356745556405020e-01
86 37 4.33514267279926202e-01
87 37 4.35250549865207947e-01
88 37 4.37565593312250423e-01
89 37 4.40459397621053239e-01
90 37 4.43931962791616841e-01
91 37 4.47983288823940895e-01
92 37 4.52613375718025734e-01
93 37 4.57822223473871026e-01
94 37 4.63609832091476937e-01
95 37 4.69976201570843355e-01
96 37 4.76921331911970448e-01
97 37 4.84445223114858048e-01
98 37 4.92547875179506267e-01
99 37 5.01229288105915161e-01
100 37 5.05859375000000000e-01
101 37 5.01229288105915272e-01
102 37 4.92547875179506378e-01
103 37 4.84445223114858159e-01
104 37 4.76921331911970448e-01
105 37 4.69976201570843355e-01
106 37 4.63609832091476937e-01
107 37 4.57822223473870915e-01
108 37 4.52613375718025623e-01
109 37 4.47983288823940895e-01
110 37 4.43931962791616841e-01
111 37 4.40459397621053239e-01
112 37 4.37565593312250256e-01
113 37 4.35250549865207947e-01
114 37 4.33514267279926202e-01
115 37 4.32356745556405020e-01
116 37 4.31777984694644401e-01
117 37 4.31777984694644401e-01
118 37 4.32356745556405020e-01
119 37 4.33514267279926202e-01
120 37 4.35250549865207947e-01
121 37 4.37565593312250423e-01
122 37 4.40459397621053239e-01
123 37 4.43931962791616841e-01
124 37 4.47983288823940895e-01
125 37 4.52613375718025734e-01
126 37 4.57822223473871026e-01
127 37 4.63609832091476937e-01
128 37 4.69976201570843355e-01
129 37 4.76921331911970448e-01
130 37 4.84445223114858048e-01
131 37 4.92547875179506267e-01
132 37 5.01229288105915161e-01
133 37 5.05859375000000000e-01
1 38 5.09765625000000000e-01
2 38 5.05099784539165597e-01
3 38 4.96351333675101092e-01
4 38 4.88186112868640831e-01
5 38 4.80604122119784927e-01
6 38 4.73605361428533211e-01
7 38 4.67189830794886019e-01
8 38 4.61357530218842904e-01
9 38 4.56108459700404256e-01
10 38 4.51442619239569853e-01
11 38 4.47360008836339751e-01
12 38 4.43860628490713893e-01
13 38 4.40944478202692336e-01
14 38 4.38611557972275246e-01
15 38 4.36861867799462233e-01
16 38 4.35695407684253744e-01
17 38 4.35112177626649388e-01
18 38 4.35112177626649388e-01
19 38 4.35695407684253744e-01
20 38 4.36861867799462233e-01
21 38 4.38611557972275246e-01
22 38 4.40944478202692558e-01
23 38 4.43860628490713893e-01
24 38 4.47360008836339751e-01
25 38 4.51442619239569853e-01
26 38 4.56108459700404312e-01
27 38 4.61357530218843015e-01
28 38 4.67189830794886019e-01
29 38 4.73605361428533211e-01
30 38 4.80604122119784927e-01
31 38 4.88186112868640776e-01
32 38 4.96351333675100925e-01
33 38 5.05099784539165486e-01
34 38 5.09765625000000000e-01
35 38 5.05099784539165597e-01
36 38 4.96351333675101092e-01
37 38 4.88186112868640831e-01
38 38 4.80604122119784927e-01
39 38 4.73605361428533211e-01
40 38 4.67189830794886019e-01
41 38 4.61357530218842904e-01
42 38 4.56108459700404256e-01
43 38 4.51442619239569853e-01
44 38 4.47360008836339751e-01
45 38 4.43860628490713893e-01
46 38 4.40944478202692336e-01
47 38 4.38611557972275246e-01
48 38 4.36861867799462233e-01
49 38 4.35695407684253744e-01
50 38 4.35112177626649388e-01
51 38 4.35112177626649388e-01
52 38 4.35695407684253744e-01
53 38 4.36861867799462233e-01
54 38 4.38611557972275246e-01
55 38 4.40944478202692558e-01
56 38 4.43860628490713893e-01
57 38 4.47360008836339751e-01
58 38 4.51442619239569853e-01
59 38 4.56108459700404312e-01
60 38 4.61357530218843015e-01
61 38 4.67189830794886019e-01
62 38 4.73605361428533211e-01
63 38 4.80604122119784927e-01
64 38 4.88186112868640776e-01
65 38 4.96351333675100925e-01
66 38 5.05099784539165486e-01
67 38 5.09765625000000000e-01
68 38 5.05099784539165597e-01
69 38 4.96351333675101092e-01
70 38 4.88186112868640831e-01
71 38 4.80604122119784927e-01
72 38 4.73605361428533211e-01
73 38 4.67189830794886019e-01
74 38 4.61357530218842904e-01
75 38 4.56108459700404256e-01
76 38 4.51442619239569853e-01
77 38 4.47360008836339751e-01
78 38 4.43860628490713893e-01
79 38 4.40944478202692336e-01
80 38 4.38611557972275246e-01
81 38 4.36861867799462233e-01
82 38 4.35695407684253744e-01
83 38 4.35112177626649388e-01
84 38 4.35112177626649388e-01
85 38 4.35695407684253744e-01
86 38 4.36861867799462233e-01
87 38 4.38611557972275246e-01
88 38 4.40944478202692558e-01
89 38 4.43860628490713893e-01
90 38 4.47360008836339751e-01
91 38 4.51442619239569853e-01
92 38 4.56108459700404312e-01
93 38 4.61357530218843015e-01
94 38 4.67189830794886019e-01
95 38 4.73605361428533211e-01
96 38 4.80604122119784927e-01
97 38 4.88186112868640776e-01
98 38 4.96351333675100925e-01
99 38 5.05099784539165486e-01
100 38 5.09765625000000000e-01
101 38 5.05099784539165597e-01
102 38 4.96351333675101092e-01
103 38 4.88186112868640831e-01
104 38 4.80604122119784927e-01
105 38 4.73605361428533211e-01
106 38 4.67189830794886019e-01
107 38 4.61357530218842904e-01
108 38 4.56108459700404256e-01
109 38 4.51442619239569853e-01
110 38 4.47360008836339751e-01
111 38 4.43860628490713893e-01
112 38 4.40944478202692336e-01
113 38 4.38611557972275246e-01
114 38 4.36861867799462233e-01
115 38 4.35695407684253744e-01
116 38 4.35112177626649388e-01
117 38 4.35112177626649388e-01
118 38 4.35695407684253744e-01
119 38 4.36861867799462233e-01
120 38 4.38611557972275246e-01
121 38 4.40944478202692558e-01
122 38 4.43860628490713893e-01
123 38 4.47360008836339751e-01
124 38 4.51442619239569853e-01
125 38 4.56108459700404312e-01
126 38 4.61357530218843015e-01
127 38 4.67189830794886019e-01
128 38 4.73605361428533211e-01
129 38 4.80604122119784927e-01
130 38 4.88186112868640776e-01
131 38 4.96351333675100925e-01
132 38 5.05099784539165486e-01
133 38 5.09765625000000000e-01
1 39 5.14648437500000000e-01
2 39 5.09937905080728449e-01
3 39 5.01105656794594401e-01
4 39 4.92862225060869186e-01
5 39 4.85207609879552970e-01
6 39 4.78141811250645532e-01
7 39 4.71664829174147315e-01
8 39 4.65776663650057876e-01
9 39 4.60477314678377381e-01
10 39 4.55766782259105940e-01
11 39 4.51645066392243444e-01
12 39 4.48112167077789669e-01
13 39 4.45168084315744894e-01
14 39 4.42812818106109285e-01
15 39 4.41046368448882342e-01
16 39 4.39868735344064621e-01
17 39 4.39279918791655566e-01
18 39 4.39279918791655566e-01
19 39 4.39868735344064621e-01
20 39 4.41046368448882342e-01
21 39 4.42812818106109285e-01
22 39 4.45168084315745116e-01
23 39 4.48112167077789669e-01
24 39 4.51645066392243444e-01
25 39 4.55766782259105940e-01
26 39 4.60477314678377492e-01
27 39 4.65776663650057987e-01
28 39 4.71664829174147315e-01
29 39 4.78141811250645532e-01
30 39 4.85207609879552970e-01
31 39 4.92862225060869075e-01
32 39 5.01105656794594179e-01
33 39 5.09937905080728338e-01
34 39 5.14648437500000000e-01
35 39 5.09937905080728449e-01
36 39 5.01105656794594401e-01
37 39 4.92862225060869186e-01
38 39 4.85207609879552970e-01
39 39 4.78141811250645532e-01
40 39 4.71664829174147315e-01
41 39 4.65776663650057876e-01
42 39 4.60477314678377381e-01
43 39 4.55766782259105940e-01
44 39 4.51645066392243444e-01
45 39 4.48112167077789669e-01
46 39 4.45168084315744894e-01
47 39 4.42812818106109285e-01
48 39 4.41046368448882342e-01
49 39 4.39868735344064621e-01
50 39 4.39279918791655566e-01
51 39 4.39279918791655566e-01
52 39 4.39868735344064621e-01
53 39 4.41046368448882342e-01
54 39 4.42812818106109285e-01
55 39 4.45168084315745116e-01
56 39 4.48112167077789669e-01
57 39 4.51645066392243444e-01
58 39 4.55766782259105940e-01
59 39 4.60477314678377492e-01
60 39 4.65776663650057987e-01
61 39 4.71664829174147315e-01
62 39 4.78141811250645532e-01
63 39 4.85207609879552970e-01
64 39 4.92862225060869075e-01
65 39 5.01105656794594179e-01
66 39 5.09937905080728338e-01
67 39 5.14648437500000000e-01
68 39 5.09937905080728449e-01
69 39 5.01105656794594401e-01
70 39 4.92862225060869186e-01
71 39 4.85207609879552970e-01
72 39 4.78141811250645532e-01
73 39 4.71664829174147315e-01
74 39 4.65776663650057876e-01
75 39 4.60477314678377381e-01
76 39 4.55766782259105940e-01
77 39 4.51645066392243444e-01
78 39 4.48112167077789669e-01
79 39 4.45168084315744894e-01
80 39 4.42812818106109285e-01
81 39 4.41046368448882342e-01
82 39 4.39868735344064621e-01
83 39 4.39279918791655566e-01
84 39 4.39279918791655566e-01
85 39 4.39868735344064621e-01
86 39 4.41046368448882342e-01
87 39 4.42812818106109285e-01
88 39 4.45168084315745116e-01
89 39 4.48112167077789669e-01
90 39 4.51645066392243444e-01
91 39 4.55766782259105940e-01
92 39 4.60477314678377492e-01
93 39 4.65776663650057987e-01
94 39 4.71664829174147315e-01
95 39 4.78141811250645532e-01
96 39 4.85207609879552970e-01
97 39 4.92862225060869075e-01
98 39 5.01105656794594179e-01
99 39 5.09937905080728338e-01
100 39 5.14648437500000000e-01
101 39 5.09937905080728449e-01
102 39 5.01105656794594401e-01
103 39 4.92862225060869186e-01
104 39 4.85207609879552970e-01
105 39 4.78141811250645532e-01
106 39 4.71664829174147315e-01
107 39 4.65776663650057876e-01
108 39 4.60477314678377381e-01
109 39 4.55766782259105940e-01
110 39 4.51645066392243444e-01
111 39 4.48112167077789669e-01
112 39 4.45168084315744894e-01
113 39 4.42812818106109285e-01
114 39 4.41046368448882342e-01
115 39 4.39868735344064621e-01
116 39 4.39279918791655566e-01
117 39 4.39279918791655566e-01
118 39 4.39868735344064621e-01
119 39 4.41046368448882342e-01
120 39 4.42812818106109285e-01
121 39 4.45168084315745116e-01
122 39 4.48112167077789669e-01
123 39 4.51645066392243444e-01
124 39 4.55766782259105940e-01
125 39 4.60477314678377492e-01
126 39 4.65776663650057987e-01
127 39 4.71664829174147315e-01
128 39 4.78141811250645532e-01
129 39 4.85207609879552970e-01
130 39 4.92862225060869075e-01
131 39 5.01105656794594179e-01
132 39 5.09937905080728338e-01
133 39 5.14648437500000000e-01
1 40 5.20507812500000000e-01
2 40 5.15743649730603937e-01
3 40 5.06810844537986305e-01
4 40 4.98473559691543222e-01
5 40 4.90731795191274633e-01
6 40 4.83585551037180372e-01
7 40 4.77034827229260938e-01
8 40 4.71079623767515832e-01
9 40 4.65719940651945274e-01
10 40 4.60955777882549267e-01
11 40 4.56787135459327809e-01
12 40 4.53214013382280678e-01
13 40 4.50236411651408042e-01
14 40 4.47854330266710121e-01
15 40 4.46067769228186528e-01
16 40 4.44876728535837651e-01
17 40 4.44281208189663102e-01
18 40 4.44281208189663102e-01
19 40 4.44876728535837707e-01
20 40 4.46067769228186528e-01
21 40 4.47854330266710121e-01
22 40 4.50236411651408264e-01
23 40 4.53214013382280678e-01
24 40 4.56787135459327809e-01
25 40 4.60955777882549267e-01
26 40 4.65719940651945330e-01
27 40 4.71079623767515943e-01
28 40 4.77034827229260938e-01
29 40 4.83585551037180372e-01
30 40 4.90731795191274633e-01
31 40 4.98473559691543111e-01
32 40 5.06810844537986194e-01
33 40 5.15743649730603826e-01
34 40 5.20507812500000000e-01
35 40 5.15743649730603937e-01
36 40 5.06810844537986305e-01
37 40 4.98473559691543222e-01
38 40 4.90731795191274633e-01
39 40 4.83585551037180372e-01
40 40 4.77034827229260938e-01
41 40 4.71079623767515832e-01
42 40 4.65719940651945274e-01
43 40 4.60955777882549267e-01
44 40 4.56787135459327809e-01
45 40 4.53214013382280678e-01
46 40 4.50236411651408042e-01
47 40 4.47854330266710121e-01
48 40 4.46067769228186528e-01
49 40 4.44876728535837651e-01
50 40 4.44281208189663102e-01
51 40 4.44281208189663102e-01
52 40 4.44876728535837707e-01
53 40 4.46067769228186528e-01
54 40 4.47854330266710121e-01
55 40 4.50236411651408264e-01
56 40 4.53214013382280678e-01
57 40 4.56787135459327809e-01
58 40 4.60955777882549267e-01
59 40 4.65719940651945330e-01
60 40 4.71079623767515943e-01
61 40 4.77034827229260938e-01
62 40 4.83585551037180372e-01
63 40 4.90731795191274633e-01
64 40 4.98473559691543111e-01
65 40 5.06810844537986194e-01
66 40 5.15743649730603826e-01
67 40 5.20507812500000000e-01
68 40 5.15743649730603937e-01
69 40 5.06810844537986305e-01
70 40 4.98473559691543222e-01
71 40 4.90731795191274633e-01
72 40 4.83585551037180372e-01
73 40 4.77034827229260938e-01
74 40 4.71079623767515832e-01
75 40 4.65719940651945274e-01
76 40 4.60955777882549267e-01
77 40 4.56787135459327809e-01
78 40 4.53214013382280678e-01
79 40 4.50236411651408042e-01
80 40 4.47854330266710121e-01
81 40 4.46067769228186528e-01
82 40 4.44876728535837651e-01
83 40 4.44281208189663102e-01
84 40 4.44281208189663102e-01
85 40 4.44876728535837707e-01
86 40 4.46067769228186528e-01
87 40 4.47854330266710121e-01
88 40 4.50236411651408264e-01
89 40 4.53214013382280678e-01
90 40 4.56787135459327809e-01
91 40 4.60955777882549267e-01
92 40 4.65719940651945330e-01
93 40 4.71079623767515943e-01
94 40 4.77034827229260938e-01
95 40 4.83585551037180372e-01
96 40 4.90731795191274633e-01
97 40 4.98473559691543111e-01
98 40 5.06810844537986194e-01
99 40 5.15743649730603826e-01
100 40 5.20507812500000000e-01
101 40 5.15743649730603937e-01
102 40 5.06810844537986305e-01
103 40 4.98473559691543222e-01
104 40 4.90731795191274633e-01
105 40 4.83585551037180372e-01
106 40 4.77034827229260938e-01
107 40 4.71079623767515832e-01
108 40 4.65719940651945274e-01
109 40 4.60955777882549267e-01
110 40 4.56787135459327809e-01
111 40 4.53214013382280678e-01
112 40 4.50236411651408042e-01
113 40 4.47854330266710121e-01
114 40 4.46067769228186528e-01
115 40 4.44876728535837651e-01
116 40 4.44281208189663102e-01
117 40 4.44281208189663102e-01
118 40 4.44876728535837707e-01
119 40 4.46067769228186528e-01
120 40 4.47854330266710121e-01
121 40 4.50236411651408264e-01
122 40 4.53214013382280678e-01
123 40 4.56787135459327809e-01
124 40 4.60955777882549267e-01
125 40 4.65719940651945330e-01
126 40 4.71079623767515943e-01
127 40 4.77034827229260938e-01
128 40 4.83585551037180372e-01
129 40 4.90731795191274633e-01
130 40 4.98473559691543111e-01
131 40 5.06810844537986194e-01
132 40 5.15743649730603826e-01
133 40 5.20507812500000000e-01
1 41 5.27343750000000000e-01
2 41 5.22517018488791951e-01
3 41 5.13466896905276915e-01
4 41 5.05020116760662940e-01
5 41 4.97176678054949972e-01
6 41 4.89936580788137732e-01
7 41 4.83299824960226887e-01
8 41 4.77266410571216826e-01
9 41 4.71836337621107826e-01
10 41 4.67009606109899833e-01
11 41 4.62786216037592901e-01
12 41 4.59166167404186809e-01
13 41 4.56149460209681668e-01
14 41 4.53736094454077810e-01
15 41 4.51926070137374736e-01
16 41 4.50719387259572890e-01
17 41 4.50116045820671773e-01
18 41 4.50116045820671773e-01
19 41 4.50719387259572946e-01
20 41 4.51926070137374736e-01
21 41 4.53736094454077810e-01
22 41 4.56149460209681890e-01
23 41 4.59166167404186809e-01
24 41 4.62786216037592901e-01
25 41 4.67009606109899833e-01
26 41 4.71836337621107826e-01
27 41 4.77266410571216881e-01
28 41 4.83299824960226887e-01
29 41 4.89936580788137732e-01
30 41 4.97176678054949972e-01
31 41 5.05020116760662829e-01
32 41 5.13466896905276804e-01
33 41 5.22517018488791840e-01
34 41 5.27343750000000000e-01
35 41 5.22517018488791951e-01
36 41 5.13466896905276915e-01
37 41 5.05020116760662940e-01
38 41 4.97176678054949972e-01
39 41 4.89936580788137732e-01
40 41 4.83299824960226887e-01
41 41 4.77266410571216826e-01
42 41 4.71836337621107826e-01
43 41 4.67009606109899833e-01
44 41 4.62786216037592901e-01
45 41 4.59166167404186809e-01
46 41 4.56149460209681668e-01
47 41 4.53736094454077810e-01
48 41 4.51926070137374736e-01
49 41 4.50719387259572890e-01
50 41 4.50116045820671773e-01
51 41 4.50116045820671773e-01
52 41 4.50719387259572946e-01
53 41 4.51926070137374736e-01
54 41 4.53736094454077810e-01
55 41 4.56149460209681890e-01
56 41 4.59166167404186809e-01
57 41 4.62786216037592901e-01
58 41 4.67009606109899833e-01
59 41 4.71836337621107826e-01
60 41 4.77266410571216881e-01
61 41 4.83299824960226887e-01
62 41 4.89936580788137732e-01
63 41 4.97176678054949972e-01
64 41 5.05020116760662829e-01
65 41 5.13466896905276804e-01
66 41 5.22517018488791840e-01
67 41 5.27343750000000000e-01
68 41 5.22517018488791951e-01
69 41 5.13466896905276915e-01
70 41 5.05020116760662940e-01
71 41 4.97176678054949972e-01
72 41 4.89936580788137732e-01
73 41 4.83299824960226887e-01
74 41 4.77266410571216826e-01
75 41 4.71836337621107826e-01
76 41 4.67009606109899833e-01
77 41 4.62786216037592901e-01
78 41 4.59166167404186809e-01
79 41 4.56149460209681668e-01
80 41 4.53736094454077810e-01
81 41 4.51926070137374736e-01
82 41 4.50719387259572890e-01
83 41 4.50116045820671773e-01
84 41 4.50116045820671773e-01
85 41 4.50719387259572946e-01
86 41 4.51926070137374736e-01
87 41 4.53736094454077810e-01
88 41 4.56149460209681890e-01
89 41 4.59166167404186809e-01
90 41 4.62786216037592901e-01
91 41 4.67009606109899833e-01
92 41 4.71836337621107826e-01
93 41 4.77266410571216881e-01
94 41 4.83299824960226887e-01
95 41 4.89936580788137732e-01
96 41 4.97176678054949972e-01
97 41 5.05020116760662829e-01
98 41 5.13466896905276804e-01
99 41 5.22517018488791840e-01
100 41 5.27343750000000000e-01
101 41 5.22517018488791951e-01
102 41 5.13466896905276915e-01
103 41 5.05020116760662940e-01
104 41 4.97176678054949972e-01
105 41 4.89936580788137732e-01
106 41 4.83299824960226887e-01
107 41 4.77266410571216826e-01
108 41 4.71836337621107826e-01
109 41 4.67009606109899833e-01
110 41 4.62786216037592901e-01
111 41 4.59166167404186809e-01
112 41 4.56149460209681668e-01
113 41 4.53736094454077810e-01
114 41 4.51926070137374736e-01
115 41 4.50719387259572890e-01
116 41 4.50116045820671773e-01
117 41 4.50116045820671773e-01
118 41 4.50719387259572946e-01
119 41 4.51926070137374736e-01
120 41 4.53736094454077810e-01
121 41 4.56149460209681890e-01
122 41 4.59166167404186809e-01
123 41 4.62786216037592901e-01
124 41 4.67009606109899833e-01
125 41 4.71836337621107826e-01
126 41 4.77266410571216881e-01
127 41 4.83299824960226887e-01
128 41 4.89936580788137732e-01
129 41 4.97176678054949972e-01
130 41 5.05020116760662829e-01
131 41 5.13466896905276804e-01
132 41 5.22517018488791840e-01
133 41 5.27343750000000000e-01
1 42 5.35156250000000000e-01
2 42 5.30258011355292602e-01
3 42 5.21073813896466231e-01
4 42 5.12501896268228396e-01
5 42 5.04542258470578875e-01
6 42 4.97194900503517556e-01
7 42 4.90459822367045051e-01
8 42 4.84337024061160804e-01
9 42 4.78826505585865037e-01
10 42 4.73928266941157639e-01
11 42 4.69642308127038721e-01
12 42 4.65968629143508117e-01
13 42 4.62907229990565883e-01
14 42 4.60458110668212295e-01
15 42 4.58621271176446910e-01
16 42 4.57396711515270282e-01
17 42 4.56784431684681747e-01
18 42 4.56784431684681747e-01
19 42 4.57396711515270393e-01
20 42 4.58621271176446910e-01
21 42 4.60458110668212295e-01
22 42 4.62907229990566049e-01
23 42 4.65968629143508117e-01
24 42 4.69642308127038721e-01
25 42 4.73928266941157639e-01
26 42 4.78826505585865037e-01
27 42 4.84337024061160859e-01
28 42 4.90459822367045051e-01
29 42 4.97194900503517556e-01
30 42 5.04542258470578875e-01
31 42 5.12501896268228174e-01
32 42 5.21073813896466120e-01
33 42 5.30258011355292491e-01
34 42 5.35156250000000000e-01
35 42 5.30258011355292602e-01
36 42 5.21073813896466231e-01
37 42 5.12501896268228396e-01
38 42 5.04542258470578875e-01
39 42 4.97194900503517556e-01
40 42 4.90459822367045051e-01
41 42 4.84337024061160804e-01
42 42 4.78826505585865037e-01
43 42 4.73928266941157639e-01
44 42 4.69642308127038721e-01
45 42 4.65968629143508117e-01
46 42 4.62907229990565883e-01
47 42 4.60458110668212295e-01
48 42 4.58621271176446910e-01
49 42 4.57396711515270282e-01
50 42 4.56784431684681747e-01
51 42 4.56784431684681747e-01
52 42 4.57396711515270393e-01
53 42 4.58621271176446910e-01
54 42 4.60458110668212295e-01
55 42 4.62907229990566049e-01
56 42 4.65968629143508117e-01
57 42 4.69642308127038721e-01
58 42 4.73928266941157639e-01
59 42 4.78826505585865037e-01
60 42 4.84337024061160859e-01
61 42 4.90459822367045051e-01
62 42 4.97194900503517556e-01
63 42 5.04542258470578875e-01
64 42 5.12501896268228174e-01
65 42 5.21073813896466120e-01
66 42 5.30258011355292491e-01
67 42 5.35156250000000000e-01
68 42 5.30258011355292602e-01
69 42 5.21073813896466231e-01
70 42 5.12501896268228396e-01
71 42 5.04542258470578875e-01
72 42 4.97194900503517556e-01
73 42 4.90459822367045051e-01
74 42 4.84337024061160804e-01
75 42 4.78826505585865037e-01
76 42 4.73928266941157639e-01
77 42 4.69642308127038721e-01
78 42 4.65968629143508117e-01
79 42 4.62907229990565883e-01
80 42 4.60458110668212295e-01
81 42 4.58621271176446910e-01
82 42 4.57396711515270282e-01
83 42 4.56784431684681747e-01
84 42 4.56784431684681747e-01
85 42 4.57396711515270393e-01
86 42 4.58621271176446910e-01
87 42 4.60458110668212295e-01
88 42 4.62907229990566049e-01
89 42 4.65968629143508117e-01
90 42 4.69642308127038721e-01
91 42 4.73928266941157639e-01
92 42 4.78826505585865037e-01
93 42 4.84337024061160859e-01
94 42 4.90459822367045051e-01
95 42 4.97194900503517556e-01
96 42 5.04542258470578875e-01
97 42 5.12501896268228174e-01
98 42 5.21073813896466120e-01
99 42 5.30258011355292491e-01
100 42 5.35156250000000000e-01
101 42 5.30258011355292602e-01
102 42 5.21073813896466231e-01
103 42 5.12501896268228396e-01
104 42 5.04542258470578875e-01
105 42 4.97194900503517556e-01
106 42 4.90459822367045051e-01
107 42 4.84337024061160804e-01
108 42 4.78826505585865037e-01
109 42 4.73928266941157639e-01
110 42 4.69642308127038721e-01
111 42 4.65968629143508117e-01
112 42 4.62907229990565883e-01
113 42 4.60458110668212295e-01
114 42 4.58621271176446910e-01
115 42 4.57396711515270282e-01
116 42 4.56784431684681747e-01
117 42 4.56784431684681747e-01
118 42 4.57396711515270393e-01
119 42 4.58621271176446910e-01
120 42 4.60458110668212295e-01
121 42 4.62907229990566049e-01
122 42 4.65968629143508117e-01
123 42 4.69642308127038721e-01
124 42 4.73928266941157639e-01
125 42 4.78826505585865037e-01
126 42 4.84337024061160859e-01
127 42 4.90459822367045051e-01
128 42 4.97194900503517556e-01
129 42 5.04542258470578875e-01
130 42 5.12501896268228174e-01
131 42 5.21073813896466120e-01
132 42 5.30258011355292491e-01
133 42 5.35156250000000000e-01
1 43 5.43945312500000000e-01
2 43 5.38966628330105779e-01
3 43 5.29631595511554143e-01
4 43 5.20918898214239423e-01
5 43 5.12828536438161398e-01
6 43 5.05360510183319844e-01
7 43 4.98514819449715485e-01
8 43 4.92291464237347764e-01
9 43 4.86690444546216794e-01
10 43 4.81711760376322573e-01
11 43 4.77355411727665269e-01
12 43 4.73621398600244548e-01
13 43 4.70509720994060521e-01
14 43 4.68020378909113521e-01
15 43 4.66153372345403161e-01
16 43 4.64908701302929772e-01
17 43 4.64286365781692911e-01
18 43 4.64286365781692911e-01
19 43 4.64908701302929939e-01
20 43 4.66153372345403161e-01
21 43 4.68020378909113521e-01
22 43 4.70509720994060743e-01
23 43 4.73621398600244548e-01
24 43 4.77355411727665269e-01
25 43 4.81711760376322573e-01
26 43 4.86690444546216794e-01
27 43 4.92291464237347764e-01
28 43 4.98514819449715485e-01
29 43 5.05360510183319844e-01
30 43 5.12828536438161398e-01
31 43 5.20918898214239201e-01
32 43 5.29631595511554143e-01
33 43 5.38966628330105668e-01
34 43 5.43945312500000000e-01
35 43 5.38966628330105779e-01
36 43 5.29631595511554143e-01
37 43 5.20918898214239423e-01
38 43 5.12828536438161398e-01
39 43 5.05360510183319844e-01
40 43 4.98514819449715485e-01
41 43 4.92291464237347764e-01
42 43 4.86690444546216794e-01
43 43 4.81711760376322573e-01
44 43 4.77355411727665269e-01
45 43 4.73621398600244548e-01
46 43 4.70509720994060521e-01
47 43 4.68020378909113521e-01
48 43 4.66153372345403161e-01
49 43 4.64908701302929772e-01
50 43 4.64286365781692911e-01
51 43 4.64286365781692911e-01
52 43 4.64908701302929939e-01
53 43 4.66153372345403161e-01
54 43 4.68020378909113521e-01
55 43 4.70509720994060743e-01
56 43 4.73621398600244548e-01
57 43 4.77355411727665269e-01
58 43 4.81711760376322573e-01
59 43 4.86690444546216794e-01
60 43 4.92291464237347764e-01
61 43 4.98514819449715485e-01
62 43 5.05360510183319844e-01
63 43 5.12828536438161398e-01
64 43 5.20918898214239201e-01
65 43 5.29631595511554143e-01
66 43 5.38966628330105668e-01
67 43 5.43945312500000000e-01
68 43 5.38966628330105779e-01
69 43 5.29631595511554143e-01
70 43 5.20918898214239423e-01
71 43 5.12828536438161398e-01
72 43 5.05360510183319844e-01
73 43 4.98514819449715485e-01
74 43 4.92291464237347764e-01
75 43 4.86690444546216794e-01
76 43 4.81711760376322573e-01
77 43 4.77355411727665269e-01
78 43 4.73621398600244548e-01
79 43 4.70509720994060521e-01
80 43 4.68020378909113521e-01
81 43 4.66153372345403161e-01
82 43 4.64908701302929772e-01
83 43 4.64286365781692911e-01
84 43 4.64286365781692911e-01
85 43 4.64908701302929939e-01
86 43 4.66153372345403161e-01
87 43 4.68020378909113521e-01
88 43 4.70509720994060743e-01
89 43 4.73621398600244548e-01
90 43 4.77355411727665269e-01
91 43 4.81711760376322573e-01
92 43 4.86690444546216794e-01
93 43 4.92291464237347764e-01
94 43 4.98514819449715485e-01
95 43 5.05360510183319844e-01
96 43 5.12828536438161398e-01
97 43 5.20918898214239201e-01
98 43 5.29631595511554143e-01
99 43 5.38966628330105668e-01
100 43 5.43945312500000000e-01
101 43 5.38966628330105779e-01
102 43 5.29631595511554143e-01
103 43 5.20918898214239423e-01
104 43 5.12828536438161398e-01
105 43 5.05360510183319844e-01
106 43 4.98514819449715485e-01
107 43 4.92291464237347764e-01
108 43 4.86690444546216794e-01
109 43 4.81711760376322573e-01
110 43 4.77355411727665269e-01
111 43 4.73621398600244548e-01
112 43 4.70509720994060521e-01
113 43 4.68020378909113521e-01
114 43 4.66153372345403161e-01
115 43 4.64908701302929772e-01
116 43 4.64286365781692911e-01
117 43 4.64286365781692911e-01
118 43 4.64908701302929939e-01
119 43 4.66153372345403161e-01
120 43 4.68020378909113521e-01
121 43 4.70509720994060743e-01
122 43 4.73621398600244548e-01
123 43 4.77355411727665269e-01
124 43 4.81711760376322573e-01
125 43 4.86690444546216794e-01
126 43 4.92291464237347764e-01
127 43 4.98514819449715485e-01
128 43 5.05360510183319844e-01
129 43 5.12828536438161398e-01
130 43 5.20918898214239201e-01
131 43 5.29631595511554143e-01
132 43 5.38966628330105668e-01
133 43 5.43945312500000000e-01
1 44 5.53710937500000000e-01
2 44 5.48642869413231593e-01
3 44 5.39140241750540872e-01
4 44 5.30271122598696132e-01
5 44 5.22035511957697596e-01
6 44 5.14433409827544708e-01
7 44 5.07464816208238245e-01
8 44 5.01129731099777764e-01
9 44 4.95428154502163265e-01
10 44 4.90360086415394858e-01
11 44 4.85925526839472599e-01
12 44 4.82124475774396211e-01
13 44 4.78956933220165804e-01
14 44 4.76422899176781711e-01
15 44 4.74522373644243489e-01
16 44 4.73255356622551526e-01
17 44 4.72621848111705378e-01
18 44 4.72621848111705378e-01
19 44 4.73255356622551693e-01
20 44 4.74522373644243489e-01
21 44 4.76422899176781711e-01
22 44 4.78956933220165970e-01
23 44 4.82124475774396211e-01
24 44 4.85925526839472599e-01
25 44 4.90360086415394858e-01
26 44 4.95428154502163265e-01
27 44 5.01129731099777764e-01
28 44 5.07464816208238245e-01
29 44 5.14433409827544708e-01
30 44 5.22035511957697596e-01
31 44 5.30271122598695910e-01
32 44 5.39140241750540872e-01
33 44 5.48642869413231482e-01
34 44 5.53710937500000000e-01
35 44 5.48642869413231593e-01
36 44 5.39140241750540872e-01
37 44 5.30271122598696132e-01
38 44 5.22035511957697596e-01
39 44 5.14433409827544708e-01
40 44 5.07464816208238245e-01
41 44 5.01129731099777764e-01
42 44 4.95428154502163265e-01
43 44 4.90360086415394858e-01
44 44 4.85925526839472599e-01
45 44 4.82124475774396211e-01
46 44 4.78956933220165804e-01
47 44 4.76422899176781711e-01
48 44 4.74522373644243489e-01
49 44 4.73255356622551526e-01
50 44 4.72621848111705378e-01
51 44 4.72621848111705378e-01
52 44 4.73255356622551693e-01
53 44 4.74522373644243489e-01
54 44 4.76422899176781711e-01
55 44 4.78956933220165970e-01
56 44 4.82124475774396211e-01
57 44 4.85925526839472599e-01
58 44 4.90360086415394858e-01
59 44 4.95428154502163265e-01
60 44 5.01129731099777764e-01
61 44 5.07464816208238245e-01
62 44 5.14433409827544708e-01
63 44 5.22035511957697596e-01
64 44 5.30271122598695910e-01
65 44 5.39140241750540872e-01
66 44 5.48642869413231482e-01
67 44 5.53710937500000000e-01
68 44 5.48642869413231593e-01
69 44 5.39140241750540872e-01
70 44 5.30271122598696132e-01
71 44 5.22035511957697596e-01
72 44 5.14433409827544708e-01
73 44 5.07464816208238245e-01
74 44 5.01129731099777764e-01
75 44 4.95428154502163265e-01
76 44 4.90360086415394858e-01
77 44 4.85925526839472599e-01
78 44 4.82124475774396211e-01
79 44 4.78956933220165804e-01
80 44 4.76422899176781711e-01
81 44 4.74522373644243489e-01
82 44 4.73255356622551526e-01
83 44 4.72621848111705378e-01
84 44 4.72621848111705378e-01
85 44 4.73255356622551693e-01
86 44 4.74522373644243489e-01
87 44 4.76422899176781711e-01
88 44 4.78956933220165970e-01
89 44 4.82124475774396211e-01
90 44 4.85925526839472599e-01
91 44 4.90360086415394858e-01
92 44 4.95428154502163265e-01
93 44 5.01129731099777764e-01
94 44 5.07464816208238245e-01
95 44 5.14433409827544708e-01
96 44 5.22035511957697596e-01
97 44 5.30271122598695910e-01
98 44 5.39140241750540872e-01
99 44 5.48642869413231482e-01
100 44 5.53710937500000000e-01
101 44 5.48642869413231593e-01
102 44 5.39140241750540872e-01
103 44 5.30271122598696132e-01
104 44 5.22035511957697596e-01
105 44 5.14433409827544708e-01
106 44 5.07464816208238245e-01
107 44 5.01129731099777764e-01
108 44 4.95428154502163265e-01
109 44 4.90360086415394858e-01
110 44 4.85925526839472599e-01
111 44 4.82124475774396211e-01
112 44 4.78956933220165804e-01
113 44 4.76422899176781711e-01
114 44 4.74522373644243489e-01
115 44 4.73255356622551526e-01
116 44 4.72621848111705378e-01
117 44 4.72621848111705378e-01
118 44 4.73255356622551693e-01
119 44 4.74522373644243489e-01
120 44 4.76422899176781711e-01
121 44 4.78956933220165970e-01
122 44 4.82124475774396211e-01
123 44 4.85925526839472599e-01
124 44 4.90360086415394858e-01
125 44 4.95428154502163265e-01
126 44 5.01129731099777764e-01
127 44 5.07464816208238245e-01
128 44 5.14433409827544708e-01
129 44 5.22035511957697596e-01
130 44 5.30271122598695910e-01
131 44 5.39140241750540872e-01
132 44 5.48642869413231482e-01
133 44 5.53710937500000000e-01
1 45 5.64453125000000000e-01
2 45 5.59286734604669933e-01
3 45 5.49599752613426085e-01
4 45 5.40558569421598523e-01
5 45 5.32163185029187358e-01
6 45 5.24413599436191924e-01
7 45 5.17309812642613220e-01
8 45 5.10851824648450692e-01
9 45 5.05039635453704339e-01
10 45 4.99873245058374271e-01
11 45 4.95352653462460601e-01
12 45 4.91477860665962940e-01
13 45 4.88248866668881565e-01
14 45 4.85665671471216642e-01
15 45 4.83728275072967784e-01
16 45 4.82436677474135434e-01
17 45 4.81790878674719036e-01
18 45 4.81790878674719036e-01
19 45 4.82436677474135545e-01
20 45 4.83728275072967784e-01
21 45 4.85665671471216642e-01
22 45 4.88248866668881676e-01
23 45 4.91477860665962940e-01
24 45 4.95352653462460601e-01
25 45 4.99873245058374271e-01
26 45 5.05039635453704339e-01
27 45 5.10851824648450692e-01
28 45 5.17309812642613220e-01
29 45 5.24413599436191924e-01
30 45 5.32163185029187358e-01
31 45 5.40558569421598301e-01
32 45 5.49599752613426085e-01
33 45 5.59286734604669822e-01
34 45 5.64453125000000000e-01
35 45 5.59286734604669933e-01
36 45 5.49599752613426085e-01
37 45 5.40558569421598523e-01
38 45 5.32163185029187358e-01
39 45 5.24413599436191924e-01
40 45 5.17309812642613220e-01
41 45 5.10851824648450692e-01
42 45 5.05039635453704339e-01
43 45 4.99873245058374271e-01
44 45 4.95352653462460601e-01
45 45 4.91477860665962940e-01
46 45 4.88248866668881565e-01
47 45 4.85665671471216642e-01
48 45 4.83728275072967784e-01
49 45 4.82436677474135434e-01
50 45 4.81790878674719036e-01
51 45 4.81790878674719036e-01
52 45 4.82436677474135545e-01
53 45 4.83728275072967784e-01
54 45 4.85665671471216642e-01
55 45 4.88248866668881676e-01
56 45 4.91477860665962940e-01
57 45 4.95352653462460601e-01
58 45 4.99873245058374271e-01
59 45 5.05039635453704339e-01
60 45 5.10851824648450692e-01
61 45 5.17309812642613220e-01
62 45 5.24413599436191924e-01
63 45 5.32163185029187358e-01
64 45 5.40558569421598301e-01
65 45 5.49599752613426085e-01
66 45 5.59286734604669822e-01
67 45 5.64453125000000000e-01
68 45 5.59286734604669933e-01
69 45 5.49599752613426085e-01
70 45 5.40558569421598523e-01
71 45 5.32163185029187358e-01
72 45 5.24413599436191924e-01
73 45 5.17309812642613220e-01
74 45 5.10851824648450692e-01
75 45 5.05039635453704339e-01
76 45 4.99873245058374271e-01
77 45 4.95352653462460601e-01
78 45 4.91477860665962940e-01
79 45 4.88248866668881565e-01
80 45 4.85665671471216642e-01
81 45 4.83728275072967784e-01
82 45 4.82436677474135434e-01
83 45 4.81790878674719036e-01
84 45 4.81790878674719036e-01
85 45 4.82436677474135545e-01
86 45 4.83728275072967784e-01
87 45 4.85665671471216642e-01
88 45 4.88248866668881676e-01
89 45 4.91477860665962940e-01
90 45 4.95352653462460601e-01
91 45 4.99873245058374271e-01
92 45 5.05039635453704339e-01
93 45 5.10851824648450692e-01
94 45 5.17309812642613220e-01
95 45 5.24413599436191924e-01
96 45 5.32163185029187358e-01
97 45 5.40558569421598301e-01
98 45 5.49599752613426085e-01
99 45 5.59286734604669822e-01
100 45 5.64453125000000000e-01
101 45 5.59286734604669933e-01
102 45 5.49599752613426085e-01
103 45 5.40558569421598523e-01
104 45 5.32163185029187358e-01
105 45 5.24413599436191924e-01
106 45 5.17309812642613220e-01
107 45 5.10851824648450692e-01
108 45 5.05039635453704339e-01
109 45 4.99873245058374271e-01
110 45 4.95352653462460601e-01
111 45 4.91477860665962940e-01
112 45 4.88248866668881565e-01
113 45 4.85665671471216642e-01
114 45 4.83728275072967784e-01
115 45 4.82436677474135434e-01
116 45 4.81790878674719036e-01
117 45 4.81790878674719036e-01
118 45 4.82436677474135545e-01
119 45 4.83728275072967784e-01
120 45 4.85665671471216642e-01
121 45 4.88248866668881676e-01
122 45 4.91477860665962940e-01
123 45 4.95352653462460601e-01
124 45 4.99873245058374271e-01
125 45 5.05039635453704339e-01
126 45 5.10851824648450692e-01
127 45 5.17309812642613220e-01
128 45 5.24413599436191924e-01
129 45 5.32163185029187358e-01
130 45 5.40558569421598301e-01
131 45 5.49599752613426085e-01
132 45 5.59286734604669822e-01
133 45 5.64453125000000000e-01
1 46 5.76171875000000000e-01
2 46 5.70898223904420909e-01
3 46 5.61010128100210004e-01
4 46 5.51781238682946595e-01
5 46 5.43211555652630684e-01
6 46 5.35301079009261604e-01
7 46 5.28049808752840466e-01
8 46 5.21457744883366603e-01
9 46 5.15524887400840126e-01
10 46 5.10251236305260925e-01
11 46 5.05636791596629331e-01
12 46 5.01681553274944902e-01
13 46 4.98385521340207804e-01
14 46 4.95748695792418426e-01
15 46 4.93771076631576156e-01
16 46 4.92452663857681494e-01
17 46 4.91793457470733997e-01
18 46 4.91793457470733997e-01
19 46 4.92452663857681661e-01
20 46 4.93771076631576156e-01
21 46 4.95748695792418426e-01
22 46 4.98385521340207971e-01
23 46 5.01681553274944902e-01
24 46 5.05636791596629331e-01
25 46 5.10251236305260925e-01
26 46 5.15524887400840126e-01
27 46 5.21457744883366603e-01
28 46 5.28049808752840577e-01
29 46 5.35301079009261604e-01
30 46 5.43211555652630684e-01
31 46 5.51781238682946373e-01
32 46 5.61010128100210004e-01
33 46 5.70898223904420798e-01
34 46 5.76171875000000000e-01
35 46 5.70898223904420909e-01
36 46 5.61010128100210004e-01
37 46 5.51781238682946595e-01
38 46 5.43211555652630684e-01
39 46 5.35301079009261604e-01
40 46 5.28049808752840466e-01
41 46 5.21457744883366603e-01
42 46 5.15524887400840126e-01
43 46 5.10251236305260925e-01
44 46 5.05636791596629331e-01
45 46 5.01681553274944902e-01
46 46 4.98385521340207804e-01
47 46 4.95748695792418426e-01
48 46 4.93771076631576156e-01
49 46 4.92452663857681494e-01
50 46 4.91793457470733997e-01
51 46 4.91793457470733997e-01
52 46 4.92452663857681661e-01
53 46 4.93771076631576156e-01
54 46 4.95748695792418426e-01
55 46 4.98385521340207971e-01
56 46 5.01681553274944902e-01
57 46 5.05636791596629331e-01
58 46 5.10251236305260925e-01
59 46 5.15524887400840126e-01
60 46 5.21457744883366603e-01
61 46 5.28049808752840577e-01
62 46 5.35301079009261604e-01
63 46 5.43211555652630684e-01
64 46 5.51781238682946373e-01
65 46 5.61010128100210004e-01
66 46 5.70898223904420798e-01
67 46 5.76171875000000000e-01
68 46 5.70898223904420909e-01
69 46 5.61010128100210004e-01
70 46 5.51781238682946595e-01
71 46 5.43211555652630684e-01
72 46 5.35301079009261604e-01
73 46 5.28049808752840466e-01
74 46 5.21457744883366603e-01
75 46 5.15524887400840126e-01
76 46 5.10251236305260925e-01
77 46 5.05636791596629331e-01
78 46 5.01681553274944902e-01
79 46 4.98385521340207804e-01
80 46 4.95748695792418426e-01
81 46 4.93771076631576156e-01
82 46 4.92452663857681494e-01
83 46 4.91793457470733997e-01
84 46 4.91793457470733997e-01
85 46 4.92452663857681661e-01
86 46 4.93771076631576156e-01
87 46 4.95748695792418426e-01
88 46 4.98385521340207971e-01
89 46 5.01681553274944902e-01
90 46 5.05636791596629331e-01
91 46 5.10251236305260925e-01
92 46 5.15524887400840126e-01
93 46 5.21457744883366603e-01
94 46 5.28049808752840577e-01
95 46 5.35301079009261604e-01
96 46 5.43211555652630684e-01
97 46 5.51781238682946373e-01
98 46 5.61010128100210004e-01
99 46 5.70898223904420798e-01
100 46 5.76171875000000000e-01
101 46 5.70898223904420909e-01
102 46 5.61010128100210004e-01
103 46 5.51781238682946595e-01
104 46 5.43211555652630684e-01
105 46 5.35301079009261604e-01
106 46 5.28049808752840466e-01
107 46 5.21457744883366603e-01
108 46 5.15524887400840126e-01
109 46 5.10251236305260925e-01
110 46 5.05636791596629331e-01
111 46 5.01681553274944902e-01
112 46 4.98385521340207804e-01
113 46 4.95748695792418426e-01
114 46 4.93771076631576156e-01
115 46 4.92452663857681494e-01
116 46 4.91793457470733997e-01
117 46 4.91793457470733997e-01
118 46 4.92452663857681661e-01
119 46 4.93771076631576156e-01
120 46 4.95748695792418426e-01
121 46 4.98385521340207971e-01
122 46 5.01681553274944902e-01
123 46 5.05636791596629331e-01
124 46 5.10251236305260925e-01
125 46 5.15524887400840126e-01
126 46 5.21457744883366603e-01
127 46 5.28049808752840577e-01
128 46 5.35301079009261604e-01
129 46 5.43211555652630684e-01
130 46 5.51781238682946373e-01
131 46 5.61010128100210004e-01
132 46 5.70898223904420798e-01
133 46 5.76171875000000000e-01
1 47 5.88867187500000000e-01
2 47 5.83477337312484412e-01
3 47 5.73371368210892629e-01
4 47 5.63939130382740239e-01
5 47 5.55180623828027575e-01
6 47 5.47095848546753860e-01
7 47 5.39684804538919982e-01
8 47 5.32947491804525497e-01
9 47 5.26883910343570516e-01
10 47 5.21494060156054817e-01
11 47 5.16777941241978733e-01
12 47 5.12735553601341931e-01
13 47 5.09366897234144522e-01
14 47 5.06671972140386950e-01
15 47 5.04650778320068549e-01
16 47 5.03303315773189763e-01
17 47 5.02629584499750148e-01
18 47 5.02629584499750148e-01
19 47 5.03303315773189874e-01
20 47 5.04650778320068549e-01
21 47 5.06671972140386950e-01
22 47 5.09366897234144744e-01
23 47 5.12735553601341931e-01
24 47 5.16777941241978733e-01
25 47 5.21494060156054817e-01
26 47 5.26883910343570516e-01
27 47 5.32947491804525497e-01
28 47 5.39684804538920093e-01
29 47 5.47095848546753860e-01
30 47 5.55180623828027575e-01
31 47 5.63939130382740128e-01
32 47 5.73371368210892629e-01
33 47 5.83477337312484190e-01
34 47 5.88867187500000000e-01
35 47 5.83477337312484412e-01
36 47 5.73371368210892629e-01
37 47 5.63939130382740239e-01
38 47 5.55180623828027575e-01
39 47 5.47095848546753860e-01
40 47 5.39684804538919982e-01
41 47 5.32947491804525497e-01
42 47 5.26883910343570516e-01
43 47 5.21494060156054817e-01
44 47 5.16777941241978733e-01
45 47 5.12735553601341931e-01
46 47 5.09366897234144522e-01
47 47 5.06671972140386950e-01
48 47 5.04650778320068549e-01
49 47 5.03303315773189763e-01
50 47 5.02629584499750148e-01
51 47 5.02629584499750148e-01
52 47 5.03303315773189874e-01
53 47 5.04650778320068549e-01
54 47 5.06671972140386950e-01
55 47 5.09366897234144744e-01
56 47 5.12735553601341931e-01
57 47 5.16777941241978733e-01
58 47 5.21494060156054817e-01
59 47 5.26883910343570516e-01
60 47 5.32947491804525497e-01
61 47 5.39684804538920093e-01
62 47 5.47095848546753860e-01
63 47 5.55180623828027575e-01
64 47 5.63939130382740128e-01
65 47 5.73371368210892629e-01
66 47 5.83477337312484190e-01
67 47 5.88867187500000000e-01
68 47 5.83477337312484412e-01
69 47 5.73371368210892629e-01
70 47 5.63939130382740239e-01
71 47 5.55180623828027575e-01
72 47 5.47095848546753860e-01
73 47 5.39684804538919982e-01
74 47 5.32947491804525497e-01
75 47 5.26883910343570516e-01
76 47 5.21494060156054817e-01
77 47 5.16777941241978733e-01
78 47 5.12735553601341931e-01
79 47 5.09366897234144522e-01
80 47 5.06671972140386950e-01
81 47 5.04650778320068549e-01
82 47 5.03303315773189763e-01
83 47 5.02629584499750148e-01
84 47 5.02629584499750148e-01
85 47 5.03303315773189874e-01
86 47 5.04650778320068549e-01
87 47 5.06671972140386950e-01
88 47 5.09366897234144744e-01
89 47 5.12735553601341931e-01
90 47 5.16777941241978733e-01
91 47 5.21494060156054817e-01
92 47 5.26883910343570516e-01
93 47 5.32947491804525497e-01
94 47 5.39684804538920093e-01
95 47 5.47095848546753860e-01
96 47 5.55180623828027575e-01
97 47 5.63939130382740128e-01
98 47 5.73371368210892629e-01
99 47 5.83477337312484190e-01
100 47 5.88867187500000000e-01
101 47 5.83477337312484412e-01
102 47 5.73371368210892629e-01
103 47 5.63939130382740239e-01
104 47 5.55180623828027575e-01
105 47 5.47095848546753860e-01
106 47 5.39684804538919982e-01
107 47 5.32947491804525497e-01
108 47 5.26883910343570516e-01
109 47 5.21494060156054817e-01
110 47 5.16777941241978733e-01
111 47 5.12735553601341931e-01
112 47 5.09366897234144522e-01
113 47 5.06671972140386950e-01
114 47 5.04650778320068549e-01
115 47 5.03303315773189763e-01
116 47 5.02629584499750148e-01
117 47 5.02629584499750148e-01
118 47 5.03303315773189874e-01
119 47 5.04650778320068549e-01
120 47 5.06671972140386950e-01
121 47 5.09366897234144744e-01
122 47 5.12735553601341931e-01
123 47 5.16777941241978733e-01
124 47 5.21494060156054817e-01
125 47 5.26883910343570516e-01
126 47 5.32947491804525497e-01
127 47 5.39684804538920093e-01
128 47 5.47095848546753860e-01
129 47 5.55180623828027575e-01
130 47 5.63939130382740128e-01
131 47 5.73371368210892629e-01
132 47 5.83477337312484190e-01
133 47 5.88867187500000000e-01
1 48 6.02539062500000000e-01
2 48 5.97024074828860551e-01
3 48 5.86683472945473961e-01
4 48 5.77032244520979676e-01
5 48 5.68070389555378141e-01
6 48 5.59797908048668580e-01
7 48 5.52214800000851769e-01
8 48 5.45321065411927486e-01
9 48 5.39116704281895620e-01
10 48 5.33601716610755950e-01
11 48 5.28776102398508918e-01
12 48 5.24639861645154193e-01
13 48 5.21192994350691885e-01
14 48 5.18435500515122327e-01
15 48 5.16367380138444965e-01
16 48 5.14988633220660130e-01
17 48 5.14299259761767602e-01
18 48 5.14299259761767602e-01
19 48 5.14988633220660241e-01
20 48 5.16367380138444965e-01
21 48 5.18435500515122327e-01
22 48 5.21192994350691996e-01
23 48 5.24639861645154193e-01
24 48 5.28776102398508918e-01
25 48 5.33601716610755950e-01
26 48 5.39116704281895620e-01
27 48 5.45321065411927486e-01
28 48 5.52214800000851880e-01
29 48 5.59797908048668580e-01
30 48 5.68070389555378141e-01
31 48 5.77032244520979565e-01
32 48 5.86683472945473850e-01
33 48 5.97024074828860329e-01
34 48 6.02539062500000000e-01
35 48 5.97024074828860551e-01
36 48 5.86683472945473961e-01
37 48 5.77032244520979676e-01
38 48 5.68070389555378141e-01
39 48 5.59797908048668580e-01
40 48 5.52214800000851769e-01
41 48 5.45321065411927486e-01
42 48 5.39116704281895620e-01
43 48 5.33601716610755950e-01
44 48 5.28776102398508918e-01
45 48 5.24639861645154193e-01
46 48 5.21192994350691885e-01
47 48 5.18435500515122327e-01
48 48 5.16367380138444965e-01
49 48 5.14988633220660130e-01
50 48 5.14299259761767602e-01
51 48 5.14299259761767602e-01
52 48 5.14988633220660241e-01
53 48 5.16367380138444965e-01
54 48 5.18435500515122327e-01
55 48 5.21192994350691996e-01
56 48 5.24639861645154193e-01
57 48 5.28776102398508918e-01
58 48 5.33601716610755950e-01
59 48 5.39116704281895620e-01
60 48 5.45321065411927486e-01
61 48 5.52214800000851880e-01
62 48 5.59797908048668580e-01
63 48 5.68070389555378141e-01
64 48 5.77032244520979565e-01
65 48 5.86683472945473850e-01
66 48 5.97024074828860329e-01
67 48 6.02539062500000000e-01
68 48 5.97024074828860551e-01
69 48 5.86683472945473961e-01
70 48 5.77032244520979676e-01
71 48 5.68070389555378141e-01
72 48 5.59797908048668580e-01
73 48 5.52214800000851769e-01
74 48 5.45321065411927486e-01
75 48 5.39116704281895620e-01
76 48 5.33601716610755950e-01
77 48 5.28776102398508918e-01
78 48 5.24639861645154193e-01
79 48 5.21192994350691885e-01
80 48 5.18435500515122327e-01
81 48 5.16367380138444965e-01
82 48 5.14988633220660130e-01
83 48 5.14299259761767602e-01
84 48 5.14299259761767602e-01
85 48 5.14988633220660241e-01
86 48 5.16367380138444965e-01
87 48 5.18435500515122327e-01
88 48 5.21192994350691996e-01
89 48 5.24639861645154193e-01
90 48 5.28776102398508918e-01
91 48 5.33601716610755950e-01
92 48 5.39116704281895620e-01
93 48 5.45321065411927486e-01
94 48 5.52214800000851880e-01
95 48 5.59797908048668580e-01
96 48 5.68070389555378141e-01
97 48 5.77032244520979565e-01
98 48 5.86683472945473850e-01
99 48 5.97024074828860329e-01
100 48 6.02539062500000000e-01
101 48 5.97024074828860551e-01
102 48 5.86683472945473961e-01
103 48 5.77032244520979676e-01
104 48 5.68070389555378141e-01
105 48 5.59797908048668580e-01
106 48 5.52214800000851769e-01
107 48 5.45321065411927486e-01
108 48 5.39116704281895620e-01
109 48 5.33601716610755950e-01
110 48 5.28776102398508918e-01
111 48 5.24639861645154193e-01
112 48 5.21192994350691885e-01
113 48 5.18435500515122327e-01
114 48 5.16367380138444965e-01
115 48 5.14988633220660130e-01
116 48 5.14299259761767602e-01
117 48 5.14299259761767602e-01
118 48 5.14988633220660241e-01
119 48 5.16367380138444965e-01
120 48 5.18435500515122327e-01
121 48 5.21192994350691996e-01
122 48 5.24639861645154193e-01
123 48 5.28776102398508918e-01
124 48 5.33601716610755950e-01
125 48 5.39116704281895620e-01
126 48 5.45321065411927486e-01
127 48 5.52214800000851880e-01
128 48 5.59797908048668580e-01
129 48 5.68070389555378141e-01
130 48 5.77032244520979565e-01
131 48 5.86683472945473850e-01
132 48 5.97024074828860329e-01
133 48 6.02539062500000000e-01
1 49 6.17187500000000000e-01
2 49 6.11538436453549217e-01
3 49 6.00946442303953887e-01
4 49 5.91060581097664794e-01
5 49 5.81880852834682272e-01
6 49 5.73407257515005764e-01
7 49 5.65639795138635826e-01
8 49 5.58578465705572458e-01
9 49 5.52223269215815327e-01
10 49 5.46574205669364321e-01
11 49 5.41631275066219775e-01
12 49 5.37394477406381688e-01
13 49 5.33863812689849726e-01
14 49 5.31039280916624556e-01
15 49 5.28920882086705402e-01
16 49 5.27508616200092706e-01
17 49 5.26802483256786358e-01
18 49 5.26802483256786358e-01
19 49 5.27508616200092817e-01
20 49 5.28920882086705402e-01
21 49 5.31039280916624556e-01
22 49 5.33863812689849837e-01
23 49 5.37394477406381688e-01
24 49 5.41631275066219775e-01
25 49 5.46574205669364321e-01
26 49 5.52223269215815327e-01
27 49 5.58578465705572458e-01
28 49 5.65639795138635937e-01
29 49 5.73407257515005764e-01
30 49 5.81880852834682272e-01
31 49 5.91060581097664683e-01
32 49 6.00946442303953776e-01
33 49 6.11538436453548995e-01
34 49 6.17187500000000000e-01
35 49 6.11538436453549217e-01
36 49 6.00946442303953887e-01
37 49 5.91060581097664794e-01
38 49 5.81880852834682272e-01
39 49 5.73407257515005764e-01
40 49 5.65639795138635826e-01
41 49 5.58578465705572458e-01
42 49 5.52223269215815327e-01
43 49 5.46574205669364321e-01
44 49 5.41631275066219775e-01
45 49 5.37394477406381688e-01
46 49 5.33863812689849726e-01
47 49 5.31039280916624556e-01
48 49 5.28920882086705402e-01
49 49 5.27508616200092706e-01
50 49 5.26802483256786358e-01
51 49 5.26802483256786358e-01
52 49 5.27508616200092817e-01
53 49 5.28920882086705402e-01
54 49 5.31039280916624556e-01
55 49 5.33863812689849837e-01
56 49 5.37394477406381688e-01
57 49 5.41631275066219775e-01
58 49 5.46574205669364321e-01
59 49 5.52223269215815327e-01
60 49 5.58578465705572458e-01
61 49 5.65639795138635937e-01
62 49 5.73407257515005764e-01
63 49 5.81880852834682272e-01
64 49 5.91060581097664683e-01
65 49 6.00946442303953776e-01
66 49 6.11538436453548995e-01
67 49 6.17187500000000000e-01
68 49 6.11538436453549217e-01
69 49 6.00946442303953887e-01
70 49 5.91060581097664794e-01
71 49 5.81880852834682272e-01
72 49 5.73407257515005764e-01
73 49 5.65639795138635826e-01
74 49 5.58578465705572458e-01
75 49 5.52223269215815327e-01
76 49 5.46574205669364321e-01
77 49 5.41631275066219775e-01
78 49 5.37394477406381688e-01
79 49 5.33863812689849726e-01
80 49 5.31039280916624556e-01
81 49 5.28920882086705402e-01
82 49 5.27508616200092706e-01
83 49 5.26802483256786358e-01
84 49 5.26802483256786358e-01
85 49 5.27508616200092817e-01
86 49 5.28920882086705402e-01
87 49 5.31039280916624556e-01
88 49 5.33863812689849837e-01
89 49 5.37394477406381688e-01
90 49 5.41631275066219775e-01
91 49 5.46574205669364321e-01
92 49 5.52223269215815327e-01
93 49 5.58578465705572458e-01
94 49 5.65639795138635937e-01
95 49 5.73407257515005764e-01
96 49 5.81880852834682272e-01
97 49 5.91060581097664683e-01
98 49 6.00946442303953776e-01
99 49 6.11538436453548995e-01
100 49 6.17187500000000000e-01
101 49 6.11538436453549217e-01
102 49 6.00946442303953887e-01
103 49 5.91060581097664794e-01
104 49 5.81880852834682272e-01
105 49 5.73407257515005764e-01
106 49 5.65639795138635826e-01
107 49 5.58578465705572458e-01
108 49 5.52223269215815327e-01
109 49 5.46574205669364321e-01
110 49 5.41631275066219775e-01
111 49 5.37394477406381688e-01
112 49 5.33863812689849726e-01
113 49 5.31039280916624556e-01
114 49 5.28920882086705402e-01
115 49 5.27508616200092706e-01
116 49 5.26802483256786358e-01
117 49 5.26802483256786358e-01
118 49 5.27508616200092817e-01
119 49 5.28920882086705402e-01
120 49 5.31039280916624556e-01
121 49 5.33863812689849837e-01
122 49 5.37394477406381688e-01
123 49 5.41631275066219775e-01
124 49 5.46574205669364321e-01
125 49 5.52223269215815327e-01
126 49 5.58578465705572458e-01
127 49 5.65639795138635937e-01
128 49 5.73407257515005764e-01
129 49 5.81880852834682272e-01
130 49 5.91060581097664683e-01
131 49 6.00946442303953776e-01
132 49 6.11538436453548995e-01
133 49 6.17187500000000000e-01
1 50 6.32812500000000000e-01
2 50 6.27020422186550519e-01
3 50 6.16160276286332520e-01
4 50 6.06024140112795484e-01
5 50 5.96612013665940077e-01
6 50 5.87923896945765523e-01
7 50 5.79959789952272153e-01
8 50 5.72719692685460413e-01
9 50 5.66203605145329636e-01
10 50 5.60411527331879822e-01
11 50 5.55343459245111415e-01
12 50 5.50999400885024304e-01
13 50 5.47379352251618045e-01
14 50 5.44483313344893527e-01
15 50 5.42311284164849861e-01
16 50 5.40863264711487490e-01
17 50 5.40139254984806305e-01
18 50 5.40139254984806305e-01
19 50 5.40863264711487601e-01
20 50 5.42311284164849861e-01
21 50 5.44483313344893527e-01
22 50 5.47379352251618267e-01
23 50 5.50999400885024304e-01
24 50 5.55343459245111415e-01
25 50 5.60411527331879822e-01
26 50 5.66203605145329636e-01
27 50 5.72719692685460413e-01
28 50 5.79959789952272264e-01
29 50 5.87923896945765523e-01
30 50 5.96612013665940077e-01
31 50 6.06024140112795373e-01
32 50 6.16160276286332409e-01
33 50 6.27020422186550297e-01
34 50 6.32812500000000000e-01
35 50 6.27020422186550519e-01
36 50 6.16160276286332520e-01
37 50 6.06024140112795484e-01
38 50 5.96612013665940077e-01
39 50 5.87923896945765523e-01
40 50 5.79959789952272153e-01
41 50 5.72719692685460413e-01
42 50 5.66203605145329636e-01
43 50 5.60411527331879822e-01
44 50 5.55343459245111415e-01
45 50 5.50999400885024304e-01
46 50 5.47379352251618045e-01
47 50 5.44483313344893527e-01
48 50 5.42311284164849861e-01
49 50 5.40863264711487490e-01
50 50 5.40139254984806305e-01
51 50 5.40139254984806305e-01
52 50 5.40863264711487601e-01
53 50 5.42311284164849861e-01
54 50 5.44483313344893527e-01
55 50 5.47379352251618267e-01
56 50 5.50999400885024304e-01
57 50 5.55343459245111415e-01
58 50 5.60411527331879822e-01
59 50 5.66203605145329636e-01
60 50 5.72719692685460413e-01
61 50 5.79959789952272264e-01
62 50 5.87923896945765523e-01
63 50 5.96612013665940077e-01
64 50 6.06024140112795373e-01
65 50 6.16160276286332409e-01
66 50 6.27020422186550297e-01
67 50 6.32812500000000000e-01
68 50 6.27020422186550519e-01
69 50 6.16160276286332520e-01
70 50 6.06024140112795484e-01
71 50 5.96612013665940077e-01
72 50 5.87923896945765523e-01
73 50 5.79959789952272153e-01
74 50 5.72719692685460413e-01
75 50 5.66203605145329636e-01
76 50 5.60411527331879822e-01
77 50 5.55343459245111415e-01
78 50 5.50999400885024304e-01
79 50 5.47379352251618045e-01
80 50 5.44483313344893527e-01
81 50 5.42311284164849861e-01
82 50 5.40863264711487490e-01
83 50 5.40139254984806305e-01
84 50 5.40139254984806305e-01
85 50 5.40863264711487601e-01
86 50 5.42311284164849861e-01
87 50 5.44483313344893527e-01
88 50 5.47379352251618267e-01
89 50 5.50999400885024304e-01
90 50 5.55343459245111415e-01
91 50 5.60411527331879822e-01
92 50 5.66203605145329636e-01
93 50 5.72719692685460413e-01
94 50 5.79959789952272264e-01
95 50 5.87923896945765523e-01
96 50 5.96612013665940077e-01
97 50 6.06024140112795373e-01
98 50 6.16160276286332409e-01
99 50 6.27020422186550297e-01
100 50 6.32812500000000000e-01
101 50 6.27020422186550519e-01
102 50 6.16160276286332520e-01
103 50 6.06024140112795484e-01
104 50 5.96612013665940077e-01
105 50 5.87923896945765523e-01
106 50 5.79959789952272153e-01
107 50 5.72719692685460413e-01
108 50 5.66203605145329636e-01
109 50 5.60411527331879822e-01
110 50 5.55343459245111415e-01
111 50 5.50999400885024304e-01
112 50 5.47379352251618045e-01
113 50 5.44483313344893527e-01
114 50 5.42311284164849861e-01
115 50 5.40863264711487490e-01
116 50 5.40139254984806305e-01
117 50 5.40139254984806305e-01
118 50 5.40863264711487601e-01
119 50 5.42311284164849861e-01
120 50 5.44483313344893527e-01
121 50 5.47379352251618267e-01
122 50 5.50999400885024304e-01
123 50 5.55343459245111415e-01
124 50 5.60411527331879822e-01
125 50 5.66203605145329636e-01
126 50 5.72719692685460413e-01
127 50 5.79959789952272264e-01
128 50 5.87923896945765523e-01
129 50 5.96612013665940077e-01
130 50 6.06024140112795373e-01
131 50 6.16160276286332409e-01
132 50 6.27020422186550297e-01
133 50 6.32812500000000000e-01
1 51 6.49414062500000000e-01
2 51 6.43470032027864347e-01
3 51 6.32324974892609748e-01
4 51 6.21922921566371967e-01
5 51 6.12263872049151447e-01
6 51 6.03347826340947746e-01
7 51 5.95174784441760751e-01
8 51 5.87744746351591352e-01
9 51 5.81057712070438659e-01
10 51 5.75113681598302673e-01
11 51 5.69912654935183838e-01
12 51 5.65454632081082043e-01
13 51 5.61739613035996954e-01
14 51 5.58767597799929350e-01
15 51 5.56538586372878341e-01
16 51 5.55052578754844483e-01
17 51 5.54309574945827443e-01
18 51 5.54309574945827443e-01
19 51 5.55052578754844594e-01
20 51 5.56538586372878341e-01
21 51 5.58767597799929350e-01
22 51 5.61739613035997176e-01
23 51 5.65454632081082043e-01
24 51 5.69912654935183838e-01
25 51 5.75113681598302673e-01
26 51 5.81057712070438659e-01
27 51 5.87744746351591352e-01
28 51 5.95174784441760862e-01
29 51 6.03347826340947746e-01
30 51 6.12263872049151447e-01
31 51 6.21922921566371856e-01
32 51 6.32324974892609637e-01
33 51 6.43470032027864125e-01
34 51 6.49414062500000000e-01
35 51 6.43470032027864347e-01
36 51 6.32324974892609748e-01
37 51 6.21922921566371967e-01
38 51 6.12263872049151447e-01
39 51 6.03347826340947746e-01
40 51 5.95174784441760751e-01
41 51 5.87744746351591352e-01
42 51 5.81057712070438659e-01
43 51 5.75113681598302673e-01
44 51 5.69912654935183838e-01
45 51 5.65454632081082043e-01
46 51 5.61739613035996954e-01
47 51 5.58767597799929350e-01
48 51 5.56538586372878341e-01
49 51 5.55052578754844483e-01
50 51 5.54309574945827443e-01
51 51 5.54309574945827443e-01
52 51 5.55052578754844594e-01
53 51 5.56538586372878341e-01
54 51 5.58767597799929350e-01
55 51 5.61739613035997176e-01
56 51 5.65454632081082043e-01
57 51 5.69912654935183838e-01
58 51 5.75113681598302673e-01
59 51 5.81057712070438659e-01
60 51 5.87744746351591352e-01
61 51 5.95174784441760862e-01
62 51 6.03347826340947746e-01
63 51 6.12263872049151447e-01
64 51 6.21922921566371856e-01
65 51 6.32324974892609637e-01
66 51 6.43470032027864125e-01
67 51 6.49414062500000000e-01
68 51 6.43470032027864347e-01
69 51 6.32324974892609748e-01
70 51 6.21922921566371967e-01
71 51 6.12263872049151447e-01
72 51 6.03347826340947746e-01
73 51 5.95174784441760751e-01
74 51 5.87744746351591352e-01
75 51 5.81057712070438659e-01
76 51 5.75113681598302673e-01
77 51 5.69912654935183838e-01
78 51 5.65454632081082043e-01
79 51 5.61739613035996954e-01
80 51 5.58767597799929350e-01
81 51 5.56538586372878341e-01
82 51 5.55052578754844483e-01
83 51 5.54309574945827443e-01
84 51 5.54309574945827443e-01
85 51 5.55052578754844594e-01
86 51 5.56538586372878341e-01
87 51 5.58767597799929350e-01
88 51 5.61739613035997176e-01
89 51 5.65454632081082043e-01
90 51 5.69912654935183838e-01
91 51 5.75113681598302673e-01
92 51 5.81057712070438659e-01
93 51 5.87744746351591352e-01
94 51 5.95174784441760862e-01
95 51 6.03347826340947746e-01
96 51 6.12263872049151447e-01
97 51 6.21922921566371856e-01
98 51 6.32324974892609637e-01
99 51 6.43470032027864125e-01
100 51 6.49414062500000000e-01
101 51 6.43470032027864347e-01
102 51 6.32324974892609748e-01
103 51 6.21922921566371967e-01
104 51 6.12263872049151447e-01
105 51 6.03347826340947746e-01
106 51 5.95174784441760751e-01
107 51 5.87744746351591352e-01
108 51 5.81057712070438659e-01
109 51 5.75113681598302673e-01
110 51 5.69912654935183838e-01
111 51 5.65454632081082043e-01
112 51 5.61739613035996954e-01
113 51 5.58767597799929350e-01
114 51 5.56538586372878341e-01
115 51 5.55052578754844483e-01
116 51 5.54309574945827443e-01
117 51 5.54309574945827443e-01
118 51 5.55052578754844594e-01
119 51 5.56538586372878341e-01
120 51 5.58767597799929350e-01
121 51 5.61739613035997176e-01
122 51 5.65454632081082043e-01
123 51 5.69912654935183838e-01
124 51 5.75113681598302673e-01
125 51 5.81057712070438659e-01
126 51 5.87744746351591352e-01
127 51 5.95174784441760862e-01
128 51 6.03347826340947746e-01
129 51 6.12263872049151447e-01
130 51 6.21922921566371856e-01
131 51 6.32324974892609637e-01
132 51 6.43470032027864125e-01
133 51 6.49414062500000000e-01
1 52 6.66992187500000111e-01
2 52 6.60887265977490812e-01
3 52 6.49440538122785682e-01
4 52 6.38756925458394020e-01
5 52 6.28836427984316382e-01
6 52 6.19679045700552433e-01
7 52 6.11284778607101731e-01
8 52 6.03653626703965274e-01
9 52 5.96785589991142285e-01
10 52 5.90680668468632653e-01
11 52 5.85338862136436933e-01
12 52 5.80760170994554903e-01
13 52 5.76944595042986341e-01
14 52 5.73892134281731914e-01
15 52 5.71602788710790954e-01
16 52 5.70076558330163685e-01
17 52 5.69313443139849884e-01
18 52 5.69313443139849884e-01
19 52 5.70076558330163685e-01
20 52 5.71602788710790954e-01
21 52 5.73892134281731914e-01
22 52 5.76944595042986563e-01
23 52 5.80760170994554903e-01
24 52 5.85338862136436933e-01
25 52 5.90680668468632653e-01
26 52 5.96785589991142285e-01
27 52 6.03653626703965274e-01
28 52 6.11284778607101842e-01
29 52 6.19679045700552433e-01
30 52 6.28836427984316382e-01
31 52 6.38756925458393909e-01
32 52 6.49440538122785571e-01
33 52 6.60887265977490590e-01
34 52 6.66992187500000111e-01
35 52 6.60887265977490812e-01
36 52 6.49440538122785682e-01
37 52 6.38756925458394020e-01
38 52 6.28836427984316382e-01
39 52 6.19679045700552433e-01
40 52 6.11284778607101731e-01
41 52 6.03653626703965274e-01
42 52 5.96785589991142285e-01
43 52 5.90680668468632653e-01
44 52 5.85338862136436933e-01
45 52 5.80760170994554903e-01
46 52 5.76944595042986341e-01
47 52 5.73892134281731914e-01
48 52 5.71602788710790954e-01
49 52 5.70076558330163685e-01
50 52 5.69313443139849884e-01
51 52 5.69313443139849884e-01
52 52 5.70076558330163685e-01
53 52 5.71602788710790954e-01
54 52 5.73892134281731914e-01
55 52 5.76944595042986563e-01
56 52 5.80760170994554903e-01
57 52 5.85338862136436933e-01
58 52 5.90680668468632653e-01
59 52 5.96785589991142285e-01
60 52 6.03653626703965274e-01
61 52 6.11284778607101842e-01
62 52 6.19679045700552433e-01
63 52 6.28836427984316382e-01
64 52 6.38756925458393909e-01
65 52 6.49440538122785571e-01
66 52 6.60887265977490590e-01
67 52 6.66992187500000111e-01
68 52 6.60887265977490812e-01
69 52 6.49440538122785682e-01
70 52 6.38756925458394020e-01
71 52 6.28836427984316382e-01
72 52 6.19679045700552433e-01
73 52 6.11284778607101731e-01
74 52 6.03653626703965274e-01
75 52 5.96785589991142285e-01
76 52 5.90680668468632653e-01
77 52 5.85338862136436933e-01
78 52 5.80760170994554903e-01
79 52 5.76944595042986341e-01
80 52 5.73892134281731914e-01
81 52 5.71602788710790954e-01
82 52 5.70076558330163685e-01
83 52 5.69313443139849884e-01
84 52 5.69313443139849884e-01
85 52 5.70076558330163685e-01
86 52 5.71602788710790954e-01
87 52 5.73892134281731914e-01
88 52 5.76944595042986563e-01
89 52 5.80760170994554903e-01
90 52 5.85338862136436933e-01
91 52 5.90680668468632653e-01
92 52 5.96785589991142285e-01
93 52 6.03653626703965274e-01
94 52 6.11284778607101842e-01
95 52 6.19679045700552433e-01
96 52 6.28836427984316382e-01
97 52 6.38756925458393909e-01
98 52 6.49440538122785571e-01
99 52 6.60887265977490590e-01
100 52 6.66992187500000111e-01
101 52 6.60887265977490812e-01
102 52 6.49440538122785682e-01
103 52 6.38756925458394020e-01
104 52 6.28836427984316382e-01
105 52 6.19679045700552433e-01
106 52 6.11284778607101731e-01
107 52 6.03653626703965274e-01
108 52 5.96785589991142285e-01
109 52 5.90680668468632653e-01
110 52 5.85338862136436933e-01
111 52 5.80760170994554903e-01
112 52 5.76944595042986341e-01
113 52 5.73892134281731914e-01
114 52 5.71602788710790954e-01
115 52 5.70076558330163685e-01
116 52 5.69313443139849884e-01
117 52 5.69313443139849884e-01
118 52 5.70076558330163685e-01
119 52 5.71602788710790954e-01
120 52 5.73892134281731914e-01
121 52 5.76944595042986563e-01
122 52 5.80760170994554903e-01
123 52 5.85338862136436933e-01
124 52 5.90680668468632653e-01
125 52 5.96785589991142285e-01
126 52 6.03653626703965274e-01
127 52 6.11284778607101842e-01
128 52 6.19679045700552433e-01
129 52 6.28836427984316382e-01
130 52 6.38756925458393909e-01
131 52 6.49440538122785571e-01
132 52 6.60887265977490590e-01
133 52 6.66992187500000111e-01
1 53 6.85546875000000000e-01
2 53 6.79272124035429803e-01
3 53 6.67506965976860323e-01
4 53 6.56526151788861756e-01
5 53 6.46329681471434991e-01
6 53 6.36917555024579585e-01
7 53 6.28289772448294870e-01
8 53 6.20446333742582068e-01
9 53 6.13387238907440513e-01
10 53 6.07112487942869872e-01
11 53 6.01622080848870699e-01
12 53 5.96916017625442996e-01
13 53 5.92994298272586318e-01
14 53 5.89856922790301219e-01
15 53 5.87503891178587478e-01
16 53 5.85935203437444874e-01
17 53 5.85150859566873516e-01
18 53 5.85150859566873516e-01
19 53 5.85935203437444874e-01
20 53 5.87503891178587478e-01
21 53 5.89856922790301219e-01
22 53 5.92994298272586540e-01
23 53 5.96916017625442996e-01
24 53 6.01622080848870699e-01
25 53 6.07112487942869872e-01
26 53 6.13387238907440513e-01
27 53 6.20446333742582179e-01
28 53 6.28289772448294981e-01
29 53 6.36917555024579585e-01
30 53 6.46329681471434991e-01
31 53 6.56526151788861756e-01
32 53 6.67506965976860100e-01
33 53 6.79272124035429581e-01
34 53 6.85546875000000000e-01
35 53 6.79272124035429803e-01
36 53 6.67506965976860323e-01
37 53 6.56526151788861756e-01
38 53 6.46329681471434991e-01
39 53 6.36917555024579585e-01
40 53 6.28289772448294870e-01
41 53 6.20446333742582068e-01
42 53 6.13387238907440513e-01
43 53 6.07112487942869872e-01
44 53 6.01622080848870699e-01
45 53 5.96916017625442996e-01
46 53 5.92994298272586318e-01
47 53 5.89856922790301219e-01
48 53 5.87503891178587478e-01
49 53 5.85935203437444874e-01
50 53 5.85150859566873516e-01
51 53 5.85150859566873516e-01
52 53 5.85935203437444874e-01
53 53 5.87503891178587478e-01
54 53 5.89856922790301219e-01
55 53 5.92994298272586540e-01
56 53 5.96916017625442996e-01
57 53 6.01622080848870699e-01
58 53 6.07112487942869872e-01
59 53 6.13387238907440513e-01
60 53 6.20446333742582179e-01
61 53 6.28289772448294981e-01
62 53 6.36917555024579585e-01
63 53 6.46329681471434991e-01
64 53 6.56526151788861756e-01
65 53 6.67506965976860100e-01
66 53 6.79272124035429581e-01
67 53 6.85546875000000000e-01
68 53 6.79272124035429803e-01
69 53 6.67506965976860323e-01
70 53 6.56526151788861756e-01
71 53 6.46329681471434991e-01
72 53 6.36917555024579585e-01
73 53 6.28289772448294870e-01
74 53 6.20446333742582068e-01
75 53 6.13387238907440513e-01
76 53 6.07112487942869872e-01
77 53 6.01622080848870699e-01
78 53 5.96916017625442996e-01
79 53 5.92994298272586318e-01
80 53 5.89856922790301219e-01
81 53 5.87503891178587478e-01
82 53 5.85935203437444874e-01
83 53 5.85150859566873516e-01
84 53 5.85150859566873516e-01
85 53 5.85935203437444874e-01
86 53 5.87503891178587478e-01
87 53 5.89856922790301219e-01
88 53 5.92994298272586540e-01
89 53 5.96916017625442996e-01
90 53 6.01622080848870699e-01
91 53 6.07112487942869872e-01
92 53 6.13387238907440513e-01
93 53 6.20446333742582179e-01
94 53 6.28289772448294981e-01
95 53 6.36917555024579585e-01
96 53 6.46329681471434991e-01
97 53 6.56526151788861756e-01
98 53 6.67506965976860100e-01
99 53 6.79272124035429581e-01
100 53 6.85546875000000000e-01
101 53 6.79272124035429803e-01
102 53 6.67506965976860323e-01
103 53 6.56526151788861756e-01
104 53 6.46329681471434991e-01
105 53 6.36917555024579585e-01
106 53 6.28289772448294870e-01
107 53 6.20446333742582068e-01
108 53 6.13387238907440513e-01
109 53 6.07112487942869872e-01
110 53 6.01622080848870699e-01
111 53 5.96916017625442996e-01
112 53 5.92994298272586318e-01
113 53 5.89856922790301219e-01
114 53 5.87503891178587478e-01
115 53 5.85935203437444874e-01
116 53 5.85150859566873516e-01
117 53 5.85150859566873516e-01
118 53 5.85935203437444874e-01
119 53 5.87503891178587478e-01
120 53 5.89856922790301219e-01
121 53 5.92994298272586540e-01
122 53 5.96916017625442996e-01
123 53 6.01622080848870699e-01
124 53 6.07112487942869872e-01
125 53 6.13387238907440513e-01
126 53 6.20446333742582179e-01
127 53 6.28289772448294981e-01
128 53 6.36917555024579585e-01
129 53 6.46329681471434991e-01
130 53 6.56526151788861756e-01
131 53 6.67506965976860100e-01
132 53 6.79272124035429581e-01
133 53 6.85546875000000000e-01
1 54 7.05078124999999889e-01
2 54 6.98624606201681320e-01
3 54 6.86524258454833558e-01
4 54 6.75230600557775285e-01
5 54 6.64743632510507276e-01
6 54 6.55063354313029089e-01
7 54 6.46189765965340390e-01
8 54 6.38122867467441957e-01
9 54 6.30862658819333344e-01
10 54 6.24409140021014331e-01
11 54 6.18762311072485249e-01
12 54 6.13922171973746211e-01
13 54 6.09888722724796772e-01
14 54 6.06661963325637377e-01
15 54 6.04241893776268024e-01
16 54 6.02628514076688271e-01
17 54 6.01821824226898339e-01
18 54 6.01821824226898339e-01
19 54 6.02628514076688271e-01
20 54 6.04241893776268024e-01
21 54 6.06661963325637377e-01
22 54 6.09888722724796994e-01
23 54 6.13922171973746211e-01
24 54 6.18762311072485249e-01
25 54 6.24409140021014331e-01
26 54 6.30862658819333344e-01
27 54 6.38122867467442068e-01
28 54 6.46189765965340501e-01
29 54 6.55063354313029089e-01
30 54 6.64743632510507276e-01
31 54 6.75230600557775285e-01
32 54 6.86524258454833225e-01
33 54 6.98624606201681209e-01
34 54 7.05078124999999889e-01
35 54 6.98624606201681320e-01
36 54 6.86524258454833558e-01
37 54 6.75230600557775285e-01
38 54 6.64743632510507276e-01
39 54 6.55063354313029089e-01
40 54 6.46189765965340390e-01
41 54 6.38122867467441957e-01
42 54 6.30862658819333344e-01
43 54 6.24409140021014331e-01
44 54 6.18762311072485249e-01
45 54 6.13922171973746211e-01
46 54 6.09888722724796772e-01
47 54 6.06661963325637377e-01
48 54 6.04241893776268024e-01
49 54 6.02628514076688271e-01
50 54 6.01821824226898339e-01
51 54 6.01821824226898339e-01
52 54 6.02628514076688271e-01
53 54 6.04241893776268024e-01
54 54 6.06661963325637377e-01
55 54 6.09888722724796994e-01
56 54 6.13922171973746211e-01
57 54 6.18762311072485249e-01
58 54 6.24409140021014331e-01
59 54 6.30862658819333344e-01
60 54 6.38122867467442068e-01
61 54 6.46189765965340501e-01
62 54 6.55063354313029089e-01
63 54 6.64743632510507276e-01
64 54 6.75230600557775285e-01
65 54 6.86524258454833225e-01
66 54 6.98624606201681209e-01
67 54 7.05078124999999889e-01
68 54 6.98624606201681320e-01
69 54 6.86524258454833558e-01
70 54 6.75230600557775285e-01
71 54 6.64743632510507276e-01
72 54 6.55063354313029089e-01
73 54 6.46189765965340390e-01
74 54 6.38122867467441957e-01
75 54 6.30862658819333344e-01
76 54 6.24409140021014331e-01
77 54 6.18762311072485249e-01
78 54 6.13922171973746211e-01
79 54 6.09888722724796772e-01
80 54 6.06661963325637377e-01
81 54 6.04241893776268024e-01
82 54 6.02628514076688271e-01
83 54 6.01821824226898339e-01
84 54 6.01821824226898339e-01
85 54 6.02628514076688271e-01
86 54 6.04241893776268024e-01
87 54 6.06661963325637377e-01
88 54 6.09888722724796994e-01
89 54 6.13922171973746211e-01
90 54 6.18762311072485249e-01
91 54 6.24409140021014331e-01
92 54 6.30862658819333344e-01
93 54 6.38122867467442068e-01
94 54 6.46189765965340501e-01
95 54 6.55063354313029089e-01
96 54 6.64743632510507276e-01
97 54 6.75230600557775285e-01
98 54 6.86524258454833225e-01
99 54 6.98624606201681209e-01
100 54 7.05078124999999889e-01
101 54 6.98624606201681320e-01
102 54 6.86524258454833558e-01
103 54 6.75230600557775285e-01
104 54 6.64743632510507276e-01
105 54 6.55063354313029089e-01
106 54 6.46189765965340390e-01
107 54 6.38122867467441957e-01
108 54 6.30862658819333344e-01
109 54 6.24409140021014331e-01
110 54 6.18762311072485249e-01
111 54 6.13922171973746211e-01
112 54 6.09888722724796772e-01
113 54 6.06661963325637377e-01
114 54 6.04241893776268024e-01
115 54 6.02628514076688271e-01
116 54 6.01821824226898339e-01
117 54 6.01821824226898339e-01
118 54 6.02628514076688271e-01
119 54 6.04241893776268024e-01
120 54 6.06661963325637377e-01
121 54 6.09888722724796994e-01
122 54 6.13922171973746211e-01
123 54 6.18762311072485249e-01
124 54 6.24409140021014331e-01
125 54 6.30862658819333344e-01
126 54 6.38122867467442068e-01
127 54 6.46189765965340501e-01
128 54 6.55063354313029089e-01
129 54 6.64743632510507276e-01
130 54 6.75230600557775285e-01
131 54 6.86524258454833225e-01
132 54 6.98624606201681209e-01
133 54 7.05078124999999889e-01
1 55 7.25585937500000000e-01
2 55 7.18944712476245473e-01
3 55 7.06492415556705500e-01
4 55 6.94870271765134495e-01
5 55 6.84078281101533126e-01
6 55 6.74116443565901058e-01
7 55 6.64984759158238181e-01
8 55 6.56683227878544828e-01
9 55 6.49211849726820889e-01
10 55 6.42570624703066029e-01
11 55 6.36759552807280582e-01
12 55 6.31778634039464659e-01
13 55 6.27627868399617705e-01
14 55 6.24307255887740498e-01
15 55 6.21816796503832592e-01
16 55 6.20156490247893988e-01
17 55 6.19326337119924464e-01
18 55 6.19326337119924464e-01
19 55 6.20156490247893988e-01
20 55 6.21816796503832592e-01
21 55 6.24307255887740498e-01
22 55 6.27627868399617928e-01
23 55 6.31778634039464659e-01
24 55 6.36759552807280582e-01
25 55 6.42570624703066029e-01
26 55 6.49211849726820889e-01
27 55 6.56683227878544939e-01
28 55 6.64984759158238181e-01
29 55 6.74116443565901058e-01
30 55 6.84078281101533126e-01
31 55 6.94870271765134495e-01
32 55 7.06492415556705167e-01
33 55 7.18944712476245362e-01
34 55 7.25585937500000000e-01
35 55 7.18944712476245473e-01
36 55 7.06492415556705500e-01
37 55 6.94870271765134495e-01
38 55 6.84078281101533126e-01
39 55 6.74116443565901058e-01
40 55 6.64984759158238181e-01
41 55 6.56683227878544828e-01
42 55 6.49211849726820889e-01
43 55 6.42570624703066029e-01
44 55 6.36759552807280582e-01
45 55 6.31778634039464659e-01
46 55 6.27627868399617705e-01
47 55 6.24307255887740498e-01
48 55 6.21816796503832592e-01
49 55 6.20156490247893988e-01
50 55 6.19326337119924464e-01
51 55 6.19326337119924464e-01
52 55 6.20156490247893988e-01
53 55 6.21816796503832592e-01
54 55 6.24307255887740498e-01
55 55 6.27627868399617928e-01
56 55 6.31778634039464659e-01
57 55 6.36759552807280582e-01
58 55 6.42570624703066029e-01
59 55 6.49211849726820889e-01
60 55 6.56683227878544939e-01
61 55 6.64984759158238181e-01
62 55 6.74116443565901058e-01
63 55 6.84078281101533126e-01
64 55 6.94870271765134495e-01
65 55 7.06492415556705167e-01
66 55 7.18944712476245362e-01
67 55 7.25585937500000000e-01
68 55 7.18944712476245473e-01
69 55 7.06492415556705500e-01
70 55 6.94870271765134495e-01
71 55 6.84078281101533126e-01
72 55 6.74116443565901058e-01
73 55 6.64984759158238181e-01
74 55 6.56683227878544828e-01
75 55 6.49211849726820889e-01
76 55 6.42570624703066029e-01
77 55 6.36759552807280582e-01
78 55 6.31778634039464659e-01
79 55 6.27627868399617705e-01
80 55 6.24307255887740498e-01
81 55 6.21816796503832592e-01
82 55 6.20156490247893988e-01
83 55 6.19326337119924464e-01
84 55 6.19326337119924464e-01
85 55 6.20156490247893988e-01
86 55 6.21816796503832592e-01
87 55 6.24307255887740498e-01
88 55 6.27627868399617928e-01
89 55 6.31778634039464659e-01
90 55 6.36759552807280582e-01
91 55 6.42570624703066029e-01
92 55 6.49211849726820889e-01
93 55 6.56683227878544939e-01
94 55 6.64984759158238181e-01
95 55 6.74116443565901058e-01
96 55 6.84078281101533126e-01
97 55 6.94870271765134495e-01
98 55 7.06492415556705167e-01
99 55 7.18944712476245362e-01
100 55 7.25585937500000000e-01
101 55 7.18944712476245473e-01
102 55 7.06492415556705500e-01
103 55 6.94870271765134495e-01
104 55 6.84078281101533126e-01
105 55 6.74116443565901058e-01
106 55 6.64984759158238181e-01
107 55 6.56683227878544828e-01
108 55 6.49211849726820889e-01
109 55 6.42570624703066029e-01
110 55 6.36759552807280582e-01
111 55 6.31778634039464659e-01
112 55 6.27627868399617705e-01
113 55 6.24307255887740498e-01
114 55 6.21816796503832592e-01
115 55 6.20156490247893988e-01
116 55 6.19326337119924464e-01
117 55 6.19326337119924464e-01
118 55 6.20156490247893988e-01
119 55 6.21816796503832592e-01
120 55 6.24307255887740498e-01
121 55 6.27627868399617928e-01
122 55 6.31778634039464659e-01
123 55 6.36759552807280582e-01
124 55 6.42570624703066029e-01
125 55 6.49211849726820889e-01
126 55 6.56683227878544939e-01
127 55 6.64984759158238181e-01
128 55 6.74116443565901058e-01
129 55 6.84078281101533126e-01
130 55 6.94870271765134495e-01
131 55 7.06492415556705167e-01
132 55 7.18944712476245362e-01
133 55 7.25585937500000000e-01
1 56 7.47070312500000000e-01
2 56 7.40232442859122153e-01
3 56 7.27411437282476037e-01
4 56 7.15445165410939277e-01
5 56 7.04333627244512539e-01
6 56 6.94076822783195491e-01
7 56 6.84674752026988132e-01
8 56 6.76127414975890684e-01
9 56 6.68434811629902925e-01
10 56 6.61596941989024856e-01
11 56 6.55613806053256587e-01
12 56 6.50485403822598118e-01
13 56 6.46211735297049228e-01
14 56 6.42792800476610249e-01
15 56 6.40228599361281181e-01
16 56 6.38519131951061802e-01
17 56 6.37664398245951891e-01
18 56 6.37664398245951891e-01
19 56 6.38519131951061802e-01
20 56 6.40228599361281181e-01
21 56 6.42792800476610249e-01
22 56 6.46211735297049450e-01
23 56 6.50485403822598118e-01
24 56 6.55613806053256587e-01
25 56 6.61596941989024856e-01
26 56 6.68434811629903036e-01
27 56 6.76127414975890795e-01
28 56 6.84674752026988132e-01
29 56 6.94076822783195491e-01
30 56 7.04333627244512539e-01
31 56 7.15445165410939277e-01
32 56 7.27411437282475704e-01
33 56 7.40232442859122042e-01
34 56 7.47070312500000000e-01
35 56 7.40232442859122153e-01
36 56 7.27411437282476037e-01
37 56 7.15445165410939277e-01
38 56 7.04333627244512539e-01
39 56 6.94076822783195491e-01
40 56 6.84674752026988132e-01
41 56 6.76127414975890684e-01
42 56 6.68434811629902925e-01
43 56 6.61596941989024856e-01
44 56 6.55613806053256587e-01
45 56 6.50485403822598118e-01
46 56 6.46211735297049228e-01
47 56 6.42792800476610249e-01
48 56 6.40228599361281181e-01
49 56 6.38519131951061802e-01
50 56 6.37664398245951891e-01
51 56 6.37664398245951891e-01
52 56 6.38519131951061802e-01
53 56 6.40228599361281181e-01
54 56 6.42792800476610249e-01
55 56 6.46211735297049450e-01
56 56 6.50485403822598118e-01
57 56 6.55613806053256587e-01
58 56 6.61596941989024856e-01
59 56 6.68434811629903036e-01
60 56 6.76127414975890795e-01
61 56 6.84674752026988132e-01
62 56 6.94076822783195491e-01
63 56 7.04333627244512539e-01
64 56 7.15445165410939277e-01
65 56 7.27411437282475704e-01
66 56 7.40232442859122042e-01
67 56 7.47070312500000000e-01
68 56 7.40232442859122153e-01
69 56 7.27411437282476037e-01
70 56 7.15445165410939277e-01
71 56 7.04333627244512539e-01
72 56 6.94076822783195491e-01
73 56 6.84674752026988132e-01
74 56 6.76127414975890684e-01
75 56 6.68434811629902925e-01
76 56 6.61596941989024856e-01
77 56 6.55613806053256587e-01
78 56 6.50485403822598118e-01
79 56 6.46211735297049228e-01
80 56 6.42792800476610249e-01
81 56 6.40228599361281181e-01
82 56 6.38519131951061802e-01
83 56 6.37664398245951891e-01
84 56 6.37664398245951891e-01
85 56 6.38519131951061802e-01
86 56 6.40228599361281181e-01
87 56 6.42792800476610249e-01
88 56 6.46211735297049450e-01
89 56 6.50485403822598118e-01
90 56 6.55613806053256587e-01
91 56 6.61596941989024856e-01
92 56 6.68434811629903036e-01
93 56 6.76127414975890795e-01
94 56 6.84674752026988132e-01
95 56 6.94076822783195491e-01
96 56 7.04333627244512539e-01
97 56 7.15445165410939277e-01
98 56 7.27411437282475704e-01
99 56 7.40232442859122042e-01
100 56 7.47070312500000000e-01
101 56 7.40232442859122153e-01
102 56 7.27411437282476037e-01
103 56 7.15445165410939277e-01
104 56 7.04333627244512539e-01
105 56 6.94076822783195491e-01
106 56 6.84674752026988132e-01
107 56 6.76127414975890684e-01
108 56 6.68434811629902925e-01
109 56 6.61596941989024856e-01
110 56 6.55613806053256587e-01
111 56 6.50485403822598118e-01
112 56 6.46211735297049228e-01
113 56 6.42792800476610249e-01
114 56 6.40228599361281181e-01
115 56 6.38519131951061802e-01
116 56 6.37664398245951891e-01
117 56 6.37664398245951891e-01
118 56 6.38519131951061802e-01
119 56 6.40228599361281181e-01
120 56 6.42792800476610249e-01
121 56 6.46211735297049450e-01
122 56 6.50485403822598118e-01
123 56 6.55613806053256587e-01
124 56 6.61596941989024856e-01
125 56 6.68434811629903036e-01
126 56 6.76127414975890795e-01
127 56 6.84674752026988132e-01
128 56 6.94076822783195491e-01
129 56 7.04333627244512539e-01
130 56 7.15445165410939277e-01
131 56 7.27411437282475704e-01
132 56 7.40232442859122042e-01
133 56 7.47070312500000000e-01
1 57 7.69531250000000111e-01
2 57 7.62487797350311580e-01
3 57 7.49281323632145280e-01
4 57 7.36955281495189851e-01
5 57 7.25509670939445628e-01
6 57 7.14944491964912499e-01
7 57 7.05259744571590463e-01
8 57 6.96455428759479633e-01
9 57 6.88531544528579675e-01
10 57 6.81488091878890923e-01
11 57 6.75325070810413375e-01
12 57 6.70042481323146810e-01
13 57 6.65640323417091340e-01
14 57 6.62118597092246963e-01
15 57 6.59477302348613792e-01
16 57 6.57716439186191826e-01
17 57 6.56836007604980621e-01
18 57 6.56836007604980621e-01
19 57 6.57716439186191826e-01
20 57 6.59477302348613792e-01
21 57 6.62118597092246963e-01
22 57 6.65640323417091562e-01
23 57 6.70042481323146810e-01
24 57 6.75325070810413375e-01
25 57 6.81488091878890923e-01
26 57 6.88531544528579897e-01
27 57 6.96455428759479744e-01
28 57 7.05259744571590463e-01
29 57 7.14944491964912499e-01
30 57 7.25509670939445628e-01
31 57 7.36955281495189851e-01
32 57 7.49281323632144947e-01
33 57 7.62487797350311358e-01
34 57 7.69531250000000111e-01
35 57 7.62487797350311580e-01
36 57 7.49281323632145280e-01
37 57 7.36955281495189851e-01
38 57 7.25509670939445628e-01
39 57 7.14944491964912499e-01
40 57 7.05259744571590463e-01
41 57 6.96455428759479633e-01
42 57 6.88531544528579675e-01
43 57 6.81488091878890923e-01
44 57 6.75325070810413375e-01
45 57 6.70042481323146810e-01
46 57 6.65640323417091340e-01
47 57 6.62118597092246963e-01
48 57 6.59477302348613792e-01
49 57 6.57716439186191826e-01
50 57 6.56836007604980621e-01
51 57 6.56836007604980621e-01
52 57 6.57716439186191826e-01
53 57 6.59477302348613792e-01
54 57 6.62118597092246963e-01
55 57 6.65640323417091562e-01
56 57 6.70042481323146810e-01
57 57 6.75325070810413375e-01
58 57 6.81488091878890923e-01
59 57 6.88531544528579897e-01
60 57 6.96455428759479744e-01
61 57 7.05259744571590463e-01
62 57 7.14944491964912499e-01
63 57 7.25509670939445628e-01
64 57 7.36955281495189851e-01
65 57 7.49281323632144947e-01
66 57 7.62487797350311358e-01
67 57 7.69531250000000111e-01
68 57 7.62487797350311580e-01
69 57 7.49281323632145280e-01
70 57 7.36955281495189851e-01
71 57 7.25509670939445628e-01
72 57 7.14944491964912499e-01
73 57 7.05259744571590463e-01
74 57 6.96455428759479633e-01
75 57 6.88531544528579675e-01
76 57 6.81488091878890923e-01
77 57 6.75325070810413375e-01
78 57 6.70042481323146810e-01
79 57 6.65640323417091340e-01
80 57 6.62118597092246963e-01
81 57 6.59477302348613792e-01
82 57 6.57716439186191826e-01
83 57 6.56836007604980621e-01
84 57 6.56836007604980621e-01
85 57 6.57716439186191826e-01
86 57 6.59477302348613792e-01
87 57 6.62118597092246963e-01
88 57 6.65640323417091562e-01
89 57 6.70042481323146810e-01
90 57 6.75325070810413375e-01
91 57 6.81488091878890923e-01
92 57 6.88531544528579897e-01
93 57 6.96455428759479744e-01
94 57 7.05259744571590463e-01
95 57 7.14944491964912499e-01
96 57 7.25509670939445628e-01
97 57 7.36955281495189851e-01
98 57 7.49281323632144947e-01
99 57 7.62487797350311358e-01
100 57 7.69531250000000111e-01
101 57 7.62487797350311580e-01
102 57 7.49281323632145280e-01
103 57 7.36955281495189851e-01
104 57 7.25509670939445628e-01
105 57 7.14944491964912499e-01
106 57 7.05259744571590463e-01
107 57 6.96455428759479633e-01
108 57 6.88531544528579675e-01
109 57 6.81488091878890923e-01
110 57 6.75325070810413375e-01
111 57 6.70042481323146810e-01
112 57 6.65640323417091340e-01
113 57 6.62118597092246963e-01
114 57 6.59477302348613792e-01
115 57 6.57716439186191826e-01
116 57 6.56836007604980621e-01
117 57 6.56836007604980621e-01
118 57 6.57716439186191826e-01
119 57 6.59477302348613792e-01
120 57 6.62118597092246963e-01
121 57 6.65640323417091562e-01
122 57 6.70042481323146810e-01
123 57 6.75325070810413375e-01
124 57 6.81488091878890923e-01
125 57 6.88531544528579897e-01
126 57 6.96455428759479744e-01
127 57 7.05259744571590463e-01
128 57 7.14944491964912499e-01
129 57 7.25509670939445628e-01
130 57 7.36955281495189851e-01
131 57 7.49281323632144947e-01
132 57 7.62487797350311358e-01
133 57 7.69531250000000111e-01
1 58 7.92968750000000000e-01
2 58 7.85710775949813423e-01
3 58 7.72102074605713118e-01
4 58 7.59400620017885997e-01
5 58 7.47606412186332281e-01
6 58 7.36719451111051860e-01
7 58 7.26739736792045066e-01
8 58 7.17667269229311455e-01
9 58 7.09502048422851139e-01
10 58 7.02244074372664229e-01
11 58 6.95893347078750835e-01
12 58 6.90449866541110735e-01
13 58 6.85913632759743819e-01
14 58 6.82284645734650419e-01
15 58 6.79562905465830425e-01
16 58 6.77748411953283836e-01
17 58 6.76841165197010541e-01
18 58 6.76841165197010541e-01
19 58 6.77748411953283947e-01
20 58 6.79562905465830425e-01
21 58 6.82284645734650419e-01
22 58 6.85913632759744041e-01
23 58 6.90449866541110735e-01
24 58 6.95893347078750835e-01
25 58 7.02244074372664229e-01
26 58 7.09502048422851361e-01
27 58 7.17667269229311566e-01
28 58 7.26739736792045066e-01
29 58 7.36719451111051860e-01
30 58 7.47606412186332281e-01
31 58 7.59400620017885997e-01
32 58 7.72102074605712785e-01
33 58 7.85710775949813200e-01
34 58 7.92968750000000000e-01
35 58 7.85710775949813423e-01
36 58 7.72102074605713118e-01
37 58 7.59400620017885997e-01
38 58 7.47606412186332281e-01
39 58 7.36719451111051860e-01
40 58 7.26739736792045066e-01
41 58 7.17667269229311455e-01
42 58 7.09502048422851139e-01
43 58 7.02244074372664229e-01
44 58 6.95893347078750835e-01
45 58 6.90449866541110735e-01
46 58 6.85913632759743819e-01
47 58 6.82284645734650419e-01
48 58 6.79562905465830425e-01
49 58 6.77748411953283836e-01
50 58 6.76841165197010541e-01
51 58 6.76841165197010541e-01
52 58 6.77748411953283947e-01
53 58 6.79562905465830425e-01
54 58 6.82284645734650419e-01
55 58 6.85913632759744041e-01
56 58 6.90449866541110735e-01
57 58 6.95893347078750835e-01
58 58 7.02244074372664229e-01
59 58 7.09502048422851361e-01
60 58 7.17667269229311566e-01
61 58 7.26739736792045066e-01
62 58 7.36719451111051860e-01
63 58 7.47606412186332281e-01
64 58 7.59400620017885997e-01
65 58 7.72102074605712785e-01
66 58 7.85710775949813200e-01
67 58 7.92968750000000000e-01
68 58 7.85710775949813423e-01
69 58 7.72102074605713118e-01
70 58 7.59400620017885997e-01
71 58 7.47606412186332281e-01
72 58 7.36719451111051860e-01
73 58 7.26739736792045066e-01
74 58 7.17667269229311455e-01
75 58 7.09502048422851139e-01
76 58 7.02244074372664229e-01
77 58 6.95893347078750835e-01
78 58 6.90449866541110735e-01
79 58 6.85913632759743819e-01
80 58 6.82284645734650419e-01
81 58 6.79562905465830425e-01
82 58 6.77748411953283836e-01
83 58 6.76841165197010541e-01
84 58 6.76841165197010541e-01
85 58 6.77748411953283947e-01
86 58 6.79562905465830425e-01
87 58 6.82284645734650419e-01
88 58 6.85913632759744041e-01
89 58 6.90449866541110735e-01
90 58 6.95893347078750835e-01
91 58 7.02244074372664229e-01
92 58 7.09502048422851361e-01
93 58 7.17667269229311566e-01
94 58 7.26739736792045066e-01
95 58 7.36719451111051860e-01
96 58 7.47606412186332281e-01
97 58 7.59400620017885997e-01
98 58 7.72102074605712785e-01
99 58 7.85710775949813200e-01
100 58 7.92968750000000000e-01
101 58 7.85710775949813423e-01
102 58 7.72102074605713118e-01
103 58 7.59400620017885997e-01
104 58 7.47606412186332281e-01
105 58 7.36719451111051860e-01
106 58 7.26739736792045066e-01
107 58 7.17667269229311455e-01
108 58 7.09502048422851139e-01
109 58 7.02244074372664229e-01
110 58 6.95893347078750835e-01
111 58 6.90449866541110735e-01
112 58 6.85913632759743819e-01
113 58 6.82284645734650419e-01
114 58 6.79562905465830425e-01
115 58 6.77748411953283836e-01
116 58 6.76841165197010541e-01
117 58 6.76841165197010541e-01
118 58 6.77748411953283947e-01
119 58 6.79562905465830425e-01
120 58 6.82284645734650419e-01
121 58 6.85913632759744041e-01
122 58 6.90449866541110735e-01
123 58 6.95893347078750835e-01
124 58 7.02244074372664229e-01
125 58 7.09502048422851361e-01
126 58 7.17667269229311566e-01
127 58 7.26739736792045066e-01
128 58 7.36719451111051860e-01
129 58 7.47606412186332281e-01
130 58 7.59400620017885997e-01
131 58 7.72102074605712785e-01
132 58 7.85710775949813200e-01
133 58 7.92968750000000000e-01
1 59 8.17382812500000000e-01
2 59 8.09901378657627791e-01
3 59 7.95873690203179551e-01
4 59 7.82781180979027824e-01
5 59 7.70623850985172498e-01
6 59 7.59401700221613796e-01
7 59 7.49114728688351827e-01
8 59 7.39762936385386261e-01
9 59 7.31346323312717317e-01
10 59 7.23864889470344774e-01
11 59 7.17318634858268966e-01
12 59 7.11707559476489782e-01
13 59 7.07031663325006887e-01
14 59 7.03290946403820616e-01
15 59 7.00485408712931079e-01
16 59 6.98615050252338055e-01
17 59 6.97679871022041542e-01
18 59 6.97679871022041542e-01
19 59 6.98615050252338166e-01
20 59 7.00485408712931079e-01
21 59 7.03290946403820616e-01
22 59 7.07031663325007109e-01
23 59 7.11707559476489782e-01
24 59 7.17318634858268966e-01
25 59 7.23864889470344774e-01
26 59 7.31346323312717428e-01
27 59 7.39762936385386372e-01
28 59 7.49114728688351827e-01
29 59 7.59401700221613796e-01
30 59 7.70623850985172498e-01
31 59 7.82781180979027824e-01
32 59 7.95873690203179329e-01
33 59 8.09901378657627569e-01
34 59 8.17382812500000000e-01
35 59 8.09901378657627791e-01
36 59 7.95873690203179551e-01
37 59 7.82781180979027824e-01
38 59 7.70623850985172498e-01
39 59 7.59401700221613796e-01
40 59 7.49114728688351827e-01
41 59 7.39762936385386261e-01
42 59 7.31346323312717317e-01
43 59 7.23864889470344774e-01
44 59 7.17318634858268966e-01
45 59 7.11707559476489782e-01
46 59 7.07031663325006887e-01
47 59 7.03290946403820616e-01
48 59 7.00485408712931079e-01
49 59 6.98615050252338055e-01
50 59 6.97679871022041542e-01
51 59 6.97679871022041542e-01
52 59 6.98615050252338166e-01
53 59 7.00485408712931079e-01
54 59 7.03290946403820616e-01
55 59 7.07031663325007109e-01
56 59 7.11707559476489782e-01
57 59 7.17318634858268966e-01
58 59 7.23864889470344774e-01
59 59 7.31346323312717428e-01
60 59 7.39762936385386372e-01
61 59 7.49114728688351827e-01
62 59 7.59401700221613796e-01
63 59 7.70623850985172498e-01
64 59 7.82781180979027824e-01
65 59 7.95873690203179329e-01
66 59 8.09901378657627569e-01
67 59 8.17382812500000000e-01
68 59 8.09901378657627791e-01
69 59 7.95873690203179551e-01
70 59 7.82781180979027824e-01
71 59 7.70623850985172498e-01
72 59 7.59401700221613796e-01
73 59 7.49114728688351827e-01
74 59 7.39762936385386261e-01
75 59 7.31346323312717317e-01
76 59 7.23864889470344774e-01
77 59 7.17318634858268966e-01
78 59 7.11707559476489782e-01
79 59 7.07031663325006887e-01
80 59 7.03290946403820616e-01
81 59 7.00485408712931079e-01
82 59 6.98615050252338055e-01
83 59 6.97679871022041542e-01
84 59 6.97679871022041542e-01
85 59 6.98615050252338166e-01
86 59 7.00485408712931079e-01
87 59 7.03290946403820616e-01
88 59 7.07031663325007109e-01
89 59 7.11707559476489782e-01
90 59 7.17318634858268966e-01
91 59 7.23864889470344774e-01
92 59 7.31346323312717428e-01
93 59 7.39762936385386372e-01
94 59 7.49114728688351827e-01
95 59 7.59401700221613796e-01
96 59 7.70623850985172498e-01
97 59 7.82781180979027824e-01
98 59 7.95873690203179329e-01
99 59 8.09901378657627569e-01
100 59 8.17382812500000000e-01
101 59 8.09901378657627791e-01
102 59 7.95873690203179551e-01
103 59 7.82781180979027824e-01
104 59 7.70623850985172498e-01
105 59 7.59401700221613796e-01
106 59 7.49114728688351827e-01
107 59 7.39762936385386261e-01
108 59 7.31346323312717317e-01
109 59 7.23864889470344774e-01
110 59 7.17318634858268966e-01
111 59 7.11707559476489782e-01
112 59 7.07031663325006887e-01
113 59 7.03290946403820616e-01
114 59 7.00485408712931079e-01
115 59 6.98615050252338055e-01
116 59 6.97679871022041542e-01
117 59 6.97679871022041542e-01
118 59 6.98615050252338166e-01
119 59 7.00485408712931079e-01
120 59 7.03290946403820616e-01
121 59 7.07031663325007109e-01
122 59 7.11707559476489782e-01
123 59 7.17318634858268966e-01
124 59 7.23864889470344774e-01
125 59 7.31346323312717428e-01
126 59 7.39762936385386372e-01
127 59 7.49114728688351827e-01
128 59 7.59401700221613796e-01
129 59 7.70623850985172498e-01
130 59 7.82781180979027824e-01
131 59 7.95873690203179329e-01
132 59 8.09901378657627569e-01
133 59 8.17382812500000000e-01
1 60 8.42773437499999889e-01
2 60 8.35059605473754796e-01
3 60 8.20596170424544802e-01
4 60 8.07096964378615334e-01
5 60 7.94561987335966391e-01
6 60 7.82991239296598307e-01
7 60 7.72384720260510860e-01
8 60 7.62742430227704160e-01
9 60 7.54064369198177986e-01
10 60 7.46350537171932449e-01
11 60 7.39600934148967881e-01
12 60 7.33815560129283950e-01
13 60 7.28994415112880545e-01
14 60 7.25137499099757665e-01
15 60 7.22244812089915755e-01
16 60 7.20316354083354482e-01
17 60 7.19352125080073956e-01
18 60 7.19352125080073956e-01
19 60 7.20316354083354593e-01
20 60 7.22244812089915755e-01
21 60 7.25137499099757665e-01
22 60 7.28994415112880656e-01
23 60 7.33815560129283950e-01
24 60 7.39600934148967881e-01
25 60 7.46350537171932449e-01
26 60 7.54064369198178097e-01
27 60 7.62742430227704160e-01
28 60 7.72384720260510860e-01
29 60 7.82991239296598307e-01
30 60 7.94561987335966391e-01
31 60 8.07096964378615334e-01
32 60 8.20596170424544580e-01
33 60 8.35059605473754574e-01
34 60 8.42773437499999889e-01
35 60 8.35059605473754796e-01
36 60 8.20596170424544802e-01
37 60 8.07096964378615334e-01
38 60 7.94561987335966391e-01
39 60 7.82991239296598307e-01
40 60 7.72384720260510860e-01
41 60 7.62742430227704160e-01
42 60 7.54064369198177986e-01
43 60 7.46350537171932449e-01
44 60 7.39600934148967881e-01
45 60 7.33815560129283950e-01
46 60 7.28994415112880545e-01
47 60 7.25137499099757665e-01
48 60 7.22244812089915755e-01
49 60 7.20316354083354482e-01
50 60 7.19352125080073956e-01
51 60 7.19352125080073956e-01
52 60 7.20316354083354593e-01
53 60 7.22244812089915755e-01
54 60 7.25137499099757665e-01
55 60 7.28994415112880656e-01
56 60 7.33815560129283950e-01
57 60 7.39600934148967881e-01
58 60 7.46350537171932449e-01
59 60 7.54064369198178097e-01
60 60 7.62742430227704160e-01
61 60 7.72384720260510860e-01
62 60 7.82991239296598307e-01
63 60 7.94561987335966391e-01
64 60 8.07096964378615334e-01
65 60 8.20596170424544580e-01
66 60 8.35059605473754574e-01
67 60 8.42773437499999889e-01
68 60 8.35059605473754796e-01
69 60 8.20596170424544802e-01
70 60 8.07096964378615334e-01
71 60 7.94561987335966391e-01
72 60 7.82991239296598307e-01
73 60 7.72384720260510860e-01
74 60 7.62742430227704160e-01
75 60 7.54064369198177986e-01
76 60 7.46350537171932449e-01
77 60 7.39600934148967881e-01
78 60 7.33815560129283950e-01
79 60 7.28994415112880545e-01
80 60 7.25137499099757665e-01
81 60 7.22244812089915755e-01
82 60 7.20316354083354482e-01
83 60 7.19352125080073956e-01
84 60 7.19352125080073956e-01
85 60 7.20316354083354593e-01
86 60 7.22244812089915755e-01
87 60 7.25137499099757665e-01
88 60 7.28994415112880656e-01
89 60 7.33815560129283950e-01
90 60 7.39600934148967881e-01
91 60 7.46350537171932449e-01
92 60 7.54064369198178097e-01
93 60 7.62742430227704160e-01
94 60 7.72384720260510860e-01
95 60 7.82991239296598307e-01
96 60 7.94561987335966391e-01
97 60 8.07096964378615334e-01
98 60 8.20596170424544580e-01
99 60 8.35059605473754574e-01
100 60 8.42773437499999889e-01
101 60 8.35059605473754796e-01
102 60 8.20596170424544802e-01
103 60 8.07096964378615334e-01
104 60 7.94561987335966391e-01
105 60 7.82991239296598307e-01
106 60 7.72384720260510860e-01
107 60 7.62742430227704160e-01
108 60 7.54064369198177986e-01
109 60 7.46350537171932449e-01
110 60 7.39600934148967881e-01
111 60 7.33815560129283950e-01
112 60 7.28994415112880545e-01
113 60 7.25137499099757665e-01
114 60 7.22244812089915755e-01
115 60 7.20316354083354482e-01
116 60 7.19352125080073956e-01
117 60 7.19352125080073956e-01
118 60 7.20316354083354593e-01
119 60 7.22244812089915755e-01
120 60 7.25137499099757665e-01
121 60 7.28994415112880656e-01
122 60 7.33815560129283950e-01
123 60 7.39600934148967881e-01
124 60 7.46350537171932449e-01
125 60 7.54064369198178097e-01
126 60 7.62742430227704160e-01
127 60 7.72384720260510860e-01
128 60 7.82991239296598307e-01
129 60 7.94561987335966391e-01
130 60 8.07096964378615334e-01
131 60 8.20596170424544580e-01
132 60 8.35059605473754574e-01
133 60 8.42773437499999889e-01
1 61 8.69140624999999889e-01
2 61 8.61185456398194327e-01
3 61 8.46269515269808648e-01
4 61 8.32347970216648414e-01
5 61 8.19420821238713848e-01
6 61 8.07488068336005171e-01
7 61 7.96549711508522162e-01
8 61 7.86605750756264932e-01
9 61 7.77656186079233369e-01
10 61 7.69701017477427474e-01
11 61 7.62740244950847468e-01
12 61 7.56773868499493352e-01
13 61 7.51801888123364570e-01
14 61 7.47824303822461567e-01
15 61 7.44841115596784564e-01
16 61 7.42852323446333118e-01
17 61 7.41857927371107562e-01
18 61 7.41857927371107562e-01
19 61 7.42852323446333229e-01
20 61 7.44841115596784564e-01
21 61 7.47824303822461567e-01
22 61 7.51801888123364681e-01
23 61 7.56773868499493352e-01
24 61 7.62740244950847468e-01
25 61 7.69701017477427474e-01
26 61 7.77656186079233480e-01
27 61 7.86605750756264932e-01
28 61 7.96549711508522162e-01
29 61 8.07488068336005171e-01
30 61 8.19420821238713848e-01
31 61 8.32347970216648414e-01
32 61 8.46269515269808426e-01
33 61 8.61185456398194105e-01
34 61 8.69140624999999889e-01
35 61 8.61185456398194327e-01
36 61 8.46269515269808648e-01
37 61 8.32347970216648414e-01
38 61 8.19420821238713848e-01
39 61 8.07488068336005171e-01
40 61 7.96549711508522162e-01
41 61 7.86605750756264932e-01
42 61 7.77656186079233369e-01
43 61 7.69701017477427474e-01
44 61 7.62740244950847468e-01
45 61 7.56773868499493352e-01
46 61 7.51801888123364570e-01
47 61 7.47824303822461567e-01
48 61 7.44841115596784564e-01
49 61 7.42852323446333118e-01
50 61 7.41857927371107562e-01
51 61 7.41857927371107562e-01
52 61 7.42852323446333229e-01
53 61 7.44841115596784564e-01
54 61 7.47824303822461567e-01
55 61 7.51801888123364681e-01
56 61 7.56773868499493352e-01
57 61 7.62740244950847468e-01
58 61 7.69701017477427474e-01
59 61 7.77656186079233480e-01
60 61 7.86605750756264932e-01
61 61 7.96549711508522162e-01
62 61 8.07488068336005171e-01
63 61 8.19420821238713848e-01
64 61 8.32347970216648414e-01
65 61 8.46269515269808426e-01
66 61 8.61185456398194105e-01
67 61 8.69140624999999889e-01
68 61 8.61185456398194327e-01
69 61 8.46269515269808648e-01
70 61 8.32347970216648414e-01
71 61 8.19420821238713848e-01
72 61 8.07488068336005171e-01
73 61 7.96549711508522162e-01
74 61 7.86605750756264932e-01
75 61 7.77656186079233369e-01
76 61 7.69701017477427474e-01
77 61 7.62740244950847468e-01
78 61 7.56773868499493352e-01
79 61 7.51801888123364570e-01
80 61 7.47824303822461567e-01
81 61 7.44841115596784564e-01
82 61 7.42852323446333118e-01
83 61 7.41857927371107562e-01
84 61 7.41857927371107562e-01
85 61 7.42852323446333229e-01
86 61 7.44841115596784564e-01
87 61 7.47824303822461567e-01
88 61 7.51801888123364681e-01
89 61 7.56773868499493352e-01
90 61 7.62740244950847468e-01
91 61 7.69701017477427474e-01
92 61 7.77656186079233480e-01
93 61 7.86605750756264932e-01
94 61 7.96549711508522162e-01
95 61 8.07488068336005171e-01
96 61 8.19420821238713848e-01
97 61 8.32347970216648414e-01
98 61 8.46269515269808426e-01
99 61 8.61185456398194105e-01
100 61 8.69140624999999889e-01
101 61 8.61185456398194327e-01
102 61 8.46269515269808648e-01
103 61 8.32347970216648414e-01
104 61 8.19420821238713848e-01
105 61 8.07488068336005171e-01
106 61 7.96549711508522162e-01
107 61 7.86605750756264932e-01
108 61 7.77656186079233369e-01
109 61 7.69701017477427474e-01
110 61 7.62740244950847468e-01
111 61 7.56773868499493352e-01
112 61 7.51801888123364570e-01
113 61 7.47824303822461567e-01
114 61 7.44841115596784564e-01
115 61 7.42852323446333118e-01
116 61 7.41857927371107562e-01
117 61 7.41857927371107562e-01
118 61 7.42852323446333229e-01
119 61 7.44841115596784564e-01
120 61 7.47824303822461567e-01
121 61 7.51801888123364681e-01
122 61 7.56773868499493352e-01
123 61 7.62740244950847468e-01
124 61 7.69701017477427474e-01
125 61 7.77656186079233480e-01
126 61 7.86605750756264932e-01
127 61 7.96549711508522162e-01
128 61 8.07488068336005171e-01
129 61 8.19420821238713848e-01
130 61 8.32347970216648414e-01
131 61 8.46269515269808426e-01
132 61 8.61185456398194105e-01
133 61 8.69140624999999889e-01
1 62 8.96484375000000000e-01
2 62 8.88278931430946495e-01
3 62 8.72893724738971200e-01
4 62 8.58534198493127176e-01
5 62 8.45200352693414980e-01
6 62 8.32892187339834500e-01
7 62 8.21609702432385736e-01
8 62 8.11352897971068798e-01
9 62 8.02121773955883466e-01
10 62 7.93916330386829738e-01
11 62 7.86736567263907949e-01
12 62 7.80582484587117875e-01
13 62 7.75454082356459184e-01
14 62 7.71351360571932321e-01
15 62 7.68274319233537395e-01
16 62 7.66222958341273963e-01
17 62 7.65197277895142358e-01
18 62 7.65197277895142358e-01
19 62 7.66222958341274074e-01
20 62 7.68274319233537395e-01
21 62 7.71351360571932321e-01
22 62 7.75454082356459296e-01
23 62 7.80582484587117875e-01
24 62 7.86736567263907949e-01
25 62 7.93916330386829738e-01
26 62 8.02121773955883577e-01
27 62 8.11352897971068798e-01
28 62 8.21609702432385847e-01
29 62 8.32892187339834500e-01
30 62 8.45200352693414980e-01
31 62 8.58534198493127176e-01
32 62 8.72893724738970866e-01
33 62 8.88278931430946272e-01
34 62 8.96484375000000000e-01
35 62 8.88278931430946495e-01
36 62 8.72893724738971200e-01
37 62 8.58534198493127176e-01
38 62 8.45200352693414980e-01
39 62 8.32892187339834500e-01
40 62 8.21609702432385736e-01
41 62 8.11352897971068798e-01
42 62 8.02121773955883466e-01
43 62 7.93916330386829738e-01
44 62 7.86736567263907949e-01
45 62 7.80582484587117875e-01
46 62 7.75454082356459184e-01
47 62 7.71351360571932321e-01
48 62 7.68274319233537395e-01
49 62 7.66222958341273963e-01
50 62 7.65197277895142358e-01
51 62 7.65197277895142358e-01
52 62 7.66222958341274074e-01
53 62 7.68274319233537395e-01
54 62 7.71351360571932321e-01
55 62 7.75454082356459296e-01
56 62 7.80582484587117875e-01
57 62 7.86736567263907949e-01
58 62 7.93916330386829738e-01
59 62 8.02121773955883577e-01
60 62 8.11352897971068798e-01
61 62 8.21609702432385847e-01
62 62 8.32892187339834500e-01
63 62 8.45200352693414980e-01
64 62 8.58534198493127176e-01
65 62 8.72893724738970866e-01
66 62 8.88278931430946272e-01
67 62 8.96484375000000000e-01
68 62 8.88278931430946495e-01
69 62 8.72893724738971200e-01
70 62 8.58534198493127176e-01
71 62 8.45200352693414980e-01
72 62 8.32892187339834500e-01
73 62 8.21609702432385736e-01
74 62 8.11352897971068798e-01
75 62 8.02121773955883466e-01
76 62 7.93916330386829738e-01
77 62 7.86736567263907949e-01
78 62 7.80582484587117875e-01
79 62 7.75454082356459184e-01
80 62 7.71351360571932321e-01
81 62 7.68274319233537395e-01
82 62 7.66222958341273963e-01
83 62 7.65197277895142358e-01
84 62 7.65197277895142358e-01
85 62 7.66222958341274074e-01
86 62 7.68274319233537395e-01
87 62 7.71351360571932321e-01
88 62 7.75454082356459296e-01
89 62 7.80582484587117875e-01
90 62 7.86736567263907949e-01
91 62 7.93916330386829738e-01
92 62 8.02121773955883577e-01
93 62 8.11352897971068798e-01
94 62 8.21609702432385847e-01
95 62 8.32892187339834500e-01
96 62 8.45200352693414980e-01
97 62 8.58534198493127176e-01
98 62 8.72893724738970866e-01
99 62 8.88278931430946272e-01
100 62 8.96484375000000000e-01
101 62 8.88278931430946495e-01
102 62 8.72893724738971200e-01
103 62 8.58534198493127176e-01
104 62 8.45200352693414980e-01
105 62 8.32892187339834500e-01
106 62 8.21609702432385736e-01
107 62 8.11352897971068798e-01
108 62 8.02121773955883466e-01
109 62 7.93916330386829738e-01
110 62 7.86736567263907949e-01
111 62 7.80582484587117875e-01
112 62 7.75454082356459184e-01
113 62 7.71351360571932321e-01
114 62 7.68274319233537395e-01
115 62 7.66222958341273963e-01
116 62 7.65197277895142358e-01
117 62 7.65197277895142358e-01
118 62 7.66222958341274074e-01
119 62 7.68274319233537395e-01
120 62 7.71351360571932321e-01
121 62 7.75454082356459296e-01
122 62 7.80582484587117875e-01
123 62 7.86736567263907949e-01
124 62 7.93916330386829738e-01
125 62 8.02121773955883577e-01
126 62 8.11352897971068798e-01
127 62 8.21609702432385847e-01
128 62 8.32892187339834500e-01
129 62 8.45200352693414980e-01
130 62 8.58534198493127176e-01
131 62 8.72893724738970866e-01
132 62 8.88278931430946272e-01
133 62 8.96484375000000000e-01
1 63 9.24804687500000000e-01
2 63 9.16340030572011299e-01
3 63 9.00468798832032347e-01
4 63 8.85655649208051621e-01
5 63 8.71900581700069677e-01
6 63 8.59203596308086404e-01
7 63 8.47564693032101579e-01
8 63 8.36983871872115537e-01
9 63 8.27461132828128165e-01
10 63 8.18996475900139242e-01
11 63 8.11589901088149102e-01
12 63 8.05241408392157521e-01
13 63 7.99950997812164277e-01
14 63 7.95718669348169816e-01
15 63 7.92544423000174247e-01
16 63 7.90428258768176906e-01
17 63 7.89370176652178346e-01
18 63 7.89370176652178346e-01
19 63 7.90428258768177017e-01
20 63 7.92544423000174247e-01
21 63 7.95718669348169816e-01
22 63 7.99950997812164388e-01
23 63 8.05241408392157521e-01
24 63 8.11589901088149102e-01
25 63 8.18996475900139242e-01
26 63 8.27461132828128276e-01
27 63 8.36983871872115648e-01
28 63 8.47564693032101690e-01
29 63 8.59203596308086404e-01
30 63 8.71900581700069677e-01
31 63 8.85655649208051621e-01
32 63 9.00468798832032014e-01
33 63 9.16340030572011077e-01
34 63 9.24804687500000000e-01
35 63 9.16340030572011299e-01
36 63 9.00468798832032347e-01
37 63 8.85655649208051621e-01
38 63 8.71900581700069677e-01
39 63 8.59203596308086404e-01
40 63 8.47564693032101579e-01
41 63 8.36983871872115537e-01
42 63 8.27461132828128165e-01
43 63 8.18996475900139242e-01
44 63 8.11589901088149102e-01
45 63 8.05241408392157521e-01
46 63 7.99950997812164277e-01
47 63 7.95718669348169816e-01
48 63 7.92544423000174247e-01
49 63 7.90428258768176906e-01
50 63 7.89370176652178346e-01
51 63 7.89370176652178346e-01
52 63 7.90428258768177017e-01
53 63 7.92544423000174247e-01
54 63 7.95718669348169816e-01
55 63 7.99950997812164388e-01
56 63 8.05241408392157521e-01
57 63 8.11589901088149102e-01
58 63 8.18996475900139242e-01
59 63 8.27461132828128276e-01
60 63 8.36983871872115648e-01
61 63 8.47564693032101690e-01
62 63 8.59203596308086404e-01
63 63 8.71900581700069677e-01
64 63 8.85655649208051621e-01
65 63 9.00468798832032014e-01
66 63 9.16340030572011077e-01
67 63 9.24804687500000000e-01
68 63 9.16340030572011299e-01
69 63 9.00468798832032347e-01
70 63 8.85655649208051621e-01
71 63 8.71900581700069677e-01
72 63 8.59203596308086404e-01
73 63 8.47564693032101579e-01
74 63 8.36983871872115537e-01
75 63 8.27461132828128165e-01
76 63 8.18996475900139242e-01
77 63 8.11589901088149102e-01
78 63 8.05241408392157521e-01
79 63 7.99950997812164277e-01
80 63 7.95718669348169816e-01
81 63 7.92544423000174247e-01
82 63 7.90428258768176906e-01
83 63 7.89370176652178346e-01
84 63 7.89370176652178346e-01
85 63 7.90428258768177017e-01
86 63 7.92544423000174247e-01
87 63 7.95718669348169816e-01
88 63 7.99950997812164388e-01
89 63 8.05241408392157521e-01
90 63 8.11589901088149102e-01
91 63 8.18996475900139242e-01
92 63 8.27461132828128276e-01
93 63 8.36983871872115648e-01
94 63 8.47564693032101690e-01
95 63 8.59203596308086404e-01
96 63 8.71900581700069677e-01
97 63 8.85655649208051621e-01
98 63 9.00468798832032014e-01
99 63 9.16340030572011077e-01
100 63 9.24804687500000000e-01
101 63 9.16340030572011299e-01
102 63 9.00468798832032347e-01
103 63 8.85655649208051621e-01
104 63 8.71900581700069677e-01
105 63 8.59203596308086404e-01
106 63 8.47564693032101579e-01
107 63 8.36983871872115537e-01
108 63 8.27461132828128165e-01
109 63 8.18996475900139242e-01
110 63 8.11589901088149102e-01
111 63 8.05241408392157521e-01
112 63 7.99950997812164277e-01
113 63 7.95718669348169816e-01
114 63 7.92544423000174247e-01
115 63 7.90428258768176906e-01
116 63 7.89370176652178346e-01
117 63 7.89370176652178346e-01
118 63 7.90428258768177017e-01
119 63 7.92544423000174247e-01
120 63 7.95718669348169816e-01
121 63 7.99950997812164388e-01
122 63 8.05241408392157521e-01
123 63 8.11589901088149102e-01
124 63 8.18996475900139242e-01
125 63 8.27461132828128276e-01
126 63 8.36983871872115648e-01
127 63 8.47564693032101690e-01
128 63 8.59203596308086404e-01
129 63 8.71900581700069677e-01
130 63 8.85655649208051621e-01
131 63 9.00468798832032014e-01
132 63 9.16340030572011077e-01
133 63 9.24804687500000000e-01
1 64 9.54101562500000000e-01
2 64 9.45368753821388519e-01
3 64 9.28994737548992089e-01
4 64 9.13712322361421747e-01
5 64 8.99521508258677938e-01
6 64 8.86422295240760660e-01
7 64 8.74414683307669693e-01
8 64 8.63498672459405370e-01
9 64 8.53674262695967356e-01
10 64 8.44941454017355875e-01
11 64 8.37300246423570815e-01
12 64 8.30750639914612288e-01
13 64 8.25292634490479848e-01
14 64 8.20926230151174163e-01
15 64 8.17651426896695011e-01
16 64 8.15468224727042057e-01
17 64 8.14376623642215636e-01
18 64 8.14376623642215636e-01
19 64 8.15468224727042168e-01
20 64 8.17651426896695011e-01
21 64 8.20926230151174163e-01
22 64 8.25292634490479959e-01
23 64 8.30750639914612288e-01
24 64 8.37300246423570815e-01
25 64 8.44941454017355875e-01
26 64 8.53674262695967467e-01
27 64 8.63498672459405481e-01
28 64 8.74414683307669804e-01
29 64 8.86422295240760660e-01
30 64 8.99521508258677938e-01
31 64 9.13712322361421747e-01
32 64 9.28994737548991756e-01
33 64 9.45368753821388408e-01
34 64 9.54101562500000000e-01
35 64 9.45368753821388519e-01
36 64 9.28994737548992089e-01
37 64 9.13712322361421747e-01
38 64 8.99521508258677938e-01
39 64 8.86422295240760660e-01
40 64 8.74414683307669693e-01
41 64 8.63498672459405370e-01
42 64 8.53674262695967356e-01
43 64 8.44941454017355875e-01
44 64 8.37300246423570815e-01
45 64 8.30750639914612288e-01
46 64 8.25292634490479848e-01
47 64 8.20926230151174163e-01
48 64 8.17651426896695011e-01
49 64 8.15468224727042057e-01
50 64 8.14376623642215636e-01
51 64 8.14376623642215636e-01
52 64 8.15468224727042168e-01
53 64 8.17651426896695011e-01
54 64 8.20926230151174163e-01
55 64 8.25292634490479959e-01
56 64 8.30750639914612288e-01
57 64 8.37300246423570815e-01
58 64 8.44941454017355875e-01
59 64 8.53674262695967467e-01
60 64 8.63498672459405481e-01
61 64 8.74414683307669804e-01
62 64 8.86422295240760660e-01
63 64 8.99521508258677938e-01
64 64 9.13712322361421747e-01
65 64 9.28994737548991756e-01
66 64 9.45368753821388408e-01
67 64 9.54101562500000000e-01
68 64 9.45368753821388519e-01
69 64 9.28994737548992089e-01
70 64 9.13712322361421747e-01
71 64 8.99521508258677938e-01
72 64 8.86422295240760660e-01
73 64 8.74414683307669693e-01
74 64 8.63498672459405370e-01
75 64 8.53674262695967356e-01
76 64 8.44941454017355875e-01
77 64 8.37300246423570815e-01
78 64 8.30750639914612288e-01
79 64 8.25292634490479848e-01
80 64 8.20926230151174163e-01
81 64 8.17651426896695011e-01
82 64 8.15468224727042057e-01
83 64 8.14376623642215636e-01
84 64 8.14376623642215636e-01
85 64 8.15468224727042168e-01
86 64 8.17651426896695011e-01
87 64 8.20926230151174163e-01
88 64 8.25292634490479959e-01
89 64 8.30750639914612288e-01
90 64 8.37300246423570815e-01
91 64 8.44941454017355875e-01
92 64 8.53674262695967467e-01
93 64 8.63498672459405481e-01
94 64 8.74414683307669804e-01
95 64 8.86422295240760660e-01
96 64 8.99521508258677938e-01
97 64 9.13712322361421747e-01
98 64 9.28994737548991756e-01
99 64 9.45368753821388408e-01
100 64 9.54101562500000000e-01
101 64 9.45368753821388519e-01
102 64 9.28994737548992089e-01
103 64 9.13712322361421747e-01
104 64 8.99521508258677938e-01
105 64 8.86422295240760660e-01
106 64 8.74414683307669693e-01
107 64 8.63498672459405370e-01
108 64 8.53674262695967356e-01
109 64 8.44941454017355875e-01
110 64 8.37300246423570815e-01
111 64 8.30750639914612288e-01
112 64 8.25292634490479848e-01
113 64 8.20926230151174163e-01
114 64 8.17651426896695011e-01
115 64 8.15468224727042057e-01
116 64 8.14376623642215636e-01
117 64 8.14376623642215636e-01
118 64 8.15468224727042168e-01
119 64 8.17651426896695011e-01
120 64 8.20926230151174163e-01
121 64 8.25292634490479959e-01
122 64 8.30750639914612288e-01
123 64 8.37300246423570815e-01
124 64 8.44941454017355875e-01
125 64 8.53674262695967467e-01
126 64 8.63498672459405481e-01
127 64 8.74414683307669804e-01
128 64 8.86422295240760660e-01
129 64 8.99521508258677938e-01
130 64 9.13712322361421747e-01
131 64 9.28994737548991756e-01
132 64 9.45368753821388408e-01
133 64 9.54101562500000000e-01
1 65 9.84375000000000000e-01
2 65 9.75365101179078375e-01
3 65 9.58471540889850537e-01
4 65 9.42704217953237666e-01
5 65 9.28063132369239985e-01
6 65 9.14548284137857492e-01
7 65 9.02159673259090189e-01
8 65 8.90897299732938186e-01
9 65 8.80761163559401372e-01
10 65 8.71751264738479748e-01
11 65 8.63867603270173312e-01
12 65 8.57110179154482288e-01
13 65 8.51478992391406009e-01
14 65 8.46974042980945363e-01
15 65 8.43595330923099795e-01
16 65 8.41342856217869417e-01
17 65 8.40216618865254228e-01
18 65 8.40216618865254228e-01
19 65 8.41342856217869528e-01
20 65 8.43595330923099795e-01
21 65 8.46974042980945363e-01
22 65 8.51478992391406120e-01
23 65 8.57110179154482288e-01
24 65 8.63867603270173423e-01
25 65 8.71751264738479748e-01
26 65 8.80761163559401483e-01
27 65 8.90897299732938297e-01
28 65 9.02159673259090300e-01
29 65 9.14548284137857492e-01
30 65 9.28063132369239985e-01
31 65 9.42704217953237555e-01
32 65 9.58471540889850204e-01
33 65 9.75365101179078264e-01
34 65 9.84375000000000000e-01
35 65 9.75365101179078375e-01
36 65 9.58471540889850537e-01
37 65 9.42704217953237666e-01
38 65 9.28063132369239985e-01
39 65 9.14548284137857492e-01
40 65 9.02159673259090189e-01
41 65 8.90897299732938186e-01
42 65 8.80761163559401372e-01
43 65 8.71751264738479748e-01
44 65 8.63867603270173312e-01
45 65 8.57110179154482288e-01
46 65 8.51478992391406009e-01
47 65 8.46974042980945363e-01
48 65 8.43595330923099795e-01
49 65 8.41342856217869417e-01
50 65 8.40216618865254228e-01
51 65 8.40216618865254228e-01
52 65 8.41342856217869528e-01
53 65 8.43595330923099795e-01
54 65 8.46974042980945363e-01
55 65 8.51478992391406120e-01
56 65 8.57110179154482288e-01
57 65 8.63867603270173423e-01
58 65 8.71751264738479748e-01
59 65 8.80761163559401483e-01
60 65 8.90897299732938297e-01
61 65 9.02159673259090300e-01
62 65 9.14548284137857492e-01
63 65 9.28063132369239985e-01
64 65 9.42704217953237555e-01
65 65 9.58471540889850204e-01
66 65 9.75365101179078264e-01
67 65 9.84375000000000000e-01
68 65 9.75365101179078375e-01
69 65 9.58471540889850537e-01
70 65 9.42704217953237666e-01
71 65 9.28063132369239985e-01
72 65 9.14548284137857492e-01
73 65 9.02159673259090189e-01
74 65 8.90897299732938186e-01
75 65 8.80761163559401372e-01
76 65 8.71751264738479748e-01
77 65 8.63867603270173312e-01
78 65 8.57110179154482288e-01
79 65 8.51478992391406009e-01
80 65 8.46974042980945363e-01
81 65 8.43595330923099795e-01
82 65 8.41342856217869417e-01
83 65 8.40216618865254228e-01
84 65 8.40216618865254228e-01
85 65 8.41342856217869528e-01
86 65 8.43595330923099795e-01
87 65 8.46974042980945363e-01
88 65 8.51478992391406120e-01
89 65 8.57110179154482288e-01
90 65 8.63867603270173423e-01
91 65 8.71751264738479748e-01
92 65 8.80761163559401483e-01
93 65 8.90897299732938297e-01
94 65 9.02159673259090300e-01
95 65 9.14548284137857492e-01
96 65 9.28063132369239985e-01
97 65 9.42704217953237555e-01
98 65 9.58471540889850204e-01
99 65 9.75365101179078264e-01
100 65 9.84375000000000000e-01
101 65 9.75365101179078375e-01
102 65 9.58471540889850537e-01
103 65 9.42704217953237666e-01
104 65 9.28063132369239985e-01
105 65 9.14548284137857492e-01
106 65 9.02159673259090189e-01
107 65 8.90897299732938186e-01
108 65 8.80761163559401372e-01
109 65 8.71751264738479748e-01
110 65 8.63867603270173312e-01
111 65 8.57110179154482288e-01
112 65 8.51478992391406009e-01
113 65 8.46974042980945363e-01
114 65 8.43595330923099795e-01
115 65 8.41342856217869417e-01
116 65 8.40216618865254228e-01
117 65 8.40216618865254228e-01
118 65 8.41342856217869528e-01
119 65 8.43595330923099795e-01
120 65 8.46974042980945363e-01
121 65 8.51478992391406120e-01
122 65 8.57110179154482288e-01
123 65 8.63867603270173423e-01
124 65 8.71751264738479748e-01
125 65 8.80761163559401483e-01
126 65 8.90897299732938297e-01
127 65 9.02159673259090300e-01
128 65 9.14548284137857492e-01
129 65 9.28063132369239985e-01
130 65 9.42704217953237555e-01
131 65 9.58471540889850204e-01
132 65 9.75365101179078264e-01
133 65 9.84375000000000000e-01
1 66 1.00000000000000000e+00
2 66 9.90847086912079678e-01
3 66 9.73685374872229059e-01
4 66 9.57667776968368356e-01
5 66 9.42794293200497679e-01
6 66 9.29064923568617140e-01
7 66 9.16479668072726517e-01
8 66 9.05038526712826030e-01
9 66 8.94741499488915681e-01
10 66 8.85588586400995359e-01
11 66 8.77579787449064952e-01
12 66 8.70715102633124793e-01
13 66 8.64994531953174439e-01
14 66 8.60418075409214334e-01
15 66 8.56985733001244254e-01
16 66 8.54697504729264090e-01
17 66 8.53553390593274064e-01
18 66 8.53553390593274064e-01
19 66 8.54697504729264201e-01
20 66 8.56985733001244254e-01
21 66 8.60418075409214334e-01
22 66 8.64994531953174550e-01
23 66 8.70715102633124793e-01
24 66 8.77579787449065063e-01
25 66 8.85588586400995359e-01
26 66 8.94741499488915792e-01
27 66 9.05038526712826141e-01
28 66 9.16479668072726628e-01
29 66 9.29064923568617140e-01
30 66 9.42794293200497679e-01
31 66 9.57667776968368245e-01
32 66 9.73685374872228837e-01
33 66 9.90847086912079567e-01
34 66 1.00000000000000000e+00
35 66 9.90847086912079678e-01
36 66 9.73685374872229059e-01
37 66 9.57667776968368356e-01
38 66 9.42794293200497679e-01
39 66 9.29064923568617140e-01
40 66 9.16479668072726517e-01
41 66 9.05038526712826030e-01
42 66 8.94741499488915681e-01
43 66 8.85588586400995359e-01
44 66 8.77579787449064952e-01
45 66 8.70715102633124793e-01
46 66 8.64994531953174439e-01
47 66 8.60418075409214334e-01
48 66 8.56985733001244254e-01
49 66 8.54697504729264090e-01
50 66 8.53553390593274064e-01
51 66 8.53553390593274064e-01
52 66 8.54697504729264201e-01
53 66 8.56985733001244254e-01
54 66 8.60418075409214334e-01
55 66 8.64994531953174550e-01
56 66 8.70715102633124793e-01
57 66 8.77579787449065063e-01
58 66 8.85588586400995359e-01
59 66 8.94741499488915792e-01
60 66 9.05038526712826141e-01
61 66 9.16479668072726628e-01
62 66 9.29064923568617140e-01
63 66 9.42794293200497679e-01
64 66 9.57667776968368245e-01
65 66 9.73685374872228837e-01
66 66 9.90847086912079567e-01
67 66 1.00000000000000000e+00
68 66 9.90847086912079678e-01
69 66 9.73685374872229059e-01
70 66 9.57667776968368356e-01
71 66 9.42794293200497679e-01
72 66 9.29064923568617140e-01
73 66 9.16479668072726517e-01
74 66 9.05038526712826030e-01
75 66 8.94741499488915681e-01
76 66 8.85588586400995359e-01
77 66 8.77579787449064952e-01
78 66 8.70715102633124793e-01
79 66 8.64994531953174439e-01
80 66 8.60418075409214334e-01
81 66 8.56985733001244254e-01
82 66 8.54697504729264090e-01
83 66 8.53553390593274064e-01
84 66 8.53553390593274064e-01
85 66 8.54697504729264201e-01
86 66 8.56985733001244254e-01
87 66 8.60418075409214334e-01
88 66 8.64994531953174550e-01
89 66 8.70715102633124793e-01
90 66 8.77579787449065063e-01
91 66 8.85588586400995359e-01
92 66 8.94741499488915792e-01
93 66 9.05038526712826141e-01
94 66 9.16479668072726628e-01
95 66 9.29064923568617140e-01
96 66 9.42794293200497679e-01
97 66 9.57667776968368245e-01
98 66 9.73685374872228837e-01
99 66 9.90847086912079567e-01
100 66 1.00000000000000000e+00
101 66 9.90847086912079678e-01
102 66 9.73685374872229059e-01
103 66 9.57667776968368356e-01
104 66 9.42794293200497679e-01
105 66 9.29064923568617140e-01
106 66 9.16479668072726517e-01
107 66 9.05038526712826030e-01
108 66 8.94741499488915681e-01
109 66 8.85588586400995359e-01
110 66 8.77579787449064952e-01
111 66 8.70715102633124793e-01
112 66 8.64994531953174439e-01
113 66 8.60418075409214334e-01
114 66 8.56985733001244254e-01
115 66 8.54697504729264090e-01
116 66 8.53553390593274064e-01
117 66 8.53553390593274064e-01
118 66 8.54697504729264201e-01
119 66 8.56985733001244254e-01
120 66 8.60418075409214334e-01
121 66 8.64994531953174550e-01
122 66 8.70715102633124793e-01
123 66 8.77579787449065063e-01
124 66 8.85588586400995359e-01
125 66 8.94741499488915792e-01
126 66 9.05038526712826141e-01
127 66 9.16479668072726628e-01
128 66 9.29064923568617140e-01
129 66 9.42794293200497679e-01
130 66 9.57667776968368245e-01
131 66 9.73685374872228837e-01
132 66 9.90847086912079567e-01
133 66 1.00000000000000000e+00
