%%MatrixMarket matrix coordinate  real general
37 37 1369
1 1 3.00000000000000000e+00
2 1 3.00000000000000044e+00
3 1 2.89680461621105234e+00
4 1 2.67741351517480108e+00
5 1 2.34099025766973190e+00
6 1 1.90165042944955287e+00
7 1 1.38706757587400387e+00
8 1 8.32896940432085175e-01
9 1 2.75242111441598103e-01
10 1 1.83697019872102969e-16
11 1 -2.75242111441597603e-01
12 1 -8.32896940432084620e-01
13 1 -1.38706757587400342e+00
14 1 -1.90165042944955243e+00
15 1 -2.34099025766973101e+00
16 1 -2.67741351517479975e+00
17 1 -2.89680461621105101e+00
18 1 -2.99999999999999956e+00
19 1 -3.00000000000000000e+00
20 1 -3.00000000000000044e+00
21 1 -2.89680461621105234e+00
22 1 -2.67741351517480108e+00
23 1 -2.34099025766973234e+00
24 1 -1.90165042944955354e+00
25 1 -1.38706757587400453e+00
26 1 -8.32896940432085731e-01
27 1 -2.75242111441598492e-01
28 1 -5.51091059616308956e-16
29 1 2.75242111441597215e-01
30 1 8.32896940432084176e-01
31 1 1.38706757587400298e+00
32 1 1.90165042944955198e+00
33 1 2.34099025766973057e+00
34 1 2.67741351517479931e+00
35 1 2.89680461621105012e+00
36 1 2.99999999999999956e+00
37 1 3.00000000000000000e+00
1 2 3.00000000000000044e+00
2 2 3.00000000000000044e+00
3 2 2.89680461621105190e+00
4 2 2.67741351517480108e+00
5 2 2.34099025766973146e+00
6 2 1.90165042944955287e+00
7 2 1.38706757587400409e+00
8 2 8.32896940432085175e-01
9 2 2.75242111441598103e-01
10 2 1.83697019872102969e-16
11 2 -2.75242111441597659e-01
12 2 -8.32896940432084620e-01
13 2 -1.38706757587400342e+00
14 2 -1.90165042944955220e+00
15 2 -2.34099025766973101e+00
16 2 -2.67741351517480020e+00
17 2 -2.89680461621105101e+00
18 2 -2.99999999999999956e+00
19 2 -3.00000000000000044e+00
20 2 -3.00000000000000044e+00
21 2 -2.89680461621105190e+00
22 2 -2.67741351517480108e+00
23 2 -2.34099025766973234e+00
24 2 -1.90165042944955376e+00
25 2 -1.38706757587400453e+00
26 2 -8.32896940432085842e-01
27 2 -2.75242111441598492e-01
28 2 -5.51091059616308956e-16
29 2 2.75242111441597270e-01
30 2 8.32896940432084176e-01
31 2 1.38706757587400276e+00
32 2 1.90165042944955154e+00
33 2 2.34099025766973057e+00
34 2 2.67741351517479931e+00
35 2 2.89680461621105012e+00
36 2 2.99999999999999956e+00
37 2 3.00000000000000044e+00
1 3 2.96560153873701760e+00
2 3 2.96560153873701760e+00
3 3 2.86358940908533111e+00
4 3 2.64671388014589226e+00
5 3 2.31414810343790789e+00
6 3 1.87984581323850120e+00
7 3 1.37116324578139026e+00
8 3 8.23346816051581998e-01
9 3 2.72086143072142905e-01
10 3 1.81590721598037668e-16
11 3 -2.72086143072142517e-01
12 3 -8.23346816051581554e-01
13 3 -1.37116324578139004e+00
14 3 -1.87984581323850097e+00
15 3 -2.31414810343790700e+00
16 3 -2.64671388014589093e+00
17 3 -2.86358940908532977e+00
18 3 -2.96560153873701715e+00
19 3 -2.96560153873701760e+00
20 3 -2.96560153873701760e+00
21 3 -2.86358940908533111e+00
22 3 -2.64671388014589226e+00
23 3 -2.31414810343790833e+00
24 3 -1.87984581323850208e+00
25 3 -1.37116324578139070e+00
26 3 -8.23346816051582442e-01
27 3 -2.72086143072143349e-01
28 3 -5.44772164794113003e-16
29 3 2.72086143072142073e-01
30 3 8.23346816051580888e-01
31 3 1.37116324578138893e+00
32 3 1.87984581323850009e+00
33 3 2.31414810343790700e+00
34 3 2.64671388014589049e+00
35 3 2.86358940908532800e+00
36 3 2.96560153873701715e+00
37 3 2.96560153873701760e+00
1 4 2.89247117172493384e+00
2 4 2.89247117172493384e+00
3 4 2.79297461417005977e+00
4 4 2.58144713580994312e+00
5 4 2.25708227786620785e+00
6 4 1.83348968196039053e+00
7 4 1.33735099214998177e+00
8 4 8.03043463072568575e-01
9 4 2.65376624196507982e-01
10 4 1.77112778103946683e-16
11 4 -2.65376624196507593e-01
12 4 -8.03043463072568242e-01
13 4 -1.33735099214998088e+00
14 4 -1.83348968196039031e+00
15 4 -2.25708227786620697e+00
16 4 -2.58144713580994312e+00
17 4 -2.79297461417005888e+00
18 4 -2.89247117172493340e+00
19 4 -2.89247117172493384e+00
20 4 -2.89247117172493384e+00
21 4 -2.79297461417005977e+00
22 4 -2.58144713580994356e+00
23 4 -2.25708227786620830e+00
24 4 -1.83348968196039119e+00
25 4 -1.33735099214998199e+00
26 4 -8.03043463072569130e-01
27 4 -2.65376624196508426e-01
28 4 -5.31338334311840222e-16
29 4 2.65376624196507149e-01
30 4 8.03043463072567465e-01
31 4 1.33735099214998021e+00
32 4 1.83348968196038942e+00
33 4 2.25708227786620697e+00
34 4 2.58144713580994223e+00
35 4 2.79297461417005755e+00
36 4 2.89247117172493340e+00
37 4 2.89247117172493384e+00
1 5 2.78033008588991049e+00
2 5 2.78033008588991049e+00
3 5 2.68469100913212122e+00
4 5 2.48136444953625368e+00
5 5 2.16957521472477621e+00
6 5 1.76240530061468714e+00
7 5 1.28550190412162690e+00
8 5 7.71909473976327698e-01
9 5 2.55087974448312937e-01
10 5 1.70246117012908185e-16
11 5 -2.55087974448312549e-01
12 5 -7.71909473976327476e-01
13 5 -1.28550190412162624e+00
14 5 -1.76240530061468692e+00
15 5 -2.16957521472477577e+00
16 5 -2.48136444953625368e+00
17 5 -2.68469100913212078e+00
18 5 -2.78033008588991049e+00
19 5 -2.78033008588991049e+00
20 5 -2.78033008588991049e+00
21 5 -2.68469100913212122e+00
22 5 -2.48136444953625412e+00
23 5 -2.16957521472477710e+00
24 5 -1.76240530061468736e+00
25 5 -1.28550190412162713e+00
26 5 -7.71909473976328253e-01
27 5 -2.55087974448313326e-01
28 5 -5.10738351038724801e-16
29 5 2.55087974448312105e-01
30 5 7.71909473976326699e-01
31 5 1.28550190412162557e+00
32 5 1.76240530061468625e+00
33 5 2.16957521472477577e+00
34 5 2.48136444953625279e+00
35 5 2.68469100913211989e+00
36 5 2.78033008588991049e+00
37 5 2.78033008588991049e+00
1 6 2.63388347648318399e+00
2 6 2.63388347648318444e+00
3 6 2.54328193774616729e+00
4 6 2.35066507244388889e+00
5 6 2.05529851942813968e+00
6 6 1.66957521472477644e+00
7 6 1.21779145628670848e+00
8 6 7.31251163005822713e-01
9 6 2.41651883119456151e-01
10 6 1.61278848440111687e-16
11 6 -2.41651883119455818e-01
12 6 -7.31251163005822491e-01
13 6 -1.21779145628670804e+00
14 6 -1.66957521472477644e+00
15 6 -2.05529851942813924e+00
16 6 -2.35066507244388889e+00
17 6 -2.54328193774616684e+00
18 6 -2.63388347648318444e+00
19 6 -2.63388347648318399e+00
20 6 -2.63388347648318444e+00
21 6 -2.54328193774616729e+00
22 6 -2.35066507244388934e+00
23 6 -2.05529851942814012e+00
24 6 -1.66957521472477688e+00
25 6 -1.21779145628670893e+00
26 6 -7.31251163005823268e-01
27 6 -2.41651883119456540e-01
28 6 -4.83836545320335233e-16
29 6 2.41651883119455374e-01
30 6 7.31251163005821825e-01
31 6 1.21779145628670737e+00
32 6 1.66957521472477577e+00
33 6 2.05529851942813879e+00
34 6 2.35066507244388845e+00
35 6 2.54328193774616640e+00
36 6 2.63388347648318444e+00
37 6 2.63388347648318399e+00
1 7 2.46235585862466744e+00
2 7 2.46235585862466788e+00
3 7 2.37765460600608902e+00
4 7 2.19758161835051258e+00
5 7 1.92145035865211167e+00
6 7 1.56084669200374071e+00
7 7 1.13848465725389025e+00
8 7 6.83629553634501841e-01
9 7 2.25914675216147581e-01
10 7 1.50775811031321566e-16
11 7 -2.25914675216147304e-01
12 7 -6.83629553634501841e-01
13 7 -1.13848465725388981e+00
14 7 -1.56084669200374093e+00
15 7 -1.92145035865211145e+00
16 7 -2.19758161835051258e+00
17 7 -2.37765460600608813e+00
18 7 -2.46235585862466744e+00
19 7 -2.46235585862466744e+00
20 7 -2.46235585862466788e+00
21 7 -2.37765460600608902e+00
22 7 -2.19758161835051258e+00
23 7 -1.92145035865211233e+00
24 7 -1.56084669200374138e+00
25 7 -1.13848465725389092e+00
26 7 -6.83629553634502507e-01
27 7 -2.25914675216147998e-01
28 7 -4.52327433093964797e-16
29 7 2.25914675216146860e-01
30 7 6.83629553634501286e-01
31 7 1.13848465725388936e+00
32 7 1.56084669200374027e+00
33 7 1.92145035865211122e+00
34 7 2.19758161835051213e+00
35 7 2.37765460600608813e+00
36 7 2.46235585862466744e+00
37 7 2.46235585862466744e+00
1 8 2.27763231347736150e+00
2 8 2.27763231347736195e+00
3 8 2.19928526657089263e+00
4 8 2.03272117956771226e+00
5 8 1.77730501880142522e+00
6 8 1.44375348901746792e+00
7 8 1.05307664392911482e+00
8 8 6.32344328441515335e-01
9 8 2.08966775683040284e-01
10 8 1.39464756116731573e-16
11 8 -2.08966775683040007e-01
12 8 -6.32344328441515335e-01
13 8 -1.05307664392911438e+00
14 8 -1.44375348901746814e+00
15 8 -1.77730501880142522e+00
16 8 -2.03272117956771226e+00
17 8 -2.19928526657089218e+00
18 8 -2.27763231347736150e+00
19 8 -2.27763231347736150e+00
20 8 -2.27763231347736195e+00
21 8 -2.19928526657089263e+00
22 8 -2.03272117956771226e+00
23 8 -1.77730501880142611e+00
24 8 -1.44375348901746814e+00
25 8 -1.05307664392911526e+00
26 8 -6.32344328441515779e-01
27 8 -2.08966775683040618e-01
28 8 -4.18394268350194743e-16
29 8 2.08966775683039618e-01
30 8 6.32344328441514891e-01
31 8 1.05307664392911393e+00
32 8 1.44375348901746725e+00
33 8 1.77730501880142500e+00
34 8 2.03272117956771181e+00
35 8 2.19928526657089218e+00
36 8 2.27763231347736150e+00
37 8 2.27763231347736150e+00
1 9 2.09174737048053228e+00
2 9 2.09174737048053272e+00
3 9 2.01979447958511171e+00
4 9 1.86682422668530945e+00
5 9 1.63225340526706852e+00
6 9 1.32592409512475928e+00
7 9 9.67131651504418266e-01
8 9 5.80736661676698240e-01
9 9 1.91912320951157511e-01
10 9 1.28082586094193838e-16
11 9 -1.91912320951157234e-01
12 9 -5.80736661676698129e-01
13 9 -9.67131651504418044e-01
14 9 -1.32592409512475951e+00
15 9 -1.63225340526706852e+00
16 9 -1.86682422668530945e+00
17 9 -2.01979447958511127e+00
18 9 -2.09174737048053272e+00
19 9 -2.09174737048053228e+00
20 9 -2.09174737048053272e+00
21 9 -2.01979447958511171e+00
22 9 -1.86682422668530967e+00
23 9 -1.63225340526706897e+00
24 9 -1.32592409512475951e+00
25 9 -9.67131651504418710e-01
26 9 -5.80736661676698573e-01
27 9 -1.91912320951157789e-01
28 9 -3.84247758282581515e-16
29 9 1.91912320951156928e-01
30 9 5.80736661676697796e-01
31 9 9.67131651504417711e-01
32 9 1.32592409512475884e+00
33 9 1.63225340526706852e+00
34 9 1.86682422668530923e+00
35 9 2.01979447958511127e+00
36 9 2.09174737048053272e+00
37 9 2.09174737048053228e+00
1 10 2.00000000000000000e+00
2 10 2.00000000000000000e+00
3 10 1.93120307747403452e+00
4 10 1.78494234344986702e+00
5 10 1.56066017177982097e+00
6 10 1.26776695296636865e+00
7 10 9.24711717249336096e-01
8 10 5.55264626954723450e-01
9 10 1.83494740961065383e-01
10 10 1.22464679914735321e-16
11 10 -1.83494740961065134e-01
12 10 -5.55264626954723228e-01
13 10 -9.24711717249335874e-01
14 10 -1.26776695296636865e+00
15 10 -1.56066017177982097e+00
16 10 -1.78494234344986680e+00
17 10 -1.93120307747403386e+00
18 10 -1.99999999999999978e+00
19 10 -2.00000000000000000e+00
20 10 -2.00000000000000000e+00
21 10 -1.93120307747403452e+00
22 10 -1.78494234344986724e+00
23 10 -1.56066017177982141e+00
24 10 -1.26776695296636888e+00
25 10 -9.24711717249336318e-01
26 10 -5.55264626954723672e-01
27 10 -1.83494740961065633e-01
28 10 -3.67394039744205938e-16
29 10 1.83494740961064856e-01
30 10 5.55264626954723006e-01
31 10 9.24711717249335652e-01
32 10 1.26776695296636843e+00
33 10 1.56066017177982097e+00
34 10 1.78494234344986680e+00
35 10 1.93120307747403386e+00
36 10 1.99999999999999978e+00
37 10 2.00000000000000000e+00
1 11 1.90825262951946728e+00
2 11 1.90825262951946750e+00
3 11 1.84261167536295689e+00
4 11 1.70306046021442437e+00
5 11 1.48906693829257342e+00
6 11 1.20960981080797803e+00
7 11 8.82291782994253926e-01
8 11 5.29792592232748549e-01
9 11 1.75077160970973283e-01
10 11 1.16846773735276779e-16
11 11 -1.75077160970973006e-01
12 11 -5.29792592232748327e-01
13 11 -8.82291782994253815e-01
14 11 -1.20960981080797780e+00
15 11 -1.48906693829257342e+00
16 11 -1.70306046021442437e+00
17 11 -1.84261167536295667e+00
18 11 -1.90825262951946728e+00
19 11 -1.90825262951946728e+00
20 11 -1.90825262951946750e+00
21 11 -1.84261167536295689e+00
22 11 -1.70306046021442481e+00
23 11 -1.48906693829257386e+00
24 11 -1.20960981080797803e+00
25 11 -8.82291782994254148e-01
26 11 -5.29792592232748882e-01
27 11 -1.75077160970973505e-01
28 11 -3.50540321205830360e-16
29 11 1.75077160970972756e-01
30 11 5.29792592232748216e-01
31 11 8.82291782994253371e-01
32 11 1.20960981080797758e+00
33 11 1.48906693829257342e+00
34 11 1.70306046021442437e+00
35 11 1.84261167536295667e+00
36 11 1.90825262951946728e+00
37 11 1.90825262951946728e+00
1 12 1.72236768652263827e+00
2 12 1.72236768652263827e+00
3 12 1.66312088837717598e+00
4 12 1.53716350733202223e+00
5 12 1.34401532475821694e+00
6 12 1.09178041691526961e+00
7 12 7.96346790569557483e-01
8 12 4.78184925467931399e-01
9 12 1.58022706239090510e-01
10 12 1.05464603712739044e-16
11 12 -1.58022706239090260e-01
12 12 -4.78184925467931232e-01
13 12 -7.96346790569557483e-01
14 12 -1.09178041691526939e+00
15 12 -1.34401532475821672e+00
16 12 -1.53716350733202178e+00
17 12 -1.66312088837717575e+00
18 12 -1.72236768652263783e+00
19 12 -1.72236768652263827e+00
20 12 -1.72236768652263827e+00
21 12 -1.66312088837717598e+00
22 12 -1.53716350733202223e+00
23 12 -1.34401532475821717e+00
24 12 -1.09178041691526984e+00
25 12 -7.96346790569557594e-01
26 12 -4.78184925467931676e-01
27 12 -1.58022706239090704e-01
28 12 -3.16393811138217132e-16
29 12 1.58022706239090066e-01
30 12 4.78184925467931121e-01
31 12 7.96346790569557150e-01
32 12 1.09178041691526917e+00
33 12 1.34401532475821672e+00
34 12 1.53716350733202178e+00
35 12 1.66312088837717575e+00
36 12 1.72236768652263783e+00
37 12 1.72236768652263827e+00
1 13 1.53764414137533167e+00
2 13 1.53764414137533190e+00
3 13 1.48475154894198003e+00
4 13 1.37230306854922190e+00
5 13 1.19986998490753050e+00
6 13 9.74687213928996488e-01
7 13 7.10938777244782161e-01
8 13 4.26899700274944838e-01
9 13 1.41074806705983158e-01
10 13 9.41535487981490138e-17
11 13 -1.41074806705982991e-01
12 13 -4.26899700274944727e-01
13 13 -7.10938777244781828e-01
14 13 -9.74687213928996266e-01
15 13 -1.19986998490753027e+00
16 13 -1.37230306854922190e+00
17 13 -1.48475154894197980e+00
18 13 -1.53764414137533167e+00
19 13 -1.53764414137533167e+00
20 13 -1.53764414137533190e+00
21 13 -1.48475154894198003e+00
22 13 -1.37230306854922190e+00
23 13 -1.19986998490753050e+00
24 13 -9.74687213928996710e-01
25 13 -7.10938777244782272e-01
26 13 -4.26899700274945060e-01
27 13 -1.41074806705983352e-01
28 13 -2.82460646394447029e-16
29 13 1.41074806705982769e-01
30 13 4.26899700274944505e-01
31 13 7.10938777244781717e-01
32 13 9.74687213928996266e-01
33 13 1.19986998490753027e+00
34 13 1.37230306854922190e+00
35 13 1.48475154894197980e+00
36 13 1.53764414137533167e+00
37 13 1.53764414137533167e+00
1 14 1.36611652351681512e+00
2 14 1.36611652351681578e+00
3 14 1.31912421720190154e+00
4 14 1.21921961445584537e+00
5 14 1.06602182413150270e+00
6 14 8.65958691207960873e-01
7 14 6.31631978211963707e-01
8 14 3.79278090903624132e-01
9 14 1.25337598802674643e-01
10 14 8.36505113893588931e-17
11 14 -1.25337598802674477e-01
12 14 -3.79278090903624077e-01
13 14 -6.31631978211963596e-01
14 14 -8.65958691207960762e-01
15 14 -1.06602182413150248e+00
16 14 -1.21921961445584537e+00
17 14 -1.31912421720190132e+00
18 14 -1.36611652351681556e+00
19 14 -1.36611652351681512e+00
20 14 -1.36611652351681578e+00
21 14 -1.31912421720190154e+00
22 14 -1.21921961445584537e+00
23 14 -1.06602182413150293e+00
24 14 -8.65958691207961095e-01
25 14 -6.31631978211964040e-01
26 14 -3.79278090903624299e-01
27 14 -1.25337598802674782e-01
28 14 -2.50951534168076642e-16
29 14 1.25337598802674283e-01
30 14 3.79278090903623799e-01
31 14 6.31631978211963485e-01
32 14 8.65958691207960762e-01
33 14 1.06602182413150248e+00
34 14 1.21921961445584537e+00
35 14 1.31912421720190132e+00
36 14 1.36611652351681556e+00
37 14 1.36611652351681512e+00
1 15 1.21966991411008907e+00
2 15 1.21966991411008951e+00
3 15 1.17771514581594761e+00
4 15 1.08852023736348058e+00
5 15 9.51745128834865839e-01
6 15 7.73128605318050277e-01
7 15 5.63921530377045510e-01
8 15 3.38619779933119203e-01
9 15 1.11901507473817871e-01
10 15 7.46832428165623828e-17
11 15 -1.11901507473817718e-01
12 15 -3.38619779933119036e-01
13 15 -5.63921530377045288e-01
14 15 -7.73128605318050277e-01
15 15 -9.51745128834865728e-01
16 15 -1.08852023736348058e+00
17 15 -1.17771514581594761e+00
18 15 -1.21966991411008951e+00
19 15 -1.21966991411008907e+00
20 15 -1.21966991411008951e+00
21 15 -1.17771514581594761e+00
22 15 -1.08852023736348080e+00
23 15 -9.51745128834865950e-01
24 15 -7.73128605318050277e-01
25 15 -5.63921530377045732e-01
26 15 -3.38619779933119314e-01
27 15 -1.11901507473818010e-01
28 15 -2.24049728449687173e-16
29 15 1.11901507473817538e-01
30 15 3.38619779933118814e-01
31 15 5.63921530377045177e-01
32 15 7.73128605318050055e-01
33 15 9.51745128834865728e-01
34 15 1.08852023736348058e+00
35 15 1.17771514581594761e+00
36 15 1.21966991411008951e+00
37 15 1.21966991411008907e+00
1 16 1.10752882827506616e+00
2 16 1.10752882827506638e+00
3 16 1.06943154077800973e+00
4 16 9.88437551089791144e-01
5 16 8.64238065693434532e-01
6 16 7.02044223972346781e-01
7 16 5.12072442348690871e-01
8 16 3.07485790836878325e-01
9 16 1.01612857725622799e-01
10 16 6.78165817255239089e-17
11 16 -1.01612857725622646e-01
12 16 -3.07485790836878270e-01
13 16 -5.12072442348690759e-01
14 16 -7.02044223972346670e-01
15 16 -8.64238065693434421e-01
16 16 -9.88437551089791144e-01
17 16 -1.06943154077800973e+00
18 16 -1.10752882827506638e+00
19 16 -1.10752882827506616e+00
20 16 -1.10752882827506638e+00
21 16 -1.06943154077800973e+00
22 16 -9.88437551089791588e-01
23 16 -8.64238065693434643e-01
24 16 -7.02044223972346781e-01
25 16 -5.12072442348691093e-01
26 16 -3.07485790836878492e-01
27 16 -1.01612857725622938e-01
28 16 -2.03449745176571751e-16
29 16 1.01612857725622507e-01
30 16 3.07485790836878103e-01
31 16 5.12072442348690648e-01
32 16 7.02044223972346670e-01
33 16 8.64238065693434421e-01
34 16 9.88437551089791144e-01
35 16 1.06943154077800973e+00
36 16 1.10752882827506638e+00
37 16 1.10752882827506616e+00
1 17 1.03439846126298263e+00
2 17 1.03439846126298285e+00
3 17 9.98816745862739053e-01
4 17 9.23170806753842332e-01
5 17 8.07172240121734608e-01
6 17 6.55688092694236002e-01
7 17 4.78260188717281820e-01
8 17 2.87182437857865014e-01
9 17 9.49033388499878339e-02
10 17 6.33386382314329491e-17
11 17 -9.49033388499877090e-02
12 17 -2.87182437857864958e-01
13 17 -4.78260188717281765e-01
14 17 -6.55688092694235891e-01
15 17 -8.07172240121734497e-01
16 17 -9.23170806753842443e-01
17 17 -9.98816745862738942e-01
18 17 -1.03439846126298285e+00
19 17 -1.03439846126298263e+00
20 17 -1.03439846126298285e+00
21 17 -9.98816745862739053e-01
22 17 -9.23170806753842665e-01
23 17 -8.07172240121734719e-01
24 17 -6.55688092694236113e-01
25 17 -4.78260188717282042e-01
26 17 -2.87182437857865180e-01
27 17 -9.49033388499879726e-02
28 17 -1.90015914694298872e-16
29 17 9.49033388499875563e-02
30 17 2.87182437857864792e-01
31 17 4.78260188717281598e-01
32 17 6.55688092694235891e-01
33 17 8.07172240121734497e-01
34 17 9.23170806753842443e-01
35 17 9.98816745862738942e-01
36 17 1.03439846126298285e+00
37 17 1.03439846126298263e+00
1 18 1.00000000000000000e+00
2 18 1.00000000000000000e+00
3 18 9.65601538737017151e-01
4 18 8.92471171724933399e-01
5 18 7.80330085889910485e-01
6 18 6.33883476483184327e-01
7 18 4.62355858624668103e-01
8 18 2.77632313477361670e-01
9 18 9.17473704805327056e-02
10 18 6.12323399573676480e-17
11 18 -9.17473704805325807e-02
12 18 -2.77632313477361670e-01
13 18 -4.62355858624667937e-01
14 18 -6.33883476483184327e-01
15 18 -7.80330085889910485e-01
16 18 -8.92471171724933510e-01
17 18 -9.65601538737017040e-01
18 18 -1.00000000000000000e+00
19 18 -1.00000000000000000e+00
20 18 -1.00000000000000000e+00
21 18 -9.65601538737017151e-01
22 18 -8.92471171724933510e-01
23 18 -7.80330085889910596e-01
24 18 -6.33883476483184438e-01
25 18 -4.62355858624668214e-01
26 18 -2.77632313477361836e-01
27 18 -9.17473704805328305e-02
28 18 -1.83697019872102969e-16
29 18 9.17473704805324280e-02
30 18 2.77632313477361503e-01
31 18 4.62355858624667826e-01
32 18 6.33883476483184216e-01
33 18 7.80330085889910485e-01
34 18 8.92471171724933510e-01
35 18 9.65601538737017040e-01
36 18 1.00000000000000000e+00
37 18 1.00000000000000000e+00
1 19 1.00000000000000000e+00
2 19 1.00000000000000000e+00
3 19 9.65601538737017262e-01
4 19 8.92471171724933510e-01
5 19 7.80330085889910485e-01
6 19 6.33883476483184327e-01
7 19 4.62355858624668048e-01
8 19 2.77632313477361725e-01
9 19 9.17473704805326917e-02
10 19 6.12323399573676604e-17
11 19 -9.17473704805325807e-02
12 19 -2.77632313477361670e-01
13 19 -4.62355858624667937e-01
14 19 -6.33883476483184327e-01
15 19 -7.80330085889910596e-01
16 19 -8.92471171724933510e-01
17 19 -9.65601538737017151e-01
18 19 -1.00000000000000000e+00
19 19 -1.00000000000000000e+00
20 19 -1.00000000000000000e+00
21 19 -9.65601538737017262e-01
22 19 -8.92471171724933621e-01
23 19 -7.80330085889910707e-01
24 19 -6.33883476483184438e-01
25 19 -4.62355858624668159e-01
26 19 -2.77632313477361836e-01
27 19 -9.17473704805328166e-02
28 19 -1.83697019872102969e-16
29 19 9.17473704805324280e-02
30 19 2.77632313477361503e-01
31 19 4.62355858624667826e-01
32 19 6.33883476483184216e-01
33 19 7.80330085889910485e-01
34 19 8.92471171724933510e-01
35 19 9.65601538737017151e-01
36 19 1.00000000000000000e+00
37 19 1.00000000000000000e+00
1 20 1.00000000000000000e+00
2 20 1.00000000000000000e+00
3 20 9.65601538737017151e-01
4 20 8.92471171724933510e-01
5 20 7.80330085889910485e-01
6 20 6.33883476483184327e-01
7 20 4.62355858624668103e-01
8 20 2.77632313477361781e-01
9 20 9.17473704805326917e-02
10 20 6.12323399573676604e-17
11 20 -9.17473704805325807e-02
12 20 -2.77632313477361614e-01
13 20 -4.62355858624667937e-01
14 20 -6.33883476483184216e-01
15 20 -7.80330085889910485e-01
16 20 -8.92471171724933510e-01
17 20 -9.65601538737017151e-01
18 20 -1.00000000000000000e+00
19 20 -1.00000000000000000e+00
20 20 -1.00000000000000000e+00
21 20 -9.65601538737017151e-01
22 20 -8.92471171724933510e-01
23 20 -7.80330085889910485e-01
24 20 -6.33883476483184438e-01
25 20 -4.62355858624668214e-01
26 20 -2.77632313477361892e-01
27 20 -9.17473704805328166e-02
28 20 -1.83697019872102969e-16
29 20 9.17473704805324419e-02
30 20 2.77632313477361503e-01
31 20 4.62355858624667826e-01
32 20 6.33883476483184216e-01
33 20 7.80330085889910485e-01
34 20 8.92471171724933510e-01
35 20 9.65601538737017151e-01
36 20 1.00000000000000000e+00
37 20 1.00000000000000000e+00
1 21 1.03439846126298285e+00
2 21 1.03439846126298285e+00
3 21 9.98816745862739053e-01
4 21 9.23170806753842776e-01
5 21 8.07172240121734608e-01
6 21 6.55688092694236002e-01
7 21 4.78260188717281820e-01
8 21 2.87182437857865069e-01
9 21 9.49033388499878200e-02
10 21 6.33386382314329614e-17
11 21 -9.49033388499876951e-02
12 21 -2.87182437857864958e-01
13 21 -4.78260188717281765e-01
14 21 -6.55688092694235891e-01
15 21 -8.07172240121734830e-01
16 21 -9.23170806753842554e-01
17 21 -9.98816745862739053e-01
18 21 -1.03439846126298263e+00
19 21 -1.03439846126298285e+00
20 21 -1.03439846126298285e+00
21 21 -9.98816745862739053e-01
22 21 -9.23170806753842776e-01
23 21 -8.07172240121734830e-01
24 21 -6.55688092694236113e-01
25 21 -4.78260188717282042e-01
26 21 -2.87182437857865236e-01
27 21 -9.49033388499879449e-02
28 21 -1.90015914694298897e-16
29 21 9.49033388499875702e-02
30 21 2.87182437857864847e-01
31 21 4.78260188717281709e-01
32 21 6.55688092694235891e-01
33 21 8.07172240121734608e-01
34 21 9.23170806753842554e-01
35 21 9.98816745862739053e-01
36 21 1.03439846126298263e+00
37 21 1.03439846126298285e+00
1 22 1.10752882827506638e+00
2 22 1.10752882827506638e+00
3 22 1.06943154077800973e+00
4 22 9.88437551089791255e-01
5 22 8.64238065693434421e-01
6 22 7.02044223972346781e-01
7 22 5.12072442348690982e-01
8 22 3.07485790836878381e-01
9 22 1.01612857725622799e-01
10 22 6.78165817255239212e-17
11 22 -1.01612857725622660e-01
12 22 -3.07485790836878270e-01
13 22 -5.12072442348690759e-01
14 22 -7.02044223972346670e-01
15 22 -8.64238065693434532e-01
16 22 -9.88437551089791255e-01
17 22 -1.06943154077800973e+00
18 22 -1.10752882827506616e+00
19 22 -1.10752882827506638e+00
20 22 -1.10752882827506660e+00
21 22 -1.06943154077800973e+00
22 22 -9.88437551089791588e-01
23 22 -8.64238065693434754e-01
24 22 -7.02044223972347003e-01
25 22 -5.12072442348691204e-01
26 22 -3.07485790836878492e-01
27 22 -1.01612857725622938e-01
28 22 -2.03449745176571776e-16
29 22 1.01612857725622535e-01
30 22 3.07485790836878048e-01
31 22 5.12072442348690648e-01
32 22 7.02044223972346559e-01
33 22 8.64238065693434421e-01
34 22 9.88437551089791255e-01
35 22 1.06943154077800973e+00
36 22 1.10752882827506616e+00
37 22 1.10752882827506638e+00
1 23 1.21966991411008951e+00
2 23 1.21966991411008929e+00
3 23 1.17771514581594783e+00
4 23 1.08852023736348058e+00
5 23 9.51745128834865728e-01
6 23 7.73128605318050388e-01
7 23 5.63921530377045621e-01
8 23 3.38619779933119203e-01
9 23 1.11901507473817871e-01
10 23 7.46832428165623951e-17
11 23 -1.11901507473817718e-01
12 23 -3.38619779933119092e-01
13 23 -5.63921530377045288e-01
14 23 -7.73128605318050277e-01
15 23 -9.51745128834865839e-01
16 23 -1.08852023736348058e+00
17 23 -1.17771514581594783e+00
18 23 -1.21966991411008885e+00
19 23 -1.21966991411008951e+00
20 23 -1.21966991411008951e+00
21 23 -1.17771514581594783e+00
22 23 -1.08852023736348080e+00
23 23 -9.51745128834865950e-01
24 23 -7.73128605318050499e-01
25 23 -5.63921530377045843e-01
26 23 -3.38619779933119314e-01
27 23 -1.11901507473818010e-01
28 23 -2.24049728449687222e-16
29 23 1.11901507473817566e-01
30 23 3.38619779933118870e-01
31 23 5.63921530377045177e-01
32 23 7.73128605318050055e-01
33 23 9.51745128834865839e-01
34 23 1.08852023736348058e+00
35 23 1.17771514581594783e+00
36 23 1.21966991411008885e+00
37 23 1.21966991411008951e+00
1 24 1.36611652351681556e+00
2 24 1.36611652351681534e+00
3 24 1.31912421720190176e+00
4 24 1.21921961445584537e+00
5 24 1.06602182413150248e+00
6 24 8.65958691207961095e-01
7 24 6.31631978211963929e-01
8 24 3.79278090903624132e-01
9 24 1.25337598802674643e-01
10 24 8.36505113893588931e-17
11 24 -1.25337598802674477e-01
12 24 -3.79278090903624021e-01
13 24 -6.31631978211963596e-01
14 24 -8.65958691207960873e-01
15 24 -1.06602182413150270e+00
16 24 -1.21921961445584537e+00
17 24 -1.31912421720190176e+00
18 24 -1.36611652351681534e+00
19 24 -1.36611652351681556e+00
20 24 -1.36611652351681578e+00
21 24 -1.31912421720190176e+00
22 24 -1.21921961445584559e+00
23 24 -1.06602182413150293e+00
24 24 -8.65958691207961317e-01
25 24 -6.31631978211964151e-01
26 24 -3.79278090903624299e-01
27 24 -1.25337598802674810e-01
28 24 -2.50951534168076692e-16
29 24 1.25337598802674310e-01
30 24 3.79278090903623799e-01
31 24 6.31631978211963485e-01
32 24 8.65958691207960762e-01
33 24 1.06602182413150270e+00
34 24 1.21921961445584537e+00
35 24 1.31912421720190176e+00
36 24 1.36611652351681534e+00
37 24 1.36611652351681556e+00
1 25 1.53764414137533167e+00
2 25 1.53764414137533167e+00
3 25 1.48475154894198025e+00
4 25 1.37230306854922190e+00
5 25 1.19986998490753027e+00
6 25 9.74687213928996377e-01
7 25 7.10938777244782161e-01
8 25 4.26899700274944893e-01
9 25 1.41074806705983158e-01
10 25 9.41535487981490262e-17
11 25 -1.41074806705982964e-01
12 25 -4.26899700274944727e-01
13 25 -7.10938777244781828e-01
14 25 -9.74687213928996377e-01
15 25 -1.19986998490753050e+00
16 25 -1.37230306854922190e+00
17 25 -1.48475154894198003e+00
18 25 -1.53764414137533167e+00
19 25 -1.53764414137533167e+00
20 25 -1.53764414137533190e+00
21 25 -1.48475154894198025e+00
22 25 -1.37230306854922235e+00
23 25 -1.19986998490753094e+00
24 25 -9.74687213928996710e-01
25 25 -7.10938777244782383e-01
26 25 -4.26899700274945004e-01
27 25 -1.41074806705983352e-01
28 25 -2.82460646394447029e-16
29 25 1.41074806705982769e-01
30 25 4.26899700274944505e-01
31 25 7.10938777244781717e-01
32 25 9.74687213928996266e-01
33 25 1.19986998490753050e+00
34 25 1.37230306854922190e+00
35 25 1.48475154894198003e+00
36 25 1.53764414137533167e+00
37 25 1.53764414137533167e+00
1 26 1.72236768652263805e+00
2 26 1.72236768652263827e+00
3 26 1.66312088837717598e+00
4 26 1.53716350733202201e+00
5 26 1.34401532475821672e+00
6 26 1.09178041691526939e+00
7 26 7.96346790569557594e-01
8 26 4.78184925467931454e-01
9 26 1.58022706239090482e-01
10 26 1.05464603712739044e-16
11 26 -1.58022706239090260e-01
12 26 -4.78184925467931177e-01
13 26 -7.96346790569557150e-01
14 26 -1.09178041691526939e+00
15 26 -1.34401532475821694e+00
16 26 -1.53716350733202178e+00
17 26 -1.66312088837717575e+00
18 26 -1.72236768652263827e+00
19 26 -1.72236768652263805e+00
20 26 -1.72236768652263827e+00
21 26 -1.66312088837717598e+00
22 26 -1.53716350733202245e+00
23 26 -1.34401532475821717e+00
24 26 -1.09178041691526961e+00
25 26 -7.96346790569557927e-01
26 26 -4.78184925467931565e-01
27 26 -1.58022706239090704e-01
28 26 -3.16393811138217132e-16
29 26 1.58022706239090038e-01
30 26 4.78184925467930955e-01
31 26 7.96346790569557039e-01
32 26 1.09178041691526917e+00
33 26 1.34401532475821694e+00
34 26 1.53716350733202178e+00
35 26 1.66312088837717575e+00
36 26 1.72236768652263827e+00
37 26 1.72236768652263805e+00
1 27 1.90825262951946728e+00
2 27 1.90825262951946728e+00
3 27 1.84261167536295689e+00
4 27 1.70306046021442437e+00
5 27 1.48906693829257364e+00
6 27 1.20960981080797803e+00
7 27 8.82291782994254037e-01
8 27 5.29792592232748549e-01
9 27 1.75077160970973256e-01
10 27 1.16846773735276779e-16
11 27 -1.75077160970973006e-01
12 27 -5.29792592232748327e-01
13 27 -8.82291782994253593e-01
14 27 -1.20960981080797803e+00
15 27 -1.48906693829257364e+00
16 27 -1.70306046021442414e+00
17 27 -1.84261167536295645e+00
18 27 -1.90825262951946728e+00
19 27 -1.90825262951946728e+00
20 27 -1.90825262951946728e+00
21 27 -1.84261167536295689e+00
22 27 -1.70306046021442481e+00
23 27 -1.48906693829257386e+00
24 27 -1.20960981080797803e+00
25 27 -8.82291782994254259e-01
26 27 -5.29792592232748771e-01
27 27 -1.75077160970973533e-01
28 27 -3.50540321205830360e-16
29 27 1.75077160970972756e-01
30 27 5.29792592232748105e-01
31 27 8.82291782994253371e-01
32 27 1.20960981080797780e+00
33 27 1.48906693829257364e+00
34 27 1.70306046021442414e+00
35 27 1.84261167536295645e+00
36 27 1.90825262951946728e+00
37 27 1.90825262951946728e+00
1 28 2.00000000000000000e+00
2 28 2.00000000000000000e+00
3 28 1.93120307747403452e+00
4 28 1.78494234344986702e+00
5 28 1.56066017177982097e+00
6 28 1.26776695296636865e+00
7 28 9.24711717249336096e-01
8 28 5.55264626954723450e-01
9 28 1.83494740961065383e-01
10 28 1.22464679914735321e-16
11 28 -1.83494740961065134e-01
12 28 -5.55264626954723228e-01
13 28 -9.24711717249335874e-01
14 28 -1.26776695296636865e+00
15 28 -1.56066017177982097e+00
16 28 -1.78494234344986680e+00
17 28 -1.93120307747403386e+00
18 28 -1.99999999999999978e+00
19 28 -2.00000000000000000e+00
20 28 -2.00000000000000000e+00
21 28 -1.93120307747403452e+00
22 28 -1.78494234344986724e+00
23 28 -1.56066017177982141e+00
24 28 -1.26776695296636888e+00
25 28 -9.24711717249336318e-01
26 28 -5.55264626954723672e-01
27 28 -1.83494740961065633e-01
28 28 -3.67394039744205938e-16
29 28 1.83494740961064856e-01
30 28 5.55264626954723006e-01
31 28 9.24711717249335652e-01
32 28 1.26776695296636843e+00
33 28 1.56066017177982097e+00
34 28 1.78494234344986680e+00
35 28 1.93120307747403386e+00
36 28 1.99999999999999978e+00
37 28 2.00000000000000000e+00
1 29 2.09174737048053272e+00
2 29 2.09174737048053272e+00
3 29 2.01979447958511171e+00
4 29 1.86682422668530945e+00
5 29 1.63225340526706852e+00
6 29 1.32592409512475928e+00
7 29 9.67131651504418266e-01
8 29 5.80736661676698351e-01
9 29 1.91912320951157483e-01
10 29 1.28082586094193838e-16
11 29 -1.91912320951157261e-01
12 29 -5.80736661676698129e-01
13 29 -9.67131651504418155e-01
14 29 -1.32592409512475928e+00
15 29 -1.63225340526706852e+00
16 29 -1.86682422668530945e+00
17 29 -2.01979447958511127e+00
18 29 -2.09174737048053228e+00
19 29 -2.09174737048053272e+00
20 29 -2.09174737048053272e+00
21 29 -2.01979447958511171e+00
22 29 -1.86682422668530967e+00
23 29 -1.63225340526706875e+00
24 29 -1.32592409512475995e+00
25 29 -9.67131651504418710e-01
26 29 -5.80736661676698573e-01
27 29 -1.91912320951157761e-01
28 29 -3.84247758282581515e-16
29 29 1.91912320951156928e-01
30 29 5.80736661676697796e-01
31 29 9.67131651504417711e-01
32 29 1.32592409512475906e+00
33 29 1.63225340526706852e+00
34 29 1.86682422668530945e+00
35 29 2.01979447958511127e+00
36 29 2.09174737048053228e+00
37 29 2.09174737048053272e+00
1 30 2.27763231347736150e+00
2 30 2.27763231347736239e+00
3 30 2.19928526657089263e+00
4 30 2.03272117956771270e+00
5 30 1.77730501880142566e+00
6 30 1.44375348901746792e+00
7 30 1.05307664392911482e+00
8 30 6.32344328441515557e-01
9 30 2.08966775683040312e-01
10 30 1.39464756116731598e-16
11 30 -2.08966775683040035e-01
12 30 -6.32344328441515224e-01
13 30 -1.05307664392911482e+00
14 30 -1.44375348901746769e+00
15 30 -1.77730501880142566e+00
16 30 -2.03272117956771226e+00
17 30 -2.19928526657089263e+00
18 30 -2.27763231347736106e+00
19 30 -2.27763231347736150e+00
20 30 -2.27763231347736239e+00
21 30 -2.19928526657089263e+00
22 30 -2.03272117956771270e+00
23 30 -1.77730501880142588e+00
24 30 -1.44375348901746858e+00
25 30 -1.05307664392911526e+00
26 30 -6.32344328441515890e-01
27 30 -2.08966775683040562e-01
28 30 -4.18394268350194743e-16
29 30 2.08966775683039591e-01
30 30 6.32344328441514891e-01
31 30 1.05307664392911415e+00
32 30 1.44375348901746769e+00
33 30 1.77730501880142566e+00
34 30 2.03272117956771181e+00
35 30 2.19928526657089263e+00
36 30 2.27763231347736106e+00
37 30 2.27763231347736150e+00
1 31 2.46235585862466833e+00
2 31 2.46235585862466833e+00
3 31 2.37765460600608858e+00
4 31 2.19758161835051258e+00
5 31 1.92145035865211167e+00
6 31 1.56084669200374071e+00
7 31 1.13848465725389048e+00
8 31 6.83629553634502063e-01
9 31 2.25914675216147637e-01
10 31 1.50775811031321591e-16
11 31 -2.25914675216147387e-01
12 31 -6.83629553634501619e-01
13 31 -1.13848465725389025e+00
14 31 -1.56084669200374071e+00
15 31 -1.92145035865211145e+00
16 31 -2.19758161835051258e+00
17 31 -2.37765460600608813e+00
18 31 -2.46235585862466744e+00
19 31 -2.46235585862466833e+00
20 31 -2.46235585862466833e+00
21 31 -2.37765460600608858e+00
22 31 -2.19758161835051258e+00
23 31 -1.92145035865211233e+00
24 31 -1.56084669200374138e+00
25 31 -1.13848465725389070e+00
26 31 -6.83629553634502396e-01
27 31 -2.25914675216147914e-01
28 31 -4.52327433093964797e-16
29 31 2.25914675216146860e-01
30 31 6.83629553634501286e-01
31 31 1.13848465725388936e+00
32 31 1.56084669200374049e+00
33 31 1.92145035865211145e+00
34 31 2.19758161835051213e+00
35 31 2.37765460600608813e+00
36 31 2.46235585862466744e+00
37 31 2.46235585862466833e+00
1 32 2.63388347648318444e+00
2 32 2.63388347648318488e+00
3 32 2.54328193774616729e+00
4 32 2.35066507244388978e+00
5 32 2.05529851942813968e+00
6 32 1.66957521472477644e+00
7 32 1.21779145628670848e+00
8 32 7.31251163005822824e-01
9 32 2.41651883119456151e-01
10 32 1.61278848440111736e-16
11 32 -2.41651883119455874e-01
12 32 -7.31251163005822380e-01
13 32 -1.21779145628670804e+00
14 32 -1.66957521472477644e+00
15 32 -2.05529851942813924e+00
16 32 -2.35066507244388889e+00
17 32 -2.54328193774616640e+00
18 32 -2.63388347648318444e+00
19 32 -2.63388347648318444e+00
20 32 -2.63388347648318488e+00
21 32 -2.54328193774616729e+00
22 32 -2.35066507244388978e+00
23 32 -2.05529851942814012e+00
24 32 -1.66957521472477732e+00
25 32 -1.21779145628670893e+00
26 32 -7.31251163005823157e-01
27 32 -2.41651883119456512e-01
28 32 -4.83836545320335233e-16
29 32 2.41651883119455346e-01
30 32 7.31251163005821936e-01
31 32 1.21779145628670737e+00
32 32 1.66957521472477577e+00
33 32 2.05529851942813924e+00
34 32 2.35066507244388845e+00
35 32 2.54328193774616640e+00
36 32 2.63388347648318444e+00
37 32 2.63388347648318444e+00
1 33 2.78033008588991004e+00
2 33 2.78033008588991093e+00
3 33 2.68469100913212078e+00
4 33 2.48136444953625412e+00
5 33 2.16957521472477666e+00
6 33 1.76240530061468714e+00
7 33 1.28550190412162668e+00
8 33 7.71909473976327809e-01
9 33 2.55087974448312937e-01
10 33 1.70246117012908209e-16
11 33 -2.55087974448312604e-01
12 33 -7.71909473976327365e-01
13 33 -1.28550190412162624e+00
14 33 -1.76240530061468692e+00
15 33 -2.16957521472477621e+00
16 33 -2.48136444953625368e+00
17 33 -2.68469100913212033e+00
18 33 -2.78033008588991049e+00
19 33 -2.78033008588991004e+00
20 33 -2.78033008588991093e+00
21 33 -2.68469100913212122e+00
22 33 -2.48136444953625412e+00
23 33 -2.16957521472477710e+00
24 33 -1.76240530061468803e+00
25 33 -1.28550190412162735e+00
26 33 -7.71909473976328253e-01
27 33 -2.55087974448313326e-01
28 33 -5.10738351038724702e-16
29 33 2.55087974448312049e-01
30 33 7.71909473976326810e-01
31 33 1.28550190412162557e+00
32 33 1.76240530061468625e+00
33 33 2.16957521472477621e+00
34 33 2.48136444953625324e+00
35 33 2.68469100913211989e+00
36 33 2.78033008588991049e+00
37 33 2.78033008588991004e+00
1 34 2.89247117172493295e+00
2 34 2.89247117172493429e+00
3 34 2.79297461417005932e+00
4 34 2.58144713580994356e+00
5 34 2.25708227786620785e+00
6 34 1.83348968196039053e+00
7 34 1.33735099214998132e+00
8 34 8.03043463072568686e-01
9 34 2.65376624196507982e-01
10 34 1.77112778103946659e-16
11 34 -2.65376624196507593e-01
12 34 -8.03043463072568242e-01
13 34 -1.33735099214998088e+00
14 34 -1.83348968196039031e+00
15 34 -2.25708227786620741e+00
16 34 -2.58144713580994267e+00
17 34 -2.79297461417005843e+00
18 34 -2.89247117172493340e+00
19 34 -2.89247117172493295e+00
20 34 -2.89247117172493429e+00
21 34 -2.79297461417005977e+00
22 34 -2.58144713580994356e+00
23 34 -2.25708227786620874e+00
24 34 -1.83348968196039142e+00
25 34 -1.33735099214998199e+00
26 34 -8.03043463072569130e-01
27 34 -2.65376624196508371e-01
28 34 -5.31338334311840124e-16
29 34 2.65376624196507094e-01
30 34 8.03043463072567576e-01
31 34 1.33735099214998043e+00
32 34 1.83348968196038964e+00
33 34 2.25708227786620697e+00
34 34 2.58144713580994267e+00
35 34 2.79297461417005799e+00
36 34 2.89247117172493340e+00
37 34 2.89247117172493295e+00
1 35 2.96560153873701671e+00
2 35 2.96560153873701804e+00
3 35 2.86358940908533022e+00
4 35 2.64671388014589226e+00
5 35 2.31414810343790789e+00
6 35 1.87984581323850120e+00
7 35 1.37116324578139048e+00
8 35 8.23346816051581887e-01
9 35 2.72086143072142961e-01
10 35 1.81590721598037643e-16
11 35 -2.72086143072142517e-01
12 35 -8.23346816051581443e-01
13 35 -1.37116324578138959e+00
14 35 -1.87984581323850075e+00
15 35 -2.31414810343790700e+00
16 35 -2.64671388014589137e+00
17 35 -2.86358940908532889e+00
18 35 -2.96560153873701715e+00
19 35 -2.96560153873701671e+00
20 35 -2.96560153873701804e+00
21 35 -2.86358940908533022e+00
22 35 -2.64671388014589226e+00
23 35 -2.31414810343790833e+00
24 35 -1.87984581323850208e+00
25 35 -1.37116324578139093e+00
26 35 -8.23346816051582331e-01
27 35 -2.72086143072143349e-01
28 35 -5.44772164794113102e-16
29 35 2.72086143072142017e-01
30 35 8.23346816051580888e-01
31 35 1.37116324578138937e+00
32 35 1.87984581323850031e+00
33 35 2.31414810343790656e+00
34 35 2.64671388014589093e+00
35 35 2.86358940908532844e+00
36 35 2.96560153873701715e+00
37 35 2.96560153873701671e+00
1 36 2.99999999999999956e+00
2 36 3.00000000000000044e+00
3 36 2.89680461621105234e+00
4 36 2.67741351517480108e+00
5 36 2.34099025766973190e+00
6 36 1.90165042944955287e+00
7 36 1.38706757587400409e+00
8 36 8.32896940432085175e-01
9 36 2.75242111441598103e-01
10 36 1.83697019872102969e-16
11 36 -2.75242111441597603e-01
12 36 -8.32896940432084620e-01
13 36 -1.38706757587400320e+00
14 36 -1.90165042944955243e+00
15 36 -2.34099025766973101e+00
16 36 -2.67741351517480020e+00
17 36 -2.89680461621105101e+00
18 36 -2.99999999999999956e+00
19 36 -2.99999999999999956e+00
20 36 -3.00000000000000044e+00
21 36 -2.89680461621105234e+00
22 36 -2.67741351517480108e+00
23 36 -2.34099025766973234e+00
24 36 -1.90165042944955376e+00
25 36 -1.38706757587400453e+00
26 36 -8.32896940432085731e-01
27 36 -2.75242111441598492e-01
28 36 -5.51091059616308956e-16
29 36 2.75242111441597159e-01
30 36 8.32896940432084176e-01
31 36 1.38706757587400298e+00
32 36 1.90165042944955220e+00
33 36 2.34099025766973057e+00
34 36 2.67741351517479975e+00
35 36 2.89680461621105012e+00
36 36 2.99999999999999956e+00
37 36 2.99999999999999956e+00
1 37 3.00000000000000000e+00
2 37 3.00000000000000044e+00
3 37 2.89680461621105234e+00
4 37 2.67741351517480108e+00
5 37 2.34099025766973190e+00
6 37 1.90165042944955287e+00
7 37 1.38706757587400387e+00
8 37 8.32896940432085175e-01
9 37 2.75242111441598103e-01
10 37 1.83697019872102969e-16
11 37 -2.75242111441597603e-01
12 37 -8.32896940432084620e-01
13 37 -1.38706757587400342e+00
14 37 -1.90165042944955243e+00
15 37 -2.34099025766973101e+00
16 37 -2.67741351517479975e+00
17 37 -2.89680461621105101e+00
18 37 -2.99999999999999956e+00
19 37 -3.00000000000000000e+00
20 37 -3.00000000000000044e+00
21 37 -2.89680461621105234e+00
22 37 -2.67741351517480108e+00
23 37 -2.34099025766973234e+00
24 37 -1.90165042944955354e+00
25 37 -1.38706757587400453e+00
26 37 -8.32896940432085731e-01
27 37 -2.75242111441598492e-01
28 37 -5.51091059616308956e-16
29 37 2.75242111441597215e-01
30 37 8.32896940432084176e-01
31 37 1.38706757587400298e+00
32 37 1.90165042944955198e+00
33 37 2.34099025766973057e+00
34 37 2.67741351517479931e+00
35 37 2.89680461621105012e+00
36 37 2.99999999999999956e+00
37 37 3.00000000000000000e+00
