%%MatrixMarket matrix coordinate  real general
37 37 1369
1 1 0.00000000000000000e+00
2 1 -2.75242111441597881e-01
3 1 -8.32896940432084842e-01
4 1 -1.38706757587400364e+00
5 1 -1.90165042944955265e+00
6 1 -2.34099025766973146e+00
7 1 -2.67741351517480020e+00
8 1 -2.89680461621105101e+00
9 1 -2.99999999999999956e+00
10 1 -3.00000000000000000e+00
11 1 -3.00000000000000044e+00
12 1 -2.89680461621105234e+00
13 1 -2.67741351517480108e+00
14 1 -2.34099025766973190e+00
15 1 -1.90165042944955287e+00
16 1 -1.38706757587400387e+00
17 1 -8.32896940432085287e-01
18 1 -2.75242111441598269e-01
19 1 -3.67394039744205888e-16
20 1 2.75242111441597548e-01
21 1 8.32896940432084731e-01
22 1 1.38706757587400364e+00
23 1 1.90165042944955265e+00
24 1 2.34099025766973146e+00
25 1 2.67741351517480020e+00
26 1 2.89680461621105101e+00
27 1 2.99999999999999956e+00
28 1 3.00000000000000000e+00
29 1 3.00000000000000044e+00
30 1 2.89680461621105234e+00
31 1 2.67741351517480108e+00
32 1 2.34099025766973190e+00
33 1 1.90165042944955309e+00
34 1 1.38706757587400431e+00
35 1 8.32896940432085509e-01
36 1 2.75242111441598603e-01
37 1 7.34788079488411776e-16
1 2 0.00000000000000000e+00
2 2 -2.75242111441597881e-01
3 2 -8.32896940432084953e-01
4 2 -1.38706757587400342e+00
5 2 -1.90165042944955265e+00
6 2 -2.34099025766973146e+00
7 2 -2.67741351517480020e+00
8 2 -2.89680461621105101e+00
9 2 -2.99999999999999956e+00
10 2 -3.00000000000000044e+00
11 2 -3.00000000000000044e+00
12 2 -2.89680461621105190e+00
13 2 -2.67741351517480108e+00
14 2 -2.34099025766973146e+00
15 2 -1.90165042944955287e+00
16 2 -1.38706757587400409e+00
17 2 -8.32896940432085398e-01
18 2 -2.75242111441598269e-01
19 2 -3.67394039744205888e-16
20 2 2.75242111441597548e-01
21 2 8.32896940432084620e-01
22 2 1.38706757587400342e+00
23 2 1.90165042944955265e+00
24 2 2.34099025766973146e+00
25 2 2.67741351517480020e+00
26 2 2.89680461621105101e+00
27 2 2.99999999999999956e+00
28 2 3.00000000000000044e+00
29 2 3.00000000000000044e+00
30 2 2.89680461621105190e+00
31 2 2.67741351517480108e+00
32 2 2.34099025766973146e+00
33 2 1.90165042944955309e+00
34 2 1.38706757587400453e+00
35 2 8.32896940432085509e-01
36 2 2.75242111441598547e-01
37 2 7.34788079488411776e-16
1 3 0.00000000000000000e+00
2 3 -2.72086143072142794e-01
3 3 -8.23346816051581776e-01
4 3 -1.37116324578139004e+00
5 3 -1.87984581323850120e+00
6 3 -2.31414810343790789e+00
7 3 -2.64671388014589093e+00
8 3 -2.86358940908532977e+00
9 3 -2.96560153873701715e+00
10 3 -2.96560153873701760e+00
11 3 -2.96560153873701760e+00
12 3 -2.86358940908533111e+00
13 3 -2.64671388014589226e+00
14 3 -2.31414810343790789e+00
15 3 -1.87984581323850120e+00
16 3 -1.37116324578139026e+00
17 3 -8.23346816051582109e-01
18 3 -2.72086143072143127e-01
19 3 -3.63181443196075286e-16
20 3 2.72086143072142461e-01
21 3 8.23346816051581554e-01
22 3 1.37116324578139004e+00
23 3 1.87984581323850097e+00
24 3 2.31414810343790789e+00
25 3 2.64671388014589093e+00
26 3 2.86358940908532977e+00
27 3 2.96560153873701715e+00
28 3 2.96560153873701760e+00
29 3 2.96560153873701760e+00
30 3 2.86358940908533111e+00
31 3 2.64671388014589226e+00
32 3 2.31414810343790789e+00
33 3 1.87984581323850120e+00
34 3 1.37116324578139048e+00
35 3 8.23346816051582220e-01
36 3 2.72086143072143405e-01
37 3 7.26362886392150572e-16
1 4 0.00000000000000000e+00
2 4 -2.65376624196507871e-01
3 4 -8.03043463072568575e-01
4 4 -1.33735099214998110e+00
5 4 -1.83348968196039053e+00
6 4 -2.25708227786620785e+00
7 4 -2.58144713580994312e+00
8 4 -2.79297461417005888e+00
9 4 -2.89247117172493340e+00
10 4 -2.89247117172493384e+00
11 4 -2.89247117172493384e+00
12 4 -2.79297461417005977e+00
13 4 -2.58144713580994312e+00
14 4 -2.25708227786620785e+00
15 4 -1.83348968196039053e+00
16 4 -1.33735099214998177e+00
17 4 -8.03043463072568686e-01
18 4 -2.65376624196508204e-01
19 4 -3.54225556207893268e-16
20 4 2.65376624196507538e-01
21 4 8.03043463072568242e-01
22 4 1.33735099214998110e+00
23 4 1.83348968196039031e+00
24 4 2.25708227786620785e+00
25 4 2.58144713580994312e+00
26 4 2.79297461417005888e+00
27 4 2.89247117172493340e+00
28 4 2.89247117172493384e+00
29 4 2.89247117172493384e+00
30 4 2.79297461417005977e+00
31 4 2.58144713580994312e+00
32 4 2.25708227786620785e+00
33 4 1.83348968196039053e+00
34 4 1.33735099214998177e+00
35 4 8.03043463072568797e-01
36 4 2.65376624196508482e-01
37 4 7.08451112415786536e-16
1 5 0.00000000000000000e+00
2 5 -2.55087974448312826e-01
3 5 -7.71909473976327809e-01
4 5 -1.28550190412162646e+00
5 5 -1.76240530061468714e+00
6 5 -2.16957521472477621e+00
7 5 -2.48136444953625368e+00
8 5 -2.68469100913212078e+00
9 5 -2.78033008588991049e+00
10 5 -2.78033008588991049e+00
11 5 -2.78033008588991049e+00
12 5 -2.68469100913212122e+00
13 5 -2.48136444953625368e+00
14 5 -2.16957521472477621e+00
15 5 -1.76240530061468714e+00
16 5 -1.28550190412162690e+00
17 5 -7.71909473976328031e-01
18 5 -2.55087974448313104e-01
19 5 -3.40492234025816369e-16
20 5 2.55087974448312493e-01
21 5 7.71909473976327476e-01
22 5 1.28550190412162646e+00
23 5 1.76240530061468692e+00
24 5 2.16957521472477621e+00
25 5 2.48136444953625368e+00
26 5 2.68469100913212078e+00
27 5 2.78033008588991049e+00
28 5 2.78033008588991049e+00
29 5 2.78033008588991049e+00
30 5 2.68469100913212122e+00
31 5 2.48136444953625368e+00
32 5 2.16957521472477621e+00
33 5 1.76240530061468714e+00
34 5 1.28550190412162690e+00
35 5 7.71909473976328142e-01
36 5 2.55087974448313326e-01
37 5 6.80984468051632739e-16
1 6 0.00000000000000000e+00
2 6 -2.41651883119456068e-01
3 6 -7.31251163005822824e-01
4 6 -1.21779145628670848e+00
5 6 -1.66957521472477666e+00
6 6 -2.05529851942813968e+00
7 6 -2.35066507244388889e+00
8 6 -2.54328193774616684e+00
9 6 -2.63388347648318444e+00
10 6 -2.63388347648318399e+00
11 6 -2.63388347648318444e+00
12 6 -2.54328193774616729e+00
13 6 -2.35066507244388889e+00
14 6 -2.05529851942813968e+00
15 6 -1.66957521472477644e+00
16 6 -1.21779145628670848e+00
17 6 -7.31251163005823046e-01
18 6 -2.41651883119456345e-01
19 6 -3.22557696880223373e-16
20 6 2.41651883119455735e-01
21 6 7.31251163005822491e-01
22 6 1.21779145628670804e+00
23 6 1.66957521472477644e+00
24 6 2.05529851942813968e+00
25 6 2.35066507244388889e+00
26 6 2.54328193774616684e+00
27 6 2.63388347648318444e+00
28 6 2.63388347648318399e+00
29 6 2.63388347648318444e+00
30 6 2.54328193774616729e+00
31 6 2.35066507244388889e+00
32 6 2.05529851942813968e+00
33 6 1.66957521472477644e+00
34 6 1.21779145628670871e+00
35 6 7.31251163005823268e-01
36 6 2.41651883119456540e-01
37 6 6.45115393760446747e-16
1 7 0.00000000000000000e+00
2 7 -2.25914675216147526e-01
3 7 -6.83629553634502174e-01
4 7 -1.13848465725389025e+00
5 7 -1.56084669200374115e+00
6 7 -1.92145035865211167e+00
7 7 -2.19758161835051258e+00
8 7 -2.37765460600608858e+00
9 7 -2.46235585862466744e+00
10 7 -2.46235585862466744e+00
11 7 -2.46235585862466788e+00
12 7 -2.37765460600608902e+00
13 7 -2.19758161835051258e+00
14 7 -1.92145035865211167e+00
15 7 -1.56084669200374071e+00
16 7 -1.13848465725389025e+00
17 7 -6.83629553634502285e-01
18 7 -2.25914675216147803e-01
19 7 -3.01551622062643132e-16
20 7 2.25914675216147248e-01
21 7 6.83629553634501841e-01
22 7 1.13848465725388981e+00
23 7 1.56084669200374093e+00
24 7 1.92145035865211167e+00
25 7 2.19758161835051258e+00
26 7 2.37765460600608813e+00
27 7 2.46235585862466744e+00
28 7 2.46235585862466744e+00
29 7 2.46235585862466788e+00
30 7 2.37765460600608902e+00
31 7 2.19758161835051258e+00
32 7 1.92145035865211167e+00
33 7 1.56084669200374093e+00
34 7 1.13848465725389048e+00
35 7 6.83629553634502507e-01
36 7 2.25914675216147998e-01
37 7 6.03103244125286264e-16
1 8 0.00000000000000000e+00
2 8 -2.08966775683040201e-01
3 8 -6.32344328441515446e-01
4 8 -1.05307664392911482e+00
5 8 -1.44375348901746814e+00
6 8 -1.77730501880142522e+00
7 8 -2.03272117956771226e+00
8 8 -2.19928526657089263e+00
9 8 -2.27763231347736150e+00
10 8 -2.27763231347736150e+00
11 8 -2.27763231347736195e+00
12 8 -2.19928526657089263e+00
13 8 -2.03272117956771226e+00
14 8 -1.77730501880142522e+00
15 8 -1.44375348901746792e+00
16 8 -1.05307664392911482e+00
17 8 -6.32344328441515668e-01
18 8 -2.08966775683040451e-01
19 8 -2.78929512233463146e-16
20 8 2.08966775683039951e-01
21 8 6.32344328441515335e-01
22 8 1.05307664392911438e+00
23 8 1.44375348901746814e+00
24 8 1.77730501880142522e+00
25 8 2.03272117956771226e+00
26 8 2.19928526657089218e+00
27 8 2.27763231347736150e+00
28 8 2.27763231347736150e+00
29 8 2.27763231347736195e+00
30 8 2.19928526657089263e+00
31 8 2.03272117956771226e+00
32 8 1.77730501880142544e+00
33 8 1.44375348901746792e+00
34 8 1.05307664392911504e+00
35 8 6.32344328441515779e-01
36 8 2.08966775683040645e-01
37 8 5.57859024466926292e-16
1 9 0.00000000000000000e+00
2 9 -1.91912320951157372e-01
3 9 -5.80736661676698240e-01
4 9 -9.67131651504418155e-01
5 9 -1.32592409512475951e+00
6 9 -1.63225340526706852e+00
7 9 -1.86682422668530967e+00
8 9 -2.01979447958511171e+00
9 9 -2.09174737048053272e+00
10 9 -2.09174737048053228e+00
11 9 -2.09174737048053272e+00
12 9 -2.01979447958511171e+00
13 9 -1.86682422668530945e+00
14 9 -1.63225340526706852e+00
15 9 -1.32592409512475928e+00
16 9 -9.67131651504418266e-01
17 9 -5.80736661676698351e-01
18 9 -1.91912320951157622e-01
19 9 -2.56165172188387676e-16
20 9 1.91912320951157178e-01
21 9 5.80736661676698129e-01
22 9 9.67131651504418044e-01
23 9 1.32592409512475951e+00
24 9 1.63225340526706852e+00
25 9 1.86682422668530967e+00
26 9 2.01979447958511171e+00
27 9 2.09174737048053272e+00
28 9 2.09174737048053228e+00
29 9 2.09174737048053272e+00
30 9 2.01979447958511171e+00
31 9 1.86682422668530967e+00
32 9 1.63225340526706875e+00
33 9 1.32592409512475951e+00
34 9 9.67131651504418599e-01
35 9 5.80736661676698573e-01
36 9 1.91912320951157817e-01
37 9 5.12330344376775353e-16
1 10 0.00000000000000000e+00
2 10 -1.83494740961065245e-01
3 10 -5.55264626954723339e-01
4 10 -9.24711717249335874e-01
5 10 -1.26776695296636865e+00
6 10 -1.56066017177982119e+00
7 10 -1.78494234344986702e+00
8 10 -1.93120307747403452e+00
9 10 -2.00000000000000000e+00
10 10 -2.00000000000000000e+00
11 10 -2.00000000000000000e+00
12 10 -1.93120307747403452e+00
13 10 -1.78494234344986702e+00
14 10 -1.56066017177982097e+00
15 10 -1.26776695296636865e+00
16 10 -9.24711717249336096e-01
17 10 -5.55264626954723561e-01
18 10 -1.83494740961065494e-01
19 10 -2.44929359829470641e-16
20 10 1.83494740961065078e-01
21 10 5.55264626954723228e-01
22 10 9.24711717249335874e-01
23 10 1.26776695296636865e+00
24 10 1.56066017177982119e+00
25 10 1.78494234344986702e+00
26 10 1.93120307747403452e+00
27 10 2.00000000000000000e+00
28 10 2.00000000000000000e+00
29 10 2.00000000000000000e+00
30 10 1.93120307747403452e+00
31 10 1.78494234344986724e+00
32 10 1.56066017177982141e+00
33 10 1.26776695296636888e+00
34 10 9.24711717249336318e-01
35 10 5.55264626954723672e-01
36 10 1.83494740961065689e-01
37 10 4.89858719658941283e-16
1 11 0.00000000000000000e+00
2 11 -1.75077160970973117e-01
3 11 -5.29792592232748438e-01
4 11 -8.82291782994253815e-01
5 11 -1.20960981080797780e+00
6 11 -1.48906693829257386e+00
7 11 -1.70306046021442481e+00
8 11 -1.84261167536295734e+00
9 11 -1.90825262951946750e+00
10 11 -1.90825262951946728e+00
11 11 -1.90825262951946750e+00
12 11 -1.84261167536295689e+00
13 11 -1.70306046021442437e+00
14 11 -1.48906693829257342e+00
15 11 -1.20960981080797803e+00
16 11 -8.82291782994253926e-01
17 11 -5.29792592232748771e-01
18 11 -1.75077160970973367e-01
19 11 -2.33693547470553557e-16
20 11 1.75077160970972978e-01
21 11 5.29792592232748327e-01
22 11 8.82291782994253815e-01
23 11 1.20960981080797780e+00
24 11 1.48906693829257386e+00
25 11 1.70306046021442481e+00
26 11 1.84261167536295734e+00
27 11 1.90825262951946750e+00
28 11 1.90825262951946728e+00
29 11 1.90825262951946750e+00
30 11 1.84261167536295689e+00
31 11 1.70306046021442481e+00
32 11 1.48906693829257386e+00
33 11 1.20960981080797803e+00
34 11 8.82291782994254148e-01
35 11 5.29792592232748882e-01
36 11 1.75077160970973589e-01
37 11 4.67387094941107114e-16
1 12 0.00000000000000000e+00
2 12 -1.58022706239090371e-01
3 12 -4.78184925467931399e-01
4 12 -7.96346790569557483e-01
5 12 -1.09178041691526939e+00
6 12 -1.34401532475821717e+00
7 12 -1.53716350733202178e+00
8 12 -1.66312088837717664e+00
9 12 -1.72236768652263827e+00
10 12 -1.72236768652263827e+00
11 12 -1.72236768652263827e+00
12 12 -1.66312088837717598e+00
13 12 -1.53716350733202223e+00
14 12 -1.34401532475821694e+00
15 12 -1.09178041691526961e+00
16 12 -7.96346790569557483e-01
17 12 -4.78184925467931510e-01
18 12 -1.58022706239090566e-01
19 12 -2.10929207425478088e-16
20 12 1.58022706239090205e-01
21 12 4.78184925467931232e-01
22 12 7.96346790569557483e-01
23 12 1.09178041691526939e+00
24 12 1.34401532475821717e+00
25 12 1.53716350733202178e+00
26 12 1.66312088837717664e+00
27 12 1.72236768652263827e+00
28 12 1.72236768652263827e+00
29 12 1.72236768652263827e+00
30 12 1.66312088837717598e+00
31 12 1.53716350733202223e+00
32 12 1.34401532475821717e+00
33 12 1.09178041691526984e+00
34 12 7.96346790569557594e-01
35 12 4.78184925467931676e-01
36 12 1.58022706239090760e-01
37 12 4.21858414850956176e-16
1 13 0.00000000000000000e+00
2 13 -1.41074806705983075e-01
3 13 -4.26899700274944782e-01
4 13 -7.10938777244781828e-01
5 13 -9.74687213928996266e-01
6 13 -1.19986998490753050e+00
7 13 -1.37230306854922190e+00
8 13 -1.48475154894198025e+00
9 13 -1.53764414137533190e+00
10 13 -1.53764414137533167e+00
11 13 -1.53764414137533190e+00
12 13 -1.48475154894198003e+00
13 13 -1.37230306854922190e+00
14 13 -1.19986998490753050e+00
15 13 -9.74687213928996488e-01
16 13 -7.10938777244782161e-01
17 13 -4.26899700274944949e-01
18 13 -1.41074806705983241e-01
19 13 -1.88307097596298028e-16
20 13 1.41074806705982936e-01
21 13 4.26899700274944727e-01
22 13 7.10938777244781828e-01
23 13 9.74687213928996266e-01
24 13 1.19986998490753050e+00
25 13 1.37230306854922190e+00
26 13 1.48475154894198025e+00
27 13 1.53764414137533190e+00
28 13 1.53764414137533167e+00
29 13 1.53764414137533190e+00
30 13 1.48475154894198003e+00
31 13 1.37230306854922190e+00
32 13 1.19986998490753050e+00
33 13 9.74687213928996710e-01
34 13 7.10938777244782272e-01
35 13 4.26899700274945060e-01
36 13 1.41074806705983435e-01
37 13 3.76614195192596055e-16
1 14 0.00000000000000000e+00
2 14 -1.25337598802674560e-01
3 14 -3.79278090903624077e-01
4 14 -6.31631978211963596e-01
5 14 -8.65958691207960762e-01
6 14 -1.06602182413150270e+00
7 14 -1.21921961445584537e+00
8 14 -1.31912421720190176e+00
9 14 -1.36611652351681578e+00
10 14 -1.36611652351681512e+00
11 14 -1.36611652351681578e+00
12 14 -1.31912421720190154e+00
13 14 -1.21921961445584537e+00
14 14 -1.06602182413150270e+00
15 14 -8.65958691207960873e-01
16 14 -6.31631978211963707e-01
17 14 -3.79278090903624243e-01
18 14 -1.25337598802674699e-01
19 14 -1.67301022778717786e-16
20 14 1.25337598802674421e-01
21 14 3.79278090903623966e-01
22 14 6.31631978211963596e-01
23 14 8.65958691207960762e-01
24 14 1.06602182413150270e+00
25 14 1.21921961445584537e+00
26 14 1.31912421720190176e+00
27 14 1.36611652351681578e+00
28 14 1.36611652351681512e+00
29 14 1.36611652351681578e+00
30 14 1.31912421720190154e+00
31 14 1.21921961445584537e+00
32 14 1.06602182413150293e+00
33 14 8.65958691207961095e-01
34 14 6.31631978211964040e-01
35 14 3.79278090903624354e-01
36 14 1.25337598802674866e-01
37 14 3.34602045557435572e-16
1 15 0.00000000000000000e+00
2 15 -1.11901507473817802e-01
3 15 -3.38619779933119147e-01
4 15 -5.63921530377045288e-01
5 15 -7.73128605318050277e-01
6 15 -9.51745128834865839e-01
7 15 -1.08852023736348058e+00
8 15 -1.17771514581594783e+00
9 15 -1.21966991411008951e+00
10 15 -1.21966991411008907e+00
11 15 -1.21966991411008951e+00
12 15 -1.17771514581594761e+00
13 15 -1.08852023736348058e+00
14 15 -9.51745128834865839e-01
15 15 -7.73128605318050277e-01
16 15 -5.63921530377045510e-01
17 15 -3.38619779933119258e-01
18 15 -1.11901507473817927e-01
19 15 -1.49366485633124766e-16
20 15 1.11901507473817677e-01
21 15 3.38619779933118981e-01
22 15 5.63921530377045288e-01
23 15 7.73128605318050277e-01
24 15 9.51745128834865839e-01
25 15 1.08852023736348058e+00
26 15 1.17771514581594783e+00
27 15 1.21966991411008951e+00
28 15 1.21966991411008907e+00
29 15 1.21966991411008951e+00
30 15 1.17771514581594761e+00
31 15 1.08852023736348080e+00
32 15 9.51745128834865950e-01
33 15 7.73128605318050277e-01
34 15 5.63921530377045732e-01
35 15 3.38619779933119425e-01
36 15 1.11901507473818079e-01
37 15 2.98732971266249531e-16
1 16 0.00000000000000000e+00
2 16 -1.01612857725622729e-01
3 16 -3.07485790836878325e-01
4 16 -5.12072442348690759e-01
5 16 -7.02044223972346670e-01
6 16 -8.64238065693434421e-01
7 16 -9.88437551089791144e-01
8 16 -1.06943154077800973e+00
9 16 -1.10752882827506638e+00
10 16 -1.10752882827506616e+00
11 16 -1.10752882827506638e+00
12 16 -1.06943154077800973e+00
13 16 -9.88437551089791144e-01
14 16 -8.64238065693434532e-01
15 16 -7.02044223972346781e-01
16 16 -5.12072442348690871e-01
17 16 -3.07485790836878436e-01
18 16 -1.01612857725622854e-01
19 16 -1.35633163451047818e-16
20 16 1.01612857725622632e-01
21 16 3.07485790836878214e-01
22 16 5.12072442348690759e-01
23 16 7.02044223972346670e-01
24 16 8.64238065693434421e-01
25 16 9.88437551089791144e-01
26 16 1.06943154077800973e+00
27 16 1.10752882827506638e+00
28 16 1.10752882827506616e+00
29 16 1.10752882827506638e+00
30 16 1.06943154077800973e+00
31 16 9.88437551089791588e-01
32 16 8.64238065693434643e-01
33 16 7.02044223972346781e-01
34 16 5.12072442348691093e-01
35 16 3.07485790836878603e-01
36 16 1.01612857725622993e-01
37 16 2.71266326902095635e-16
1 17 0.00000000000000000e+00
2 17 -9.49033388499877784e-02
3 17 -2.87182437857865014e-01
4 17 -4.78260188717281765e-01
5 17 -6.55688092694235891e-01
6 17 -8.07172240121734497e-01
7 17 -9.23170806753842443e-01
8 17 -9.98816745862738942e-01
9 17 -1.03439846126298285e+00
10 17 -1.03439846126298263e+00
11 17 -1.03439846126298285e+00
12 17 -9.98816745862739053e-01
13 17 -9.23170806753842332e-01
14 17 -8.07172240121734608e-01
15 17 -6.55688092694236002e-01
16 17 -4.78260188717281820e-01
17 17 -2.87182437857865069e-01
18 17 -9.49033388499878894e-02
19 17 -1.26677276462865898e-16
20 17 9.49033388499876812e-02
21 17 2.87182437857864903e-01
22 17 4.78260188717281765e-01
23 17 6.55688092694235891e-01
24 17 8.07172240121734497e-01
25 17 9.23170806753842443e-01
26 17 9.98816745862738942e-01
27 17 1.03439846126298285e+00
28 17 1.03439846126298263e+00
29 17 1.03439846126298285e+00
30 17 9.98816745862739053e-01
31 17 9.23170806753842665e-01
32 17 8.07172240121734719e-01
33 17 6.55688092694236113e-01
34 17 4.78260188717282042e-01
35 17 2.87182437857865236e-01
36 17 9.49033388499880282e-02
37 17 2.53354552925731796e-16
1 18 0.00000000000000000e+00
2 18 -9.17473704805326223e-02
3 18 -2.77632313477361670e-01
4 18 -4.62355858624667937e-01
5 18 -6.33883476483184327e-01
6 18 -7.80330085889910485e-01
7 18 -8.92471171724933510e-01
8 18 -9.65601538737017040e-01
9 18 -1.00000000000000000e+00
10 18 -1.00000000000000000e+00
11 18 -1.00000000000000000e+00
12 18 -9.65601538737017151e-01
13 18 -8.92471171724933399e-01
14 18 -7.80330085889910485e-01
15 18 -6.33883476483184327e-01
16 18 -4.62355858624668103e-01
17 18 -2.77632313477361781e-01
18 18 -9.17473704805327472e-02
19 18 -1.22464679914735296e-16
20 18 9.17473704805325391e-02
21 18 2.77632313477361614e-01
22 18 4.62355858624667937e-01
23 18 6.33883476483184327e-01
24 18 7.80330085889910485e-01
25 18 8.92471171724933510e-01
26 18 9.65601538737017040e-01
27 18 1.00000000000000000e+00
28 18 1.00000000000000000e+00
29 18 1.00000000000000000e+00
30 18 9.65601538737017151e-01
31 18 8.92471171724933510e-01
32 18 7.80330085889910596e-01
33 18 6.33883476483184438e-01
34 18 4.62355858624668214e-01
35 18 2.77632313477361947e-01
36 18 9.17473704805328721e-02
37 18 2.44929359829470592e-16
1 19 0.00000000000000000e+00
2 19 -9.17473704805326223e-02
3 19 -2.77632313477361670e-01
4 19 -4.62355858624667937e-01
5 19 -6.33883476483184327e-01
6 19 -7.80330085889910596e-01
7 19 -8.92471171724933510e-01
8 19 -9.65601538737017151e-01
9 19 -1.00000000000000000e+00
10 19 -1.00000000000000000e+00
11 19 -1.00000000000000000e+00
12 19 -9.65601538737017262e-01
13 19 -8.92471171724933510e-01
14 19 -7.80330085889910485e-01
15 19 -6.33883476483184327e-01
16 19 -4.62355858624668048e-01
17 19 -2.77632313477361781e-01
18 19 -9.17473704805327472e-02
19 19 -1.22464679914735321e-16
20 19 9.17473704805325391e-02
21 19 2.77632313477361614e-01
22 19 4.62355858624667937e-01
23 19 6.33883476483184327e-01
24 19 7.80330085889910596e-01
25 19 8.92471171724933510e-01
26 19 9.65601538737017151e-01
27 19 1.00000000000000000e+00
28 19 1.00000000000000000e+00
29 19 1.00000000000000000e+00
30 19 9.65601538737017262e-01
31 19 8.92471171724933621e-01
32 19 7.80330085889910707e-01
33 19 6.33883476483184438e-01
34 19 4.62355858624668159e-01
35 19 2.77632313477361947e-01
36 19 9.17473704805328583e-02
37 19 2.44929359829470641e-16
1 20 0.00000000000000000e+00
2 20 -9.17473704805326223e-02
3 20 -2.77632313477361670e-01
4 20 -4.62355858624667937e-01
5 20 -6.33883476483184216e-01
6 20 -7.80330085889910485e-01
7 20 -8.92471171724933510e-01
8 20 -9.65601538737017151e-01
9 20 -1.00000000000000000e+00
10 20 -1.00000000000000000e+00
11 20 -1.00000000000000000e+00
12 20 -9.65601538737017151e-01
13 20 -8.92471171724933510e-01
14 20 -7.80330085889910485e-01
15 20 -6.33883476483184327e-01
16 20 -4.62355858624668103e-01
17 20 -2.77632313477361781e-01
18 20 -9.17473704805327472e-02
19 20 -1.22464679914735321e-16
20 20 9.17473704805325391e-02
21 20 2.77632313477361614e-01
22 20 4.62355858624667937e-01
23 20 6.33883476483184216e-01
24 20 7.80330085889910485e-01
25 20 8.92471171724933510e-01
26 20 9.65601538737017151e-01
27 20 1.00000000000000000e+00
28 20 1.00000000000000000e+00
29 20 1.00000000000000000e+00
30 20 9.65601538737017151e-01
31 20 8.92471171724933510e-01
32 20 7.80330085889910485e-01
33 20 6.33883476483184438e-01
34 20 4.62355858624668214e-01
35 20 2.77632313477362003e-01
36 20 9.17473704805328721e-02
37 20 2.44929359829470641e-16
1 21 0.00000000000000000e+00
2 21 -9.49033388499877645e-02
3 21 -2.87182437857865069e-01
4 21 -4.78260188717281820e-01
5 21 -6.55688092694235891e-01
6 21 -8.07172240121734830e-01
7 21 -9.23170806753842554e-01
8 21 -9.98816745862739053e-01
9 21 -1.03439846126298285e+00
10 21 -1.03439846126298285e+00
11 21 -1.03439846126298285e+00
12 21 -9.98816745862739053e-01
13 21 -9.23170806753842776e-01
14 21 -8.07172240121734608e-01
15 21 -6.55688092694236002e-01
16 21 -4.78260188717281820e-01
17 21 -2.87182437857865125e-01
18 21 -9.49033388499879033e-02
19 21 -1.26677276462865923e-16
20 21 9.49033388499876673e-02
21 21 2.87182437857864958e-01
22 21 4.78260188717281765e-01
23 21 6.55688092694235891e-01
24 21 8.07172240121734830e-01
25 21 9.23170806753842554e-01
26 21 9.98816745862739053e-01
27 21 1.03439846126298285e+00
28 21 1.03439846126298285e+00
29 21 1.03439846126298285e+00
30 21 9.98816745862739053e-01
31 21 9.23170806753842776e-01
32 21 8.07172240121734830e-01
33 21 6.55688092694236113e-01
34 21 4.78260188717282042e-01
35 21 2.87182437857865291e-01
36 21 9.49033388499880143e-02
37 21 2.53354552925731846e-16
1 22 0.00000000000000000e+00
2 22 -1.01612857725622729e-01
3 22 -3.07485790836878325e-01
4 22 -5.12072442348690871e-01
5 22 -7.02044223972346670e-01
6 22 -8.64238065693434532e-01
7 22 -9.88437551089791477e-01
8 22 -1.06943154077800973e+00
9 22 -1.10752882827506638e+00
10 22 -1.10752882827506638e+00
11 22 -1.10752882827506638e+00
12 22 -1.06943154077800973e+00
13 22 -9.88437551089791255e-01
14 22 -8.64238065693434421e-01
15 22 -7.02044223972346781e-01
16 22 -5.12072442348690982e-01
17 22 -3.07485790836878436e-01
18 22 -1.01612857725622868e-01
19 22 -1.35633163451047842e-16
20 22 1.01612857725622632e-01
21 22 3.07485790836878214e-01
22 22 5.12072442348690759e-01
23 22 7.02044223972346670e-01
24 22 8.64238065693434532e-01
25 22 9.88437551089791477e-01
26 22 1.06943154077800973e+00
27 22 1.10752882827506638e+00
28 22 1.10752882827506638e+00
29 22 1.10752882827506660e+00
30 22 1.06943154077800973e+00
31 22 9.88437551089791588e-01
32 22 8.64238065693434754e-01
33 22 7.02044223972347003e-01
34 22 5.12072442348691204e-01
35 22 3.07485790836878548e-01
36 22 1.01612857725622993e-01
37 22 2.71266326902095685e-16
1 23 0.00000000000000000e+00
2 23 -1.11901507473817774e-01
3 23 -3.38619779933119147e-01
4 23 -5.63921530377045621e-01
5 23 -7.73128605318050277e-01
6 23 -9.51745128834865839e-01
7 23 -1.08852023736348080e+00
8 23 -1.17771514581594783e+00
9 23 -1.21966991411008951e+00
10 23 -1.21966991411008951e+00
11 23 -1.21966991411008929e+00
12 23 -1.17771514581594783e+00
13 23 -1.08852023736348058e+00
14 23 -9.51745128834865728e-01
15 23 -7.73128605318050388e-01
16 23 -5.63921530377045621e-01
17 23 -3.38619779933119258e-01
18 23 -1.11901507473817954e-01
19 23 -1.49366485633124790e-16
20 23 1.11901507473817677e-01
21 23 3.38619779933119092e-01
22 23 5.63921530377045288e-01
23 23 7.73128605318050277e-01
24 23 9.51745128834865839e-01
25 23 1.08852023736348080e+00
26 23 1.17771514581594783e+00
27 23 1.21966991411008951e+00
28 23 1.21966991411008951e+00
29 23 1.21966991411008951e+00
30 23 1.17771514581594783e+00
31 23 1.08852023736348080e+00
32 23 9.51745128834865950e-01
33 23 7.73128605318050499e-01
34 23 5.63921530377045843e-01
35 23 3.38619779933119314e-01
36 23 1.11901507473818079e-01
37 23 2.98732971266249580e-16
1 24 0.00000000000000000e+00
2 24 -1.25337598802674560e-01
3 24 -3.79278090903624077e-01
4 24 -6.31631978211963929e-01
5 24 -8.65958691207960873e-01
6 24 -1.06602182413150270e+00
7 24 -1.21921961445584559e+00
8 24 -1.31912421720190176e+00
9 24 -1.36611652351681578e+00
10 24 -1.36611652351681556e+00
11 24 -1.36611652351681534e+00
12 24 -1.31912421720190176e+00
13 24 -1.21921961445584537e+00
14 24 -1.06602182413150248e+00
15 24 -8.65958691207961095e-01
16 24 -6.31631978211963929e-01
17 24 -3.79278090903624299e-01
18 24 -1.25337598802674727e-01
19 24 -1.67301022778717786e-16
20 24 1.25337598802674421e-01
21 24 3.79278090903624021e-01
22 24 6.31631978211963596e-01
23 24 8.65958691207960873e-01
24 24 1.06602182413150270e+00
25 24 1.21921961445584559e+00
26 24 1.31912421720190176e+00
27 24 1.36611652351681578e+00
28 24 1.36611652351681556e+00
29 24 1.36611652351681578e+00
30 24 1.31912421720190176e+00
31 24 1.21921961445584559e+00
32 24 1.06602182413150293e+00
33 24 8.65958691207961317e-01
34 24 6.31631978211964151e-01
35 24 3.79278090903624299e-01
36 24 1.25337598802674893e-01
37 24 3.34602045557435572e-16
1 25 0.00000000000000000e+00
2 25 -1.41074806705983075e-01
3 25 -4.26899700274944782e-01
4 25 -7.10938777244782161e-01
5 25 -9.74687213928996377e-01
6 25 -1.19986998490753050e+00
7 25 -1.37230306854922235e+00
8 25 -1.48475154894198003e+00
9 25 -1.53764414137533190e+00
10 25 -1.53764414137533167e+00
11 25 -1.53764414137533167e+00
12 25 -1.48475154894198025e+00
13 25 -1.37230306854922190e+00
14 25 -1.19986998490753027e+00
15 25 -9.74687213928996377e-01
16 25 -7.10938777244782161e-01
17 25 -4.26899700274945004e-01
18 25 -1.41074806705983241e-01
19 25 -1.88307097596298052e-16
20 25 1.41074806705982936e-01
21 25 4.26899700274944727e-01
22 25 7.10938777244781828e-01
23 25 9.74687213928996377e-01
24 25 1.19986998490753050e+00
25 25 1.37230306854922235e+00
26 25 1.48475154894198003e+00
27 25 1.53764414137533190e+00
28 25 1.53764414137533167e+00
29 25 1.53764414137533190e+00
30 25 1.48475154894198025e+00
31 25 1.37230306854922235e+00
32 25 1.19986998490753094e+00
33 25 9.74687213928996710e-01
34 25 7.10938777244782383e-01
35 25 4.26899700274945060e-01
36 25 1.41074806705983435e-01
37 25 3.76614195192596105e-16
1 26 0.00000000000000000e+00
2 26 -1.58022706239090371e-01
3 26 -4.78184925467931232e-01
4 26 -7.96346790569557594e-01
5 26 -1.09178041691526939e+00
6 26 -1.34401532475821694e+00
7 26 -1.53716350733202245e+00
8 26 -1.66312088837717575e+00
9 26 -1.72236768652263850e+00
10 26 -1.72236768652263805e+00
11 26 -1.72236768652263827e+00
12 26 -1.66312088837717598e+00
13 26 -1.53716350733202201e+00
14 26 -1.34401532475821672e+00
15 26 -1.09178041691526939e+00
16 26 -7.96346790569557594e-01
17 26 -4.78184925467931510e-01
18 26 -1.58022706239090593e-01
19 26 -2.10929207425478088e-16
20 26 1.58022706239090233e-01
21 26 4.78184925467931177e-01
22 26 7.96346790569557150e-01
23 26 1.09178041691526939e+00
24 26 1.34401532475821694e+00
25 26 1.53716350733202245e+00
26 26 1.66312088837717575e+00
27 26 1.72236768652263850e+00
28 26 1.72236768652263805e+00
29 26 1.72236768652263827e+00
30 26 1.66312088837717598e+00
31 26 1.53716350733202245e+00
32 26 1.34401532475821717e+00
33 26 1.09178041691526961e+00
34 26 7.96346790569557927e-01
35 26 4.78184925467931565e-01
36 26 1.58022706239090788e-01
37 26 4.21858414850956176e-16
1 27 0.00000000000000000e+00
2 27 -1.75077160970973117e-01
3 27 -5.29792592232748438e-01
4 27 -8.82291782994253815e-01
5 27 -1.20960981080797803e+00
6 27 -1.48906693829257364e+00
7 27 -1.70306046021442481e+00
8 27 -1.84261167536295689e+00
9 27 -1.90825262951946750e+00
10 27 -1.90825262951946728e+00
11 27 -1.90825262951946728e+00
12 27 -1.84261167536295689e+00
13 27 -1.70306046021442437e+00
14 27 -1.48906693829257364e+00
15 27 -1.20960981080797803e+00
16 27 -8.82291782994254037e-01
17 27 -5.29792592232748660e-01
18 27 -1.75077160970973367e-01
19 27 -2.33693547470553557e-16
20 27 1.75077160970972978e-01
21 27 5.29792592232748327e-01
22 27 8.82291782994253593e-01
23 27 1.20960981080797803e+00
24 27 1.48906693829257364e+00
25 27 1.70306046021442481e+00
26 27 1.84261167536295689e+00
27 27 1.90825262951946750e+00
28 27 1.90825262951946728e+00
29 27 1.90825262951946728e+00
30 27 1.84261167536295689e+00
31 27 1.70306046021442481e+00
32 27 1.48906693829257386e+00
33 27 1.20960981080797803e+00
34 27 8.82291782994254259e-01
35 27 5.29792592232748771e-01
36 27 1.75077160970973561e-01
37 27 4.67387094941107114e-16
1 28 0.00000000000000000e+00
2 28 -1.83494740961065245e-01
3 28 -5.55264626954723339e-01
4 28 -9.24711717249335874e-01
5 28 -1.26776695296636865e+00
6 28 -1.56066017177982119e+00
7 28 -1.78494234344986702e+00
8 28 -1.93120307747403452e+00
9 28 -2.00000000000000000e+00
10 28 -2.00000000000000000e+00
11 28 -2.00000000000000000e+00
12 28 -1.93120307747403452e+00
13 28 -1.78494234344986702e+00
14 28 -1.56066017177982097e+00
15 28 -1.26776695296636865e+00
16 28 -9.24711717249336096e-01
17 28 -5.55264626954723561e-01
18 28 -1.83494740961065494e-01
19 28 -2.44929359829470641e-16
20 28 1.83494740961065078e-01
21 28 5.55264626954723228e-01
22 28 9.24711717249335874e-01
23 28 1.26776695296636865e+00
24 28 1.56066017177982119e+00
25 28 1.78494234344986702e+00
26 28 1.93120307747403452e+00
27 28 2.00000000000000000e+00
28 28 2.00000000000000000e+00
29 28 2.00000000000000000e+00
30 28 1.93120307747403452e+00
31 28 1.78494234344986724e+00
32 28 1.56066017177982141e+00
33 28 1.26776695296636888e+00
34 28 9.24711717249336318e-01
35 28 5.55264626954723672e-01
36 28 1.83494740961065689e-01
37 28 4.89858719658941283e-16
1 29 0.00000000000000000e+00
2 29 -1.91912320951157372e-01
3 29 -5.80736661676698240e-01
4 29 -9.67131651504418155e-01
5 29 -1.32592409512475928e+00
6 29 -1.63225340526706875e+00
7 29 -1.86682422668530967e+00
8 29 -2.01979447958511171e+00
9 29 -2.09174737048053272e+00
10 29 -2.09174737048053272e+00
11 29 -2.09174737048053272e+00
12 29 -2.01979447958511171e+00
13 29 -1.86682422668530945e+00
14 29 -1.63225340526706852e+00
15 29 -1.32592409512475928e+00
16 29 -9.67131651504418266e-01
17 29 -5.80736661676698573e-01
18 29 -1.91912320951157622e-01
19 29 -2.56165172188387676e-16
20 29 1.91912320951157178e-01
21 29 5.80736661676698129e-01
22 29 9.67131651504418155e-01
23 29 1.32592409512475928e+00
24 29 1.63225340526706875e+00
25 29 1.86682422668530967e+00
26 29 2.01979447958511171e+00
27 29 2.09174737048053272e+00
28 29 2.09174737048053272e+00
29 29 2.09174737048053272e+00
30 29 2.01979447958511171e+00
31 29 1.86682422668530967e+00
32 29 1.63225340526706875e+00
33 29 1.32592409512475951e+00
34 29 9.67131651504418599e-01
35 29 5.80736661676698573e-01
36 29 1.91912320951157844e-01
37 29 5.12330344376775353e-16
1 30 0.00000000000000000e+00
2 30 -2.08966775683040229e-01
3 30 -6.32344328441515446e-01
4 30 -1.05307664392911482e+00
5 30 -1.44375348901746792e+00
6 30 -1.77730501880142588e+00
7 30 -2.03272117956771226e+00
8 30 -2.19928526657089263e+00
9 30 -2.27763231347736239e+00
10 30 -2.27763231347736150e+00
11 30 -2.27763231347736239e+00
12 30 -2.19928526657089263e+00
13 30 -2.03272117956771270e+00
14 30 -1.77730501880142566e+00
15 30 -1.44375348901746792e+00
16 30 -1.05307664392911482e+00
17 30 -6.32344328441515779e-01
18 30 -2.08966775683040423e-01
19 30 -2.78929512233463195e-16
20 30 2.08966775683039924e-01
21 30 6.32344328441515224e-01
22 30 1.05307664392911482e+00
23 30 1.44375348901746769e+00
24 30 1.77730501880142588e+00
25 30 2.03272117956771226e+00
26 30 2.19928526657089263e+00
27 30 2.27763231347736239e+00
28 30 2.27763231347736150e+00
29 30 2.27763231347736239e+00
30 30 2.19928526657089263e+00
31 30 2.03272117956771270e+00
32 30 1.77730501880142588e+00
33 30 1.44375348901746792e+00
34 30 1.05307664392911482e+00
35 30 6.32344328441515890e-01
36 30 2.08966775683040673e-01
37 30 5.57859024466926390e-16
1 31 0.00000000000000000e+00
2 31 -2.25914675216147554e-01
3 31 -6.83629553634502063e-01
4 31 -1.13848465725389025e+00
5 31 -1.56084669200374093e+00
6 31 -1.92145035865211233e+00
7 31 -2.19758161835051258e+00
8 31 -2.37765460600608858e+00
9 31 -2.46235585862466833e+00
10 31 -2.46235585862466833e+00
11 31 -2.46235585862466833e+00
12 31 -2.37765460600608858e+00
13 31 -2.19758161835051258e+00
14 31 -1.92145035865211167e+00
15 31 -1.56084669200374071e+00
16 31 -1.13848465725389048e+00
17 31 -6.83629553634502063e-01
18 31 -2.25914675216147803e-01
19 31 -3.01551622062643181e-16
20 31 2.25914675216147220e-01
21 31 6.83629553634501619e-01
22 31 1.13848465725389025e+00
23 31 1.56084669200374071e+00
24 31 1.92145035865211233e+00
25 31 2.19758161835051258e+00
26 31 2.37765460600608858e+00
27 31 2.46235585862466833e+00
28 31 2.46235585862466833e+00
29 31 2.46235585862466833e+00
30 31 2.37765460600608858e+00
31 31 2.19758161835051258e+00
32 31 1.92145035865211211e+00
33 31 1.56084669200374071e+00
34 31 1.13848465725389048e+00
35 31 6.83629553634502396e-01
36 31 2.25914675216148053e-01
37 31 6.03103244125286362e-16
1 32 0.00000000000000000e+00
2 32 -2.41651883119456068e-01
3 32 -7.31251163005822824e-01
4 32 -1.21779145628670826e+00
5 32 -1.66957521472477666e+00
6 32 -2.05529851942814012e+00
7 32 -2.35066507244388889e+00
8 32 -2.54328193774616684e+00
9 32 -2.63388347648318444e+00
10 32 -2.63388347648318444e+00
11 32 -2.63388347648318488e+00
12 32 -2.54328193774616729e+00
13 32 -2.35066507244388978e+00
14 32 -2.05529851942813968e+00
15 32 -1.66957521472477644e+00
16 32 -1.21779145628670848e+00
17 32 -7.31251163005822824e-01
18 32 -2.41651883119456318e-01
19 32 -3.22557696880223472e-16
20 32 2.41651883119455735e-01
21 32 7.31251163005822380e-01
22 32 1.21779145628670826e+00
23 32 1.66957521472477644e+00
24 32 2.05529851942814012e+00
25 32 2.35066507244388889e+00
26 32 2.54328193774616684e+00
27 32 2.63388347648318444e+00
28 32 2.63388347648318444e+00
29 32 2.63388347648318488e+00
30 32 2.54328193774616729e+00
31 32 2.35066507244388978e+00
32 32 2.05529851942813968e+00
33 32 1.66957521472477644e+00
34 32 1.21779145628670871e+00
35 32 7.31251163005823157e-01
36 32 2.41651883119456623e-01
37 32 6.45115393760446944e-16
1 33 0.00000000000000000e+00
2 33 -2.55087974448312826e-01
3 33 -7.71909473976327809e-01
4 33 -1.28550190412162646e+00
5 33 -1.76240530061468736e+00
6 33 -2.16957521472477710e+00
7 33 -2.48136444953625368e+00
8 33 -2.68469100913212078e+00
9 33 -2.78033008588991049e+00
10 33 -2.78033008588991004e+00
11 33 -2.78033008588991093e+00
12 33 -2.68469100913212078e+00
13 33 -2.48136444953625412e+00
14 33 -2.16957521472477666e+00
15 33 -1.76240530061468714e+00
16 33 -1.28550190412162668e+00
17 33 -7.71909473976327809e-01
18 33 -2.55087974448313104e-01
19 33 -3.40492234025816419e-16
20 33 2.55087974448312493e-01
21 33 7.71909473976327365e-01
22 33 1.28550190412162646e+00
23 33 1.76240530061468692e+00
24 33 2.16957521472477710e+00
25 33 2.48136444953625368e+00
26 33 2.68469100913212033e+00
27 33 2.78033008588991049e+00
28 33 2.78033008588991004e+00
29 33 2.78033008588991093e+00
30 33 2.68469100913212078e+00
31 33 2.48136444953625412e+00
32 33 2.16957521472477666e+00
33 33 1.76240530061468714e+00
34 33 1.28550190412162690e+00
35 33 7.71909473976328253e-01
36 33 2.55087974448313437e-01
37 33 6.80984468051632837e-16
1 34 0.00000000000000000e+00
2 34 -2.65376624196507871e-01
3 34 -8.03043463072568686e-01
4 34 -1.33735099214998110e+00
5 34 -1.83348968196039119e+00
6 34 -2.25708227786620830e+00
7 34 -2.58144713580994267e+00
8 34 -2.79297461417005843e+00
9 34 -2.89247117172493340e+00
10 34 -2.89247117172493295e+00
11 34 -2.89247117172493429e+00
12 34 -2.79297461417005932e+00
13 34 -2.58144713580994356e+00
14 34 -2.25708227786620785e+00
15 34 -1.83348968196039053e+00
16 34 -1.33735099214998132e+00
17 34 -8.03043463072568686e-01
18 34 -2.65376624196508148e-01
19 34 -3.54225556207893317e-16
20 34 2.65376624196507482e-01
21 34 8.03043463072568242e-01
22 34 1.33735099214998110e+00
23 34 1.83348968196039031e+00
24 34 2.25708227786620830e+00
25 34 2.58144713580994267e+00
26 34 2.79297461417005843e+00
27 34 2.89247117172493340e+00
28 34 2.89247117172493295e+00
29 34 2.89247117172493429e+00
30 34 2.79297461417005932e+00
31 34 2.58144713580994356e+00
32 34 2.25708227786620785e+00
33 34 1.83348968196039053e+00
34 34 1.33735099214998132e+00
35 34 8.03043463072569130e-01
36 34 2.65376624196508537e-01
37 34 7.08451112415786634e-16
1 35 0.00000000000000000e+00
2 35 -2.72086143072142794e-01
3 35 -8.23346816051581776e-01
4 35 -1.37116324578138982e+00
5 35 -1.87984581323850164e+00
6 35 -2.31414810343790789e+00
7 35 -2.64671388014589137e+00
8 35 -2.86358940908532933e+00
9 35 -2.96560153873701715e+00
10 35 -2.96560153873701671e+00
11 35 -2.96560153873701804e+00
12 35 -2.86358940908533022e+00
13 35 -2.64671388014589226e+00
14 35 -2.31414810343790789e+00
15 35 -1.87984581323850120e+00
16 35 -1.37116324578139048e+00
17 35 -8.23346816051581998e-01
18 35 -2.72086143072143127e-01
19 35 -3.63181443196075286e-16
20 35 2.72086143072142461e-01
21 35 8.23346816051581443e-01
22 35 1.37116324578138982e+00
23 35 1.87984581323850097e+00
24 35 2.31414810343790789e+00
25 35 2.64671388014589137e+00
26 35 2.86358940908532889e+00
27 35 2.96560153873701715e+00
28 35 2.96560153873701671e+00
29 35 2.96560153873701804e+00
30 35 2.86358940908533022e+00
31 35 2.64671388014589226e+00
32 35 2.31414810343790789e+00
33 35 1.87984581323850120e+00
34 35 1.37116324578139048e+00
35 35 8.23346816051582331e-01
36 35 2.72086143072143516e-01
37 35 7.26362886392150572e-16
1 36 0.00000000000000000e+00
2 36 -2.75242111441597881e-01
3 36 -8.32896940432084953e-01
4 36 -1.38706757587400342e+00
5 36 -1.90165042944955287e+00
6 36 -2.34099025766973146e+00
7 36 -2.67741351517480020e+00
8 36 -2.89680461621105101e+00
9 36 -2.99999999999999956e+00
10 36 -2.99999999999999956e+00
11 36 -3.00000000000000044e+00
12 36 -2.89680461621105234e+00
13 36 -2.67741351517480108e+00
14 36 -2.34099025766973190e+00
15 36 -1.90165042944955287e+00
16 36 -1.38706757587400409e+00
17 36 -8.32896940432085287e-01
18 36 -2.75242111441598269e-01
19 36 -3.67394039744205888e-16
20 36 2.75242111441597548e-01
21 36 8.32896940432084620e-01
22 36 1.38706757587400342e+00
23 36 1.90165042944955265e+00
24 36 2.34099025766973146e+00
25 36 2.67741351517480020e+00
26 36 2.89680461621105101e+00
27 36 2.99999999999999956e+00
28 36 2.99999999999999956e+00
29 36 3.00000000000000044e+00
30 36 2.89680461621105234e+00
31 36 2.67741351517480108e+00
32 36 2.34099025766973190e+00
33 36 1.90165042944955287e+00
34 36 1.38706757587400431e+00
35 36 8.32896940432085620e-01
36 36 2.75242111441598658e-01
37 36 7.34788079488411776e-16
1 37 0.00000000000000000e+00
2 37 -2.75242111441597881e-01
3 37 -8.32896940432084842e-01
4 37 -1.38706757587400364e+00
5 37 -1.90165042944955265e+00
6 37 -2.34099025766973146e+00
7 37 -2.67741351517480020e+00
8 37 -2.89680461621105101e+00
9 37 -2.99999999999999956e+00
10 37 -3.00000000000000000e+00
11 37 -3.00000000000000044e+00
12 37 -2.89680461621105234e+00
13 37 -2.67741351517480108e+00
14 37 -2.34099025766973190e+00
15 37 -1.90165042944955287e+00
16 37 -1.38706757587400387e+00
17 37 -8.32896940432085287e-01
18 37 -2.75242111441598269e-01
19 37 -3.67394039744205888e-16
20 37 2.75242111441597548e-01
21 37 8.32896940432084731e-01
22 37 1.38706757587400364e+00
23 37 1.90165042944955265e+00
24 37 2.34099025766973146e+00
25 37 2.67741351517480020e+00
26 37 2.89680461621105101e+00
27 37 2.99999999999999956e+00
28 37 3.00000000000000000e+00
29 37 3.00000000000000044e+00
30 37 2.89680461621105234e+00
31 37 2.67741351517480108e+00
32 37 2.34099025766973190e+00
33 37 1.90165042944955309e+00
34 37 1.38706757587400431e+00
35 37 8.32896940432085509e-01
36 37 2.75242111441598603e-01
37 37 7.34788079488411776e-16
