%%MatrixMarket matrix coordinate  real general
37 37 1369
1 1 0.00000000000000000e+00
2 1 0.00000000000000000e+00
3 1 0.00000000000000000e+00
4 1 0.00000000000000000e+00
5 1 0.00000000000000000e+00
6 1 0.00000000000000000e+00
7 1 0.00000000000000000e+00
8 1 0.00000000000000000e+00
9 1 0.00000000000000000e+00
10 1 0.00000000000000000e+00
11 1 0.00000000000000000e+00
12 1 0.00000000000000000e+00
13 1 0.00000000000000000e+00
14 1 0.00000000000000000e+00
15 1 0.00000000000000000e+00
16 1 0.00000000000000000e+00
17 1 0.00000000000000000e+00
18 1 0.00000000000000000e+00
19 1 0.00000000000000000e+00
20 1 0.00000000000000000e+00
21 1 0.00000000000000000e+00
22 1 0.00000000000000000e+00
23 1 0.00000000000000000e+00
24 1 0.00000000000000000e+00
25 1 0.00000000000000000e+00
26 1 0.00000000000000000e+00
27 1 0.00000000000000000e+00
28 1 0.00000000000000000e+00
29 1 0.00000000000000000e+00
30 1 0.00000000000000000e+00
31 1 0.00000000000000000e+00
32 1 0.00000000000000000e+00
33 1 0.00000000000000000e+00
34 1 0.00000000000000000e+00
35 1 0.00000000000000000e+00
36 1 0.00000000000000000e+00
37 1 0.00000000000000000e+00
1 2 9.17473704805326223e-02
2 2 9.17473704805326917e-02
3 2 9.17473704805326223e-02
4 2 9.17473704805326640e-02
5 2 9.17473704805326501e-02
6 2 9.17473704805326501e-02
7 2 9.17473704805326917e-02
8 2 9.17473704805326362e-02
9 2 9.17473704805326778e-02
10 2 9.17473704805326223e-02
11 2 9.17473704805326917e-02
12 2 9.17473704805326223e-02
13 2 9.17473704805326640e-02
14 2 9.17473704805326501e-02
15 2 9.17473704805326501e-02
16 2 9.17473704805326917e-02
17 2 9.17473704805326362e-02
18 2 9.17473704805326778e-02
19 2 9.17473704805326223e-02
20 2 9.17473704805326917e-02
21 2 9.17473704805326223e-02
22 2 9.17473704805326640e-02
23 2 9.17473704805326501e-02
24 2 9.17473704805326501e-02
25 2 9.17473704805326917e-02
26 2 9.17473704805326362e-02
27 2 9.17473704805326778e-02
28 2 9.17473704805326223e-02
29 2 9.17473704805326917e-02
30 2 9.17473704805326223e-02
31 2 9.17473704805326640e-02
32 2 9.17473704805326501e-02
33 2 9.17473704805326501e-02
34 2 9.17473704805326917e-02
35 2 9.17473704805326362e-02
36 2 9.17473704805326778e-02
37 2 9.17473704805326223e-02
1 3 2.77632313477361670e-01
2 3 2.77632313477361836e-01
3 3 2.77632313477361725e-01
4 3 2.77632313477361836e-01
5 3 2.77632313477361781e-01
6 3 2.77632313477361781e-01
7 3 2.77632313477361781e-01
8 3 2.77632313477361725e-01
9 3 2.77632313477361725e-01
10 3 2.77632313477361670e-01
11 3 2.77632313477361836e-01
12 3 2.77632313477361725e-01
13 3 2.77632313477361836e-01
14 3 2.77632313477361781e-01
15 3 2.77632313477361781e-01
16 3 2.77632313477361781e-01
17 3 2.77632313477361725e-01
18 3 2.77632313477361725e-01
19 3 2.77632313477361670e-01
20 3 2.77632313477361836e-01
21 3 2.77632313477361725e-01
22 3 2.77632313477361836e-01
23 3 2.77632313477361781e-01
24 3 2.77632313477361781e-01
25 3 2.77632313477361781e-01
26 3 2.77632313477361725e-01
27 3 2.77632313477361725e-01
28 3 2.77632313477361670e-01
29 3 2.77632313477361836e-01
30 3 2.77632313477361725e-01
31 3 2.77632313477361836e-01
32 3 2.77632313477361781e-01
33 3 2.77632313477361781e-01
34 3 2.77632313477361781e-01
35 3 2.77632313477361725e-01
36 3 2.77632313477361725e-01
37 3 2.77632313477361670e-01
1 4 4.62355858624667937e-01
2 4 4.62355858624668159e-01
3 4 4.62355858624667992e-01
4 4 4.62355858624668214e-01
5 4 4.62355858624668048e-01
6 4 4.62355858624668159e-01
7 4 4.62355858624668214e-01
8 4 4.62355858624668048e-01
9 4 4.62355858624667992e-01
10 4 4.62355858624667937e-01
11 4 4.62355858624668159e-01
12 4 4.62355858624667992e-01
13 4 4.62355858624668214e-01
14 4 4.62355858624668048e-01
15 4 4.62355858624668159e-01
16 4 4.62355858624668214e-01
17 4 4.62355858624668048e-01
18 4 4.62355858624667992e-01
19 4 4.62355858624667937e-01
20 4 4.62355858624668159e-01
21 4 4.62355858624667992e-01
22 4 4.62355858624668214e-01
23 4 4.62355858624668048e-01
24 4 4.62355858624668159e-01
25 4 4.62355858624668214e-01
26 4 4.62355858624668048e-01
27 4 4.62355858624667992e-01
28 4 4.62355858624667937e-01
29 4 4.62355858624668159e-01
30 4 4.62355858624667992e-01
31 4 4.62355858624668214e-01
32 4 4.62355858624668048e-01
33 4 4.62355858624668159e-01
34 4 4.62355858624668214e-01
35 4 4.62355858624668048e-01
36 4 4.62355858624667992e-01
37 4 4.62355858624667937e-01
1 5 6.33883476483184327e-01
2 5 6.33883476483184438e-01
3 5 6.33883476483184438e-01
4 5 6.33883476483184549e-01
5 5 6.33883476483184327e-01
6 5 6.33883476483184549e-01
7 5 6.33883476483184549e-01
8 5 6.33883476483184327e-01
9 5 6.33883476483184216e-01
10 5 6.33883476483184327e-01
11 5 6.33883476483184438e-01
12 5 6.33883476483184438e-01
13 5 6.33883476483184549e-01
14 5 6.33883476483184327e-01
15 5 6.33883476483184549e-01
16 5 6.33883476483184549e-01
17 5 6.33883476483184327e-01
18 5 6.33883476483184216e-01
19 5 6.33883476483184327e-01
20 5 6.33883476483184438e-01
21 5 6.33883476483184438e-01
22 5 6.33883476483184549e-01
23 5 6.33883476483184327e-01
24 5 6.33883476483184549e-01
25 5 6.33883476483184549e-01
26 5 6.33883476483184327e-01
27 5 6.33883476483184216e-01
28 5 6.33883476483184327e-01
29 5 6.33883476483184438e-01
30 5 6.33883476483184438e-01
31 5 6.33883476483184549e-01
32 5 6.33883476483184327e-01
33 5 6.33883476483184549e-01
34 5 6.33883476483184549e-01
35 5 6.33883476483184327e-01
36 5 6.33883476483184216e-01
37 5 6.33883476483184327e-01
1 6 7.80330085889910596e-01
2 6 7.80330085889910707e-01
3 6 7.80330085889910596e-01
4 6 7.80330085889910818e-01
5 6 7.80330085889910596e-01
6 6 7.80330085889910707e-01
7 6 7.80330085889910818e-01
8 6 7.80330085889910596e-01
9 6 7.80330085889910485e-01
10 6 7.80330085889910596e-01
11 6 7.80330085889910707e-01
12 6 7.80330085889910596e-01
13 6 7.80330085889910818e-01
14 6 7.80330085889910596e-01
15 6 7.80330085889910707e-01
16 6 7.80330085889910818e-01
17 6 7.80330085889910596e-01
18 6 7.80330085889910485e-01
19 6 7.80330085889910596e-01
20 6 7.80330085889910707e-01
21 6 7.80330085889910596e-01
22 6 7.80330085889910818e-01
23 6 7.80330085889910596e-01
24 6 7.80330085889910707e-01
25 6 7.80330085889910818e-01
26 6 7.80330085889910596e-01
27 6 7.80330085889910485e-01
28 6 7.80330085889910596e-01
29 6 7.80330085889910707e-01
30 6 7.80330085889910596e-01
31 6 7.80330085889910818e-01
32 6 7.80330085889910596e-01
33 6 7.80330085889910707e-01
34 6 7.80330085889910818e-01
35 6 7.80330085889910596e-01
36 6 7.80330085889910485e-01
37 6 7.80330085889910596e-01
1 7 8.92471171724933510e-01
2 7 8.92471171724933510e-01
3 7 8.92471171724933510e-01
4 7 8.92471171724933732e-01
5 7 8.92471171724933510e-01
6 7 8.92471171724933621e-01
7 7 8.92471171724933732e-01
8 7 8.92471171724933510e-01
9 7 8.92471171724933510e-01
10 7 8.92471171724933510e-01
11 7 8.92471171724933510e-01
12 7 8.92471171724933510e-01
13 7 8.92471171724933732e-01
14 7 8.92471171724933510e-01
15 7 8.92471171724933621e-01
16 7 8.92471171724933732e-01
17 7 8.92471171724933510e-01
18 7 8.92471171724933510e-01
19 7 8.92471171724933510e-01
20 7 8.92471171724933510e-01
21 7 8.92471171724933510e-01
22 7 8.92471171724933732e-01
23 7 8.92471171724933510e-01
24 7 8.92471171724933621e-01
25 7 8.92471171724933732e-01
26 7 8.92471171724933510e-01
27 7 8.92471171724933510e-01
28 7 8.92471171724933510e-01
29 7 8.92471171724933510e-01
30 7 8.92471171724933510e-01
31 7 8.92471171724933732e-01
32 7 8.92471171724933510e-01
33 7 8.92471171724933621e-01
34 7 8.92471171724933732e-01
35 7 8.92471171724933510e-01
36 7 8.92471171724933510e-01
37 7 8.92471171724933510e-01
1 8 9.65601538737017262e-01
2 8 9.65601538737017151e-01
3 8 9.65601538737017151e-01
4 8 9.65601538737017262e-01
5 8 9.65601538737017262e-01
6 8 9.65601538737017262e-01
7 8 9.65601538737017262e-01
8 8 9.65601538737017151e-01
9 8 9.65601538737017151e-01
10 8 9.65601538737017262e-01
11 8 9.65601538737017151e-01
12 8 9.65601538737017151e-01
13 8 9.65601538737017262e-01
14 8 9.65601538737017262e-01
15 8 9.65601538737017262e-01
16 8 9.65601538737017262e-01
17 8 9.65601538737017151e-01
18 8 9.65601538737017151e-01
19 8 9.65601538737017262e-01
20 8 9.65601538737017151e-01
21 8 9.65601538737017151e-01
22 8 9.65601538737017262e-01
23 8 9.65601538737017262e-01
24 8 9.65601538737017262e-01
25 8 9.65601538737017262e-01
26 8 9.65601538737017151e-01
27 8 9.65601538737017151e-01
28 8 9.65601538737017262e-01
29 8 9.65601538737017151e-01
30 8 9.65601538737017151e-01
31 8 9.65601538737017262e-01
32 8 9.65601538737017262e-01
33 8 9.65601538737017262e-01
34 8 9.65601538737017262e-01
35 8 9.65601538737017151e-01
36 8 9.65601538737017151e-01
37 8 9.65601538737017262e-01
1 9 1.00000000000000000e+00
2 9 1.00000000000000000e+00
3 9 1.00000000000000000e+00
4 9 1.00000000000000000e+00
5 9 1.00000000000000000e+00
6 9 1.00000000000000000e+00
7 9 1.00000000000000000e+00
8 9 1.00000000000000000e+00
9 9 1.00000000000000000e+00
10 9 1.00000000000000000e+00
11 9 1.00000000000000000e+00
12 9 1.00000000000000000e+00
13 9 1.00000000000000000e+00
14 9 1.00000000000000000e+00
15 9 1.00000000000000000e+00
16 9 1.00000000000000000e+00
17 9 1.00000000000000000e+00
18 9 1.00000000000000000e+00
19 9 1.00000000000000000e+00
20 9 1.00000000000000000e+00
21 9 1.00000000000000000e+00
22 9 1.00000000000000000e+00
23 9 1.00000000000000000e+00
24 9 1.00000000000000000e+00
25 9 1.00000000000000000e+00
26 9 1.00000000000000000e+00
27 9 1.00000000000000000e+00
28 9 1.00000000000000000e+00
29 9 1.00000000000000000e+00
30 9 1.00000000000000000e+00
31 9 1.00000000000000000e+00
32 9 1.00000000000000000e+00
33 9 1.00000000000000000e+00
34 9 1.00000000000000000e+00
35 9 1.00000000000000000e+00
36 9 1.00000000000000000e+00
37 9 1.00000000000000000e+00
1 10 1.00000000000000000e+00
2 10 1.00000000000000000e+00
3 10 1.00000000000000000e+00
4 10 1.00000000000000000e+00
5 10 1.00000000000000000e+00
6 10 1.00000000000000000e+00
7 10 1.00000000000000000e+00
8 10 1.00000000000000000e+00
9 10 1.00000000000000000e+00
10 10 1.00000000000000000e+00
11 10 1.00000000000000000e+00
12 10 1.00000000000000000e+00
13 10 1.00000000000000000e+00
14 10 1.00000000000000000e+00
15 10 1.00000000000000000e+00
16 10 1.00000000000000000e+00
17 10 1.00000000000000000e+00
18 10 1.00000000000000000e+00
19 10 1.00000000000000000e+00
20 10 1.00000000000000000e+00
21 10 1.00000000000000000e+00
22 10 1.00000000000000000e+00
23 10 1.00000000000000000e+00
24 10 1.00000000000000000e+00
25 10 1.00000000000000000e+00
26 10 1.00000000000000000e+00
27 10 1.00000000000000000e+00
28 10 1.00000000000000000e+00
29 10 1.00000000000000000e+00
30 10 1.00000000000000000e+00
31 10 1.00000000000000000e+00
32 10 1.00000000000000000e+00
33 10 1.00000000000000000e+00
34 10 1.00000000000000000e+00
35 10 1.00000000000000000e+00
36 10 1.00000000000000000e+00
37 10 1.00000000000000000e+00
1 11 1.00000000000000000e+00
2 11 1.00000000000000000e+00
3 11 1.00000000000000000e+00
4 11 1.00000000000000000e+00
5 11 1.00000000000000000e+00
6 11 1.00000000000000000e+00
7 11 1.00000000000000000e+00
8 11 1.00000000000000000e+00
9 11 1.00000000000000000e+00
10 11 1.00000000000000000e+00
11 11 1.00000000000000000e+00
12 11 1.00000000000000000e+00
13 11 1.00000000000000000e+00
14 11 1.00000000000000000e+00
15 11 1.00000000000000000e+00
16 11 1.00000000000000000e+00
17 11 1.00000000000000000e+00
18 11 1.00000000000000000e+00
19 11 1.00000000000000000e+00
20 11 1.00000000000000000e+00
21 11 1.00000000000000000e+00
22 11 1.00000000000000000e+00
23 11 1.00000000000000000e+00
24 11 1.00000000000000000e+00
25 11 1.00000000000000000e+00
26 11 1.00000000000000000e+00
27 11 1.00000000000000000e+00
28 11 1.00000000000000000e+00
29 11 1.00000000000000000e+00
30 11 1.00000000000000000e+00
31 11 1.00000000000000000e+00
32 11 1.00000000000000000e+00
33 11 1.00000000000000000e+00
34 11 1.00000000000000000e+00
35 11 1.00000000000000000e+00
36 11 1.00000000000000000e+00
37 11 1.00000000000000000e+00
1 12 9.65601538737017262e-01
2 12 9.65601538737017151e-01
3 12 9.65601538737017262e-01
4 12 9.65601538737017262e-01
5 12 9.65601538737017262e-01
6 12 9.65601538737017262e-01
7 12 9.65601538737017151e-01
8 12 9.65601538737017262e-01
9 12 9.65601538737017151e-01
10 12 9.65601538737017262e-01
11 12 9.65601538737017151e-01
12 12 9.65601538737017262e-01
13 12 9.65601538737017262e-01
14 12 9.65601538737017262e-01
15 12 9.65601538737017262e-01
16 12 9.65601538737017151e-01
17 12 9.65601538737017262e-01
18 12 9.65601538737017151e-01
19 12 9.65601538737017262e-01
20 12 9.65601538737017151e-01
21 12 9.65601538737017262e-01
22 12 9.65601538737017262e-01
23 12 9.65601538737017262e-01
24 12 9.65601538737017262e-01
25 12 9.65601538737017151e-01
26 12 9.65601538737017262e-01
27 12 9.65601538737017151e-01
28 12 9.65601538737017262e-01
29 12 9.65601538737017151e-01
30 12 9.65601538737017262e-01
31 12 9.65601538737017262e-01
32 12 9.65601538737017262e-01
33 12 9.65601538737017262e-01
34 12 9.65601538737017151e-01
35 12 9.65601538737017262e-01
36 12 9.65601538737017151e-01
37 12 9.65601538737017262e-01
1 13 8.92471171724933510e-01
2 13 8.92471171724933510e-01
3 13 8.92471171724933510e-01
4 13 8.92471171724933621e-01
5 13 8.92471171724933621e-01
6 13 8.92471171724933621e-01
7 13 8.92471171724933621e-01
8 13 8.92471171724933510e-01
9 13 8.92471171724933510e-01
10 13 8.92471171724933510e-01
11 13 8.92471171724933510e-01
12 13 8.92471171724933510e-01
13 13 8.92471171724933621e-01
14 13 8.92471171724933621e-01
15 13 8.92471171724933621e-01
16 13 8.92471171724933621e-01
17 13 8.92471171724933510e-01
18 13 8.92471171724933510e-01
19 13 8.92471171724933510e-01
20 13 8.92471171724933510e-01
21 13 8.92471171724933510e-01
22 13 8.92471171724933621e-01
23 13 8.92471171724933621e-01
24 13 8.92471171724933621e-01
25 13 8.92471171724933621e-01
26 13 8.92471171724933510e-01
27 13 8.92471171724933510e-01
28 13 8.92471171724933510e-01
29 13 8.92471171724933510e-01
30 13 8.92471171724933510e-01
31 13 8.92471171724933621e-01
32 13 8.92471171724933621e-01
33 13 8.92471171724933621e-01
34 13 8.92471171724933621e-01
35 13 8.92471171724933510e-01
36 13 8.92471171724933510e-01
37 13 8.92471171724933510e-01
1 14 7.80330085889910485e-01
2 14 7.80330085889910485e-01
3 14 7.80330085889910707e-01
4 14 7.80330085889910485e-01
5 14 7.80330085889910707e-01
6 14 7.80330085889910707e-01
7 14 7.80330085889910707e-01
8 14 7.80330085889910596e-01
9 14 7.80330085889910485e-01
10 14 7.80330085889910485e-01
11 14 7.80330085889910485e-01
12 14 7.80330085889910707e-01
13 14 7.80330085889910485e-01
14 14 7.80330085889910707e-01
15 14 7.80330085889910707e-01
16 14 7.80330085889910707e-01
17 14 7.80330085889910596e-01
18 14 7.80330085889910485e-01
19 14 7.80330085889910485e-01
20 14 7.80330085889910485e-01
21 14 7.80330085889910707e-01
22 14 7.80330085889910485e-01
23 14 7.80330085889910707e-01
24 14 7.80330085889910707e-01
25 14 7.80330085889910707e-01
26 14 7.80330085889910596e-01
27 14 7.80330085889910485e-01
28 14 7.80330085889910485e-01
29 14 7.80330085889910485e-01
30 14 7.80330085889910707e-01
31 14 7.80330085889910485e-01
32 14 7.80330085889910707e-01
33 14 7.80330085889910707e-01
34 14 7.80330085889910707e-01
35 14 7.80330085889910596e-01
36 14 7.80330085889910485e-01
37 14 7.80330085889910485e-01
1 15 6.33883476483184327e-01
2 15 6.33883476483184327e-01
3 15 6.33883476483184327e-01
4 15 6.33883476483184327e-01
5 15 6.33883476483184549e-01
6 15 6.33883476483184549e-01
7 15 6.33883476483184438e-01
8 15 6.33883476483184327e-01
9 15 6.33883476483184327e-01
10 15 6.33883476483184327e-01
11 15 6.33883476483184327e-01
12 15 6.33883476483184327e-01
13 15 6.33883476483184327e-01
14 15 6.33883476483184549e-01
15 15 6.33883476483184549e-01
16 15 6.33883476483184438e-01
17 15 6.33883476483184327e-01
18 15 6.33883476483184327e-01
19 15 6.33883476483184327e-01
20 15 6.33883476483184327e-01
21 15 6.33883476483184327e-01
22 15 6.33883476483184327e-01
23 15 6.33883476483184549e-01
24 15 6.33883476483184549e-01
25 15 6.33883476483184438e-01
26 15 6.33883476483184327e-01
27 15 6.33883476483184327e-01
28 15 6.33883476483184327e-01
29 15 6.33883476483184327e-01
30 15 6.33883476483184327e-01
31 15 6.33883476483184327e-01
32 15 6.33883476483184549e-01
33 15 6.33883476483184549e-01
34 15 6.33883476483184438e-01
35 15 6.33883476483184327e-01
36 15 6.33883476483184327e-01
37 15 6.33883476483184327e-01
1 16 4.62355858624668048e-01
2 16 4.62355858624667992e-01
3 16 4.62355858624668103e-01
4 16 4.62355858624668103e-01
5 16 4.62355858624668103e-01
6 16 4.62355858624668048e-01
7 16 4.62355858624668103e-01
8 16 4.62355858624667992e-01
9 16 4.62355858624667992e-01
10 16 4.62355858624668048e-01
11 16 4.62355858624667992e-01
12 16 4.62355858624668103e-01
13 16 4.62355858624668103e-01
14 16 4.62355858624668103e-01
15 16 4.62355858624668048e-01
16 16 4.62355858624668103e-01
17 16 4.62355858624667992e-01
18 16 4.62355858624667992e-01
19 16 4.62355858624668048e-01
20 16 4.62355858624667992e-01
21 16 4.62355858624668103e-01
22 16 4.62355858624668103e-01
23 16 4.62355858624668103e-01
24 16 4.62355858624668048e-01
25 16 4.62355858624668103e-01
26 16 4.62355858624667992e-01
27 16 4.62355858624667992e-01
28 16 4.62355858624668048e-01
29 16 4.62355858624667992e-01
30 16 4.62355858624668103e-01
31 16 4.62355858624668103e-01
32 16 4.62355858624668103e-01
33 16 4.62355858624668048e-01
34 16 4.62355858624668103e-01
35 16 4.62355858624667992e-01
36 16 4.62355858624667992e-01
37 16 4.62355858624668048e-01
1 17 2.77632313477361670e-01
2 17 2.77632313477361725e-01
3 17 2.77632313477361725e-01
4 17 2.77632313477361725e-01
5 17 2.77632313477361781e-01
6 17 2.77632313477361725e-01
7 17 2.77632313477361725e-01
8 17 2.77632313477361670e-01
9 17 2.77632313477361725e-01
10 17 2.77632313477361670e-01
11 17 2.77632313477361725e-01
12 17 2.77632313477361725e-01
13 17 2.77632313477361725e-01
14 17 2.77632313477361781e-01
15 17 2.77632313477361725e-01
16 17 2.77632313477361725e-01
17 17 2.77632313477361670e-01
18 17 2.77632313477361725e-01
19 17 2.77632313477361670e-01
20 17 2.77632313477361725e-01
21 17 2.77632313477361725e-01
22 17 2.77632313477361725e-01
23 17 2.77632313477361781e-01
24 17 2.77632313477361725e-01
25 17 2.77632313477361725e-01
26 17 2.77632313477361670e-01
27 17 2.77632313477361725e-01
28 17 2.77632313477361670e-01
29 17 2.77632313477361725e-01
30 17 2.77632313477361725e-01
31 17 2.77632313477361725e-01
32 17 2.77632313477361781e-01
33 17 2.77632313477361725e-01
34 17 2.77632313477361725e-01
35 17 2.77632313477361670e-01
36 17 2.77632313477361725e-01
37 17 2.77632313477361670e-01
1 18 9.17473704805326362e-02
2 18 9.17473704805326362e-02
3 18 9.17473704805326362e-02
4 18 9.17473704805326362e-02
5 18 9.17473704805326501e-02
6 18 9.17473704805326362e-02
7 18 9.17473704805326362e-02
8 18 9.17473704805326223e-02
9 18 9.17473704805326362e-02
10 18 9.17473704805326362e-02
11 18 9.17473704805326362e-02
12 18 9.17473704805326362e-02
13 18 9.17473704805326362e-02
14 18 9.17473704805326501e-02
15 18 9.17473704805326362e-02
16 18 9.17473704805326362e-02
17 18 9.17473704805326223e-02
18 18 9.17473704805326362e-02
19 18 9.17473704805326362e-02
20 18 9.17473704805326362e-02
21 18 9.17473704805326362e-02
22 18 9.17473704805326362e-02
23 18 9.17473704805326501e-02
24 18 9.17473704805326362e-02
25 18 9.17473704805326362e-02
26 18 9.17473704805326223e-02
27 18 9.17473704805326362e-02
28 18 9.17473704805326362e-02
29 18 9.17473704805326362e-02
30 18 9.17473704805326362e-02
31 18 9.17473704805326362e-02
32 18 9.17473704805326501e-02
33 18 9.17473704805326362e-02
34 18 9.17473704805326362e-02
35 18 9.17473704805326223e-02
36 18 9.17473704805326362e-02
37 18 9.17473704805326362e-02
1 19 0.00000000000000000e+00
2 19 0.00000000000000000e+00
3 19 0.00000000000000000e+00
4 19 0.00000000000000000e+00
5 19 0.00000000000000000e+00
6 19 0.00000000000000000e+00
7 19 0.00000000000000000e+00
8 19 0.00000000000000000e+00
9 19 0.00000000000000000e+00
10 19 0.00000000000000000e+00
11 19 0.00000000000000000e+00
12 19 0.00000000000000000e+00
13 19 0.00000000000000000e+00
14 19 0.00000000000000000e+00
15 19 0.00000000000000000e+00
16 19 0.00000000000000000e+00
17 19 0.00000000000000000e+00
18 19 0.00000000000000000e+00
19 19 0.00000000000000000e+00
20 19 0.00000000000000000e+00
21 19 0.00000000000000000e+00
22 19 0.00000000000000000e+00
23 19 0.00000000000000000e+00
24 19 0.00000000000000000e+00
25 19 0.00000000000000000e+00
26 19 0.00000000000000000e+00
27 19 0.00000000000000000e+00
28 19 0.00000000000000000e+00
29 19 0.00000000000000000e+00
30 19 0.00000000000000000e+00
31 19 0.00000000000000000e+00
32 19 0.00000000000000000e+00
33 19 0.00000000000000000e+00
34 19 0.00000000000000000e+00
35 19 0.00000000000000000e+00
36 19 0.00000000000000000e+00
37 19 0.00000000000000000e+00
1 20 -9.17473704805326223e-02
2 20 -9.17473704805326917e-02
3 20 -9.17473704805326223e-02
4 20 -9.17473704805326640e-02
5 20 -9.17473704805326501e-02
6 20 -9.17473704805326501e-02
7 20 -9.17473704805326917e-02
8 20 -9.17473704805326362e-02
9 20 -9.17473704805326778e-02
10 20 -9.17473704805326223e-02
11 20 -9.17473704805326917e-02
12 20 -9.17473704805326223e-02
13 20 -9.17473704805326640e-02
14 20 -9.17473704805326501e-02
15 20 -9.17473704805326501e-02
16 20 -9.17473704805326917e-02
17 20 -9.17473704805326362e-02
18 20 -9.17473704805326778e-02
19 20 -9.17473704805326223e-02
20 20 -9.17473704805326917e-02
21 20 -9.17473704805326223e-02
22 20 -9.17473704805326640e-02
23 20 -9.17473704805326501e-02
24 20 -9.17473704805326501e-02
25 20 -9.17473704805326917e-02
26 20 -9.17473704805326362e-02
27 20 -9.17473704805326778e-02
28 20 -9.17473704805326223e-02
29 20 -9.17473704805326917e-02
30 20 -9.17473704805326223e-02
31 20 -9.17473704805326640e-02
32 20 -9.17473704805326501e-02
33 20 -9.17473704805326501e-02
34 20 -9.17473704805326917e-02
35 20 -9.17473704805326362e-02
36 20 -9.17473704805326778e-02
37 20 -9.17473704805326223e-02
1 21 -2.77632313477361670e-01
2 21 -2.77632313477361836e-01
3 21 -2.77632313477361725e-01
4 21 -2.77632313477361836e-01
5 21 -2.77632313477361781e-01
6 21 -2.77632313477361781e-01
7 21 -2.77632313477361781e-01
8 21 -2.77632313477361725e-01
9 21 -2.77632313477361725e-01
10 21 -2.77632313477361670e-01
11 21 -2.77632313477361836e-01
12 21 -2.77632313477361725e-01
13 21 -2.77632313477361836e-01
14 21 -2.77632313477361781e-01
15 21 -2.77632313477361781e-01
16 21 -2.77632313477361781e-01
17 21 -2.77632313477361725e-01
18 21 -2.77632313477361725e-01
19 21 -2.77632313477361670e-01
20 21 -2.77632313477361836e-01
21 21 -2.77632313477361725e-01
22 21 -2.77632313477361836e-01
23 21 -2.77632313477361781e-01
24 21 -2.77632313477361781e-01
25 21 -2.77632313477361781e-01
26 21 -2.77632313477361725e-01
27 21 -2.77632313477361725e-01
28 21 -2.77632313477361670e-01
29 21 -2.77632313477361836e-01
30 21 -2.77632313477361725e-01
31 21 -2.77632313477361836e-01
32 21 -2.77632313477361781e-01
33 21 -2.77632313477361781e-01
34 21 -2.77632313477361781e-01
35 21 -2.77632313477361725e-01
36 21 -2.77632313477361725e-01
37 21 -2.77632313477361670e-01
1 22 -4.62355858624667937e-01
2 22 -4.62355858624668159e-01
3 22 -4.62355858624667992e-01
4 22 -4.62355858624668214e-01
5 22 -4.62355858624668048e-01
6 22 -4.62355858624668159e-01
7 22 -4.62355858624668214e-01
8 22 -4.62355858624668048e-01
9 22 -4.62355858624667992e-01
10 22 -4.62355858624667937e-01
11 22 -4.62355858624668159e-01
12 22 -4.62355858624667992e-01
13 22 -4.62355858624668214e-01
14 22 -4.62355858624668048e-01
15 22 -4.62355858624668159e-01
16 22 -4.62355858624668214e-01
17 22 -4.62355858624668048e-01
18 22 -4.62355858624667992e-01
19 22 -4.62355858624667937e-01
20 22 -4.62355858624668159e-01
21 22 -4.62355858624667992e-01
22 22 -4.62355858624668214e-01
23 22 -4.62355858624668048e-01
24 22 -4.62355858624668159e-01
25 22 -4.62355858624668214e-01
26 22 -4.62355858624668048e-01
27 22 -4.62355858624667992e-01
28 22 -4.62355858624667937e-01
29 22 -4.62355858624668159e-01
30 22 -4.62355858624667992e-01
31 22 -4.62355858624668214e-01
32 22 -4.62355858624668048e-01
33 22 -4.62355858624668159e-01
34 22 -4.62355858624668214e-01
35 22 -4.62355858624668048e-01
36 22 -4.62355858624667992e-01
37 22 -4.62355858624667937e-01
1 23 -6.33883476483184327e-01
2 23 -6.33883476483184438e-01
3 23 -6.33883476483184438e-01
4 23 -6.33883476483184549e-01
5 23 -6.33883476483184327e-01
6 23 -6.33883476483184549e-01
7 23 -6.33883476483184549e-01
8 23 -6.33883476483184327e-01
9 23 -6.33883476483184216e-01
10 23 -6.33883476483184327e-01
11 23 -6.33883476483184438e-01
12 23 -6.33883476483184438e-01
13 23 -6.33883476483184549e-01
14 23 -6.33883476483184327e-01
15 23 -6.33883476483184549e-01
16 23 -6.33883476483184549e-01
17 23 -6.33883476483184327e-01
18 23 -6.33883476483184216e-01
19 23 -6.33883476483184327e-01
20 23 -6.33883476483184438e-01
21 23 -6.33883476483184438e-01
22 23 -6.33883476483184549e-01
23 23 -6.33883476483184327e-01
24 23 -6.33883476483184549e-01
25 23 -6.33883476483184549e-01
26 23 -6.33883476483184327e-01
27 23 -6.33883476483184216e-01
28 23 -6.33883476483184327e-01
29 23 -6.33883476483184438e-01
30 23 -6.33883476483184438e-01
31 23 -6.33883476483184549e-01
32 23 -6.33883476483184327e-01
33 23 -6.33883476483184549e-01
34 23 -6.33883476483184549e-01
35 23 -6.33883476483184327e-01
36 23 -6.33883476483184216e-01
37 23 -6.33883476483184327e-01
1 24 -7.80330085889910596e-01
2 24 -7.80330085889910707e-01
3 24 -7.80330085889910596e-01
4 24 -7.80330085889910818e-01
5 24 -7.80330085889910596e-01
6 24 -7.80330085889910707e-01
7 24 -7.80330085889910818e-01
8 24 -7.80330085889910596e-01
9 24 -7.80330085889910485e-01
10 24 -7.80330085889910596e-01
11 24 -7.80330085889910707e-01
12 24 -7.80330085889910596e-01
13 24 -7.80330085889910818e-01
14 24 -7.80330085889910596e-01
15 24 -7.80330085889910707e-01
16 24 -7.80330085889910818e-01
17 24 -7.80330085889910596e-01
18 24 -7.80330085889910485e-01
19 24 -7.80330085889910596e-01
20 24 -7.80330085889910707e-01
21 24 -7.80330085889910596e-01
22 24 -7.80330085889910818e-01
23 24 -7.80330085889910596e-01
24 24 -7.80330085889910707e-01
25 24 -7.80330085889910818e-01
26 24 -7.80330085889910596e-01
27 24 -7.80330085889910485e-01
28 24 -7.80330085889910596e-01
29 24 -7.80330085889910707e-01
30 24 -7.80330085889910596e-01
31 24 -7.80330085889910818e-01
32 24 -7.80330085889910596e-01
33 24 -7.80330085889910707e-01
34 24 -7.80330085889910818e-01
35 24 -7.80330085889910596e-01
36 24 -7.80330085889910485e-01
37 24 -7.80330085889910596e-01
1 25 -8.92471171724933510e-01
2 25 -8.92471171724933510e-01
3 25 -8.92471171724933510e-01
4 25 -8.92471171724933732e-01
5 25 -8.92471171724933510e-01
6 25 -8.92471171724933621e-01
7 25 -8.92471171724933732e-01
8 25 -8.92471171724933510e-01
9 25 -8.92471171724933510e-01
10 25 -8.92471171724933510e-01
11 25 -8.92471171724933510e-01
12 25 -8.92471171724933510e-01
13 25 -8.92471171724933732e-01
14 25 -8.92471171724933510e-01
15 25 -8.92471171724933621e-01
16 25 -8.92471171724933732e-01
17 25 -8.92471171724933510e-01
18 25 -8.92471171724933510e-01
19 25 -8.92471171724933510e-01
20 25 -8.92471171724933510e-01
21 25 -8.92471171724933510e-01
22 25 -8.92471171724933732e-01
23 25 -8.92471171724933510e-01
24 25 -8.92471171724933621e-01
25 25 -8.92471171724933732e-01
26 25 -8.92471171724933510e-01
27 25 -8.92471171724933510e-01
28 25 -8.92471171724933510e-01
29 25 -8.92471171724933510e-01
30 25 -8.92471171724933510e-01
31 25 -8.92471171724933732e-01
32 25 -8.92471171724933510e-01
33 25 -8.92471171724933621e-01
34 25 -8.92471171724933732e-01
35 25 -8.92471171724933510e-01
36 25 -8.92471171724933510e-01
37 25 -8.92471171724933510e-01
1 26 -9.65601538737017262e-01
2 26 -9.65601538737017151e-01
3 26 -9.65601538737017151e-01
4 26 -9.65601538737017262e-01
5 26 -9.65601538737017262e-01
6 26 -9.65601538737017262e-01
7 26 -9.65601538737017262e-01
8 26 -9.65601538737017151e-01
9 26 -9.65601538737017151e-01
10 26 -9.65601538737017262e-01
11 26 -9.65601538737017151e-01
12 26 -9.65601538737017151e-01
13 26 -9.65601538737017262e-01
14 26 -9.65601538737017262e-01
15 26 -9.65601538737017262e-01
16 26 -9.65601538737017262e-01
17 26 -9.65601538737017151e-01
18 26 -9.65601538737017151e-01
19 26 -9.65601538737017262e-01
20 26 -9.65601538737017151e-01
21 26 -9.65601538737017151e-01
22 26 -9.65601538737017262e-01
23 26 -9.65601538737017262e-01
24 26 -9.65601538737017262e-01
25 26 -9.65601538737017262e-01
26 26 -9.65601538737017151e-01
27 26 -9.65601538737017151e-01
28 26 -9.65601538737017262e-01
29 26 -9.65601538737017151e-01
30 26 -9.65601538737017151e-01
31 26 -9.65601538737017262e-01
32 26 -9.65601538737017262e-01
33 26 -9.65601538737017262e-01
34 26 -9.65601538737017262e-01
35 26 -9.65601538737017151e-01
36 26 -9.65601538737017151e-01
37 26 -9.65601538737017262e-01
1 27 -1.00000000000000000e+00
2 27 -1.00000000000000000e+00
3 27 -1.00000000000000000e+00
4 27 -1.00000000000000000e+00
5 27 -1.00000000000000000e+00
6 27 -1.00000000000000000e+00
7 27 -1.00000000000000000e+00
8 27 -1.00000000000000000e+00
9 27 -1.00000000000000000e+00
10 27 -1.00000000000000000e+00
11 27 -1.00000000000000000e+00
12 27 -1.00000000000000000e+00
13 27 -1.00000000000000000e+00
14 27 -1.00000000000000000e+00
15 27 -1.00000000000000000e+00
16 27 -1.00000000000000000e+00
17 27 -1.00000000000000000e+00
18 27 -1.00000000000000000e+00
19 27 -1.00000000000000000e+00
20 27 -1.00000000000000000e+00
21 27 -1.00000000000000000e+00
22 27 -1.00000000000000000e+00
23 27 -1.00000000000000000e+00
24 27 -1.00000000000000000e+00
25 27 -1.00000000000000000e+00
26 27 -1.00000000000000000e+00
27 27 -1.00000000000000000e+00
28 27 -1.00000000000000000e+00
29 27 -1.00000000000000000e+00
30 27 -1.00000000000000000e+00
31 27 -1.00000000000000000e+00
32 27 -1.00000000000000000e+00
33 27 -1.00000000000000000e+00
34 27 -1.00000000000000000e+00
35 27 -1.00000000000000000e+00
36 27 -1.00000000000000000e+00
37 27 -1.00000000000000000e+00
1 28 -1.00000000000000000e+00
2 28 -1.00000000000000000e+00
3 28 -1.00000000000000000e+00
4 28 -1.00000000000000000e+00
5 28 -1.00000000000000000e+00
6 28 -1.00000000000000000e+00
7 28 -1.00000000000000000e+00
8 28 -1.00000000000000000e+00
9 28 -1.00000000000000000e+00
10 28 -1.00000000000000000e+00
11 28 -1.00000000000000000e+00
12 28 -1.00000000000000000e+00
13 28 -1.00000000000000000e+00
14 28 -1.00000000000000000e+00
15 28 -1.00000000000000000e+00
16 28 -1.00000000000000000e+00
17 28 -1.00000000000000000e+00
18 28 -1.00000000000000000e+00
19 28 -1.00000000000000000e+00
20 28 -1.00000000000000000e+00
21 28 -1.00000000000000000e+00
22 28 -1.00000000000000000e+00
23 28 -1.00000000000000000e+00
24 28 -1.00000000000000000e+00
25 28 -1.00000000000000000e+00
26 28 -1.00000000000000000e+00
27 28 -1.00000000000000000e+00
28 28 -1.00000000000000000e+00
29 28 -1.00000000000000000e+00
30 28 -1.00000000000000000e+00
31 28 -1.00000000000000000e+00
32 28 -1.00000000000000000e+00
33 28 -1.00000000000000000e+00
34 28 -1.00000000000000000e+00
35 28 -1.00000000000000000e+00
36 28 -1.00000000000000000e+00
37 28 -1.00000000000000000e+00
1 29 -1.00000000000000000e+00
2 29 -1.00000000000000000e+00
3 29 -1.00000000000000000e+00
4 29 -1.00000000000000000e+00
5 29 -1.00000000000000000e+00
6 29 -1.00000000000000000e+00
7 29 -1.00000000000000000e+00
8 29 -1.00000000000000000e+00
9 29 -1.00000000000000000e+00
10 29 -1.00000000000000000e+00
11 29 -1.00000000000000000e+00
12 29 -1.00000000000000000e+00
13 29 -1.00000000000000000e+00
14 29 -1.00000000000000000e+00
15 29 -1.00000000000000000e+00
16 29 -1.00000000000000000e+00
17 29 -1.00000000000000000e+00
18 29 -1.00000000000000000e+00
19 29 -1.00000000000000000e+00
20 29 -1.00000000000000000e+00
21 29 -1.00000000000000000e+00
22 29 -1.00000000000000000e+00
23 29 -1.00000000000000000e+00
24 29 -1.00000000000000000e+00
25 29 -1.00000000000000000e+00
26 29 -1.00000000000000000e+00
27 29 -1.00000000000000000e+00
28 29 -1.00000000000000000e+00
29 29 -1.00000000000000000e+00
30 29 -1.00000000000000000e+00
31 29 -1.00000000000000000e+00
32 29 -1.00000000000000000e+00
33 29 -1.00000000000000000e+00
34 29 -1.00000000000000000e+00
35 29 -1.00000000000000000e+00
36 29 -1.00000000000000000e+00
37 29 -1.00000000000000000e+00
1 30 -9.65601538737017262e-01
2 30 -9.65601538737017151e-01
3 30 -9.65601538737017262e-01
4 30 -9.65601538737017262e-01
5 30 -9.65601538737017262e-01
6 30 -9.65601538737017262e-01
7 30 -9.65601538737017151e-01
8 30 -9.65601538737017262e-01
9 30 -9.65601538737017151e-01
10 30 -9.65601538737017262e-01
11 30 -9.65601538737017151e-01
12 30 -9.65601538737017262e-01
13 30 -9.65601538737017262e-01
14 30 -9.65601538737017262e-01
15 30 -9.65601538737017262e-01
16 30 -9.65601538737017151e-01
17 30 -9.65601538737017262e-01
18 30 -9.65601538737017151e-01
19 30 -9.65601538737017262e-01
20 30 -9.65601538737017151e-01
21 30 -9.65601538737017262e-01
22 30 -9.65601538737017262e-01
23 30 -9.65601538737017262e-01
24 30 -9.65601538737017262e-01
25 30 -9.65601538737017151e-01
26 30 -9.65601538737017262e-01
27 30 -9.65601538737017151e-01
28 30 -9.65601538737017262e-01
29 30 -9.65601538737017151e-01
30 30 -9.65601538737017262e-01
31 30 -9.65601538737017262e-01
32 30 -9.65601538737017262e-01
33 30 -9.65601538737017262e-01
34 30 -9.65601538737017151e-01
35 30 -9.65601538737017262e-01
36 30 -9.65601538737017151e-01
37 30 -9.65601538737017262e-01
1 31 -8.92471171724933510e-01
2 31 -8.92471171724933510e-01
3 31 -8.92471171724933510e-01
4 31 -8.92471171724933621e-01
5 31 -8.92471171724933621e-01
6 31 -8.92471171724933621e-01
7 31 -8.92471171724933621e-01
8 31 -8.92471171724933510e-01
9 31 -8.92471171724933510e-01
10 31 -8.92471171724933510e-01
11 31 -8.92471171724933510e-01
12 31 -8.92471171724933510e-01
13 31 -8.92471171724933621e-01
14 31 -8.92471171724933621e-01
15 31 -8.92471171724933621e-01
16 31 -8.92471171724933621e-01
17 31 -8.92471171724933510e-01
18 31 -8.92471171724933510e-01
19 31 -8.92471171724933510e-01
20 31 -8.92471171724933510e-01
21 31 -8.92471171724933510e-01
22 31 -8.92471171724933621e-01
23 31 -8.92471171724933621e-01
24 31 -8.92471171724933621e-01
25 31 -8.92471171724933621e-01
26 31 -8.92471171724933510e-01
27 31 -8.92471171724933510e-01
28 31 -8.92471171724933510e-01
29 31 -8.92471171724933510e-01
30 31 -8.92471171724933510e-01
31 31 -8.92471171724933621e-01
32 31 -8.92471171724933621e-01
33 31 -8.92471171724933621e-01
34 31 -8.92471171724933621e-01
35 31 -8.92471171724933510e-01
36 31 -8.92471171724933510e-01
37 31 -8.92471171724933510e-01
1 32 -7.80330085889910485e-01
2 32 -7.80330085889910485e-01
3 32 -7.80330085889910707e-01
4 32 -7.80330085889910485e-01
5 32 -7.80330085889910707e-01
6 32 -7.80330085889910707e-01
7 32 -7.80330085889910707e-01
8 32 -7.80330085889910596e-01
9 32 -7.80330085889910485e-01
10 32 -7.80330085889910485e-01
11 32 -7.80330085889910485e-01
12 32 -7.80330085889910707e-01
13 32 -7.80330085889910485e-01
14 32 -7.80330085889910707e-01
15 32 -7.80330085889910707e-01
16 32 -7.80330085889910707e-01
17 32 -7.80330085889910596e-01
18 32 -7.80330085889910485e-01
19 32 -7.80330085889910485e-01
20 32 -7.80330085889910485e-01
21 32 -7.80330085889910707e-01
22 32 -7.80330085889910485e-01
23 32 -7.80330085889910707e-01
24 32 -7.80330085889910707e-01
25 32 -7.80330085889910707e-01
26 32 -7.80330085889910596e-01
27 32 -7.80330085889910485e-01
28 32 -7.80330085889910485e-01
29 32 -7.80330085889910485e-01
30 32 -7.80330085889910707e-01
31 32 -7.80330085889910485e-01
32 32 -7.80330085889910707e-01
33 32 -7.80330085889910707e-01
34 32 -7.80330085889910707e-01
35 32 -7.80330085889910596e-01
36 32 -7.80330085889910485e-01
37 32 -7.80330085889910485e-01
1 33 -6.33883476483184327e-01
2 33 -6.33883476483184327e-01
3 33 -6.33883476483184327e-01
4 33 -6.33883476483184327e-01
5 33 -6.33883476483184549e-01
6 33 -6.33883476483184549e-01
7 33 -6.33883476483184438e-01
8 33 -6.33883476483184327e-01
9 33 -6.33883476483184327e-01
10 33 -6.33883476483184327e-01
11 33 -6.33883476483184327e-01
12 33 -6.33883476483184327e-01
13 33 -6.33883476483184327e-01
14 33 -6.33883476483184549e-01
15 33 -6.33883476483184549e-01
16 33 -6.33883476483184438e-01
17 33 -6.33883476483184327e-01
18 33 -6.33883476483184327e-01
19 33 -6.33883476483184327e-01
20 33 -6.33883476483184327e-01
21 33 -6.33883476483184327e-01
22 33 -6.33883476483184327e-01
23 33 -6.33883476483184549e-01
24 33 -6.33883476483184549e-01
25 33 -6.33883476483184438e-01
26 33 -6.33883476483184327e-01
27 33 -6.33883476483184327e-01
28 33 -6.33883476483184327e-01
29 33 -6.33883476483184327e-01
30 33 -6.33883476483184327e-01
31 33 -6.33883476483184327e-01
32 33 -6.33883476483184549e-01
33 33 -6.33883476483184549e-01
34 33 -6.33883476483184438e-01
35 33 -6.33883476483184327e-01
36 33 -6.33883476483184327e-01
37 33 -6.33883476483184327e-01
1 34 -4.62355858624668048e-01
2 34 -4.62355858624667992e-01
3 34 -4.62355858624668103e-01
4 34 -4.62355858624668103e-01
5 34 -4.62355858624668103e-01
6 34 -4.62355858624668048e-01
7 34 -4.62355858624668103e-01
8 34 -4.62355858624667992e-01
9 34 -4.62355858624667992e-01
10 34 -4.62355858624668048e-01
11 34 -4.62355858624667992e-01
12 34 -4.62355858624668103e-01
13 34 -4.62355858624668103e-01
14 34 -4.62355858624668103e-01
15 34 -4.62355858624668048e-01
16 34 -4.62355858624668103e-01
17 34 -4.62355858624667992e-01
18 34 -4.62355858624667992e-01
19 34 -4.62355858624668048e-01
20 34 -4.62355858624667992e-01
21 34 -4.62355858624668103e-01
22 34 -4.62355858624668103e-01
23 34 -4.62355858624668103e-01
24 34 -4.62355858624668048e-01
25 34 -4.62355858624668103e-01
26 34 -4.62355858624667992e-01
27 34 -4.62355858624667992e-01
28 34 -4.62355858624668048e-01
29 34 -4.62355858624667992e-01
30 34 -4.62355858624668103e-01
31 34 -4.62355858624668103e-01
32 34 -4.62355858624668103e-01
33 34 -4.62355858624668048e-01
34 34 -4.62355858624668103e-01
35 34 -4.62355858624667992e-01
36 34 -4.62355858624667992e-01
37 34 -4.62355858624668048e-01
1 35 -2.77632313477361670e-01
2 35 -2.77632313477361725e-01
3 35 -2.77632313477361725e-01
4 35 -2.77632313477361725e-01
5 35 -2.77632313477361781e-01
6 35 -2.77632313477361725e-01
7 35 -2.77632313477361725e-01
8 35 -2.77632313477361670e-01
9 35 -2.77632313477361725e-01
10 35 -2.77632313477361670e-01
11 35 -2.77632313477361725e-01
12 35 -2.77632313477361725e-01
13 35 -2.77632313477361725e-01
14 35 -2.77632313477361781e-01
15 35 -2.77632313477361725e-01
16 35 -2.77632313477361725e-01
17 35 -2.77632313477361670e-01
18 35 -2.77632313477361725e-01
19 35 -2.77632313477361670e-01
20 35 -2.77632313477361725e-01
21 35 -2.77632313477361725e-01
22 35 -2.77632313477361725e-01
23 35 -2.77632313477361781e-01
24 35 -2.77632313477361725e-01
25 35 -2.77632313477361725e-01
26 35 -2.77632313477361670e-01
27 35 -2.77632313477361725e-01
28 35 -2.77632313477361670e-01
29 35 -2.77632313477361725e-01
30 35 -2.77632313477361725e-01
31 35 -2.77632313477361725e-01
32 35 -2.77632313477361781e-01
33 35 -2.77632313477361725e-01
34 35 -2.77632313477361725e-01
35 35 -2.77632313477361670e-01
36 35 -2.77632313477361725e-01
37 35 -2.77632313477361670e-01
1 36 -9.17473704805326362e-02
2 36 -9.17473704805326362e-02
3 36 -9.17473704805326362e-02
4 36 -9.17473704805326362e-02
5 36 -9.17473704805326501e-02
6 36 -9.17473704805326362e-02
7 36 -9.17473704805326362e-02
8 36 -9.17473704805326223e-02
9 36 -9.17473704805326362e-02
10 36 -9.17473704805326362e-02
11 36 -9.17473704805326362e-02
12 36 -9.17473704805326362e-02
13 36 -9.17473704805326362e-02
14 36 -9.17473704805326501e-02
15 36 -9.17473704805326362e-02
16 36 -9.17473704805326362e-02
17 36 -9.17473704805326223e-02
18 36 -9.17473704805326362e-02
19 36 -9.17473704805326362e-02
20 36 -9.17473704805326362e-02
21 36 -9.17473704805326362e-02
22 36 -9.17473704805326362e-02
23 36 -9.17473704805326501e-02
24 36 -9.17473704805326362e-02
25 36 -9.17473704805326362e-02
26 36 -9.17473704805326223e-02
27 36 -9.17473704805326362e-02
28 36 -9.17473704805326362e-02
29 36 -9.17473704805326362e-02
30 36 -9.17473704805326362e-02
31 36 -9.17473704805326362e-02
32 36 -9.17473704805326501e-02
33 36 -9.17473704805326362e-02
34 36 -9.17473704805326362e-02
35 36 -9.17473704805326223e-02
36 36 -9.17473704805326362e-02
37 36 -9.17473704805326362e-02
1 37 0.00000000000000000e+00
2 37 0.00000000000000000e+00
3 37 0.00000000000000000e+00
4 37 0.00000000000000000e+00
5 37 0.00000000000000000e+00
6 37 0.00000000000000000e+00
7 37 0.00000000000000000e+00
8 37 0.00000000000000000e+00
9 37 0.00000000000000000e+00
10 37 0.00000000000000000e+00
11 37 0.00000000000000000e+00
12 37 0.00000000000000000e+00
13 37 0.00000000000000000e+00
14 37 0.00000000000000000e+00
15 37 0.00000000000000000e+00
16 37 0.00000000000000000e+00
17 37 0.00000000000000000e+00
18 37 0.00000000000000000e+00
19 37 0.00000000000000000e+00
20 37 0.00000000000000000e+00
21 37 0.00000000000000000e+00
22 37 0.00000000000000000e+00
23 37 0.00000000000000000e+00
24 37 0.00000000000000000e+00
25 37 0.00000000000000000e+00
26 37 0.00000000000000000e+00
27 37 0.00000000000000000e+00
28 37 0.00000000000000000e+00
29 37 0.00000000000000000e+00
30 37 0.00000000000000000e+00
31 37 0.00000000000000000e+00
32 37 0.00000000000000000e+00
33 37 0.00000000000000000e+00
34 37 0.00000000000000000e+00
35 37 0.00000000000000000e+00
36 37 0.00000000000000000e+00
37 37 0.00000000000000000e+00
