%%MatrixMarket matrix coordinate  real general
37 37 1369
1 1 1.00000000000000000e+00
2 1 9.63388347648318488e-01
3 1 9.08470869120796110e-01
4 1 8.71859216769114598e-01
5 1 8.53553390593273842e-01
6 1 8.53553390593273953e-01
7 1 8.71859216769114709e-01
8 1 9.08470869120796221e-01
9 1 9.63388347648318488e-01
10 1 1.00000000000000000e+00
11 1 9.63388347648318488e-01
12 1 9.08470869120796110e-01
13 1 8.71859216769114598e-01
14 1 8.53553390593273842e-01
15 1 8.53553390593273953e-01
16 1 8.71859216769114709e-01
17 1 9.08470869120796221e-01
18 1 9.63388347648318488e-01
19 1 1.00000000000000000e+00
20 1 9.63388347648318488e-01
21 1 9.08470869120796110e-01
22 1 8.71859216769114598e-01
23 1 8.53553390593273842e-01
24 1 8.53553390593273953e-01
25 1 8.71859216769114709e-01
26 1 9.08470869120796221e-01
27 1 9.63388347648318488e-01
28 1 1.00000000000000000e+00
29 1 9.63388347648318488e-01
30 1 9.08470869120796110e-01
31 1 8.71859216769114598e-01
32 1 8.53553390593273842e-01
33 1 8.53553390593273953e-01
34 1 8.71859216769114709e-01
35 1 9.08470869120796221e-01
36 1 9.63388347648318488e-01
37 1 1.00000000000000000e+00
1 2 9.63388347648318488e-01
2 2 9.28117108384557410e-01
3 2 8.75210249488915570e-01
4 2 8.39939010225154492e-01
5 2 8.22303390593273953e-01
6 2 8.22303390593273953e-01
7 2 8.39939010225154492e-01
8 2 8.75210249488915570e-01
9 2 9.28117108384557410e-01
10 2 9.63388347648318488e-01
11 2 9.28117108384557410e-01
12 2 8.75210249488915570e-01
13 2 8.39939010225154492e-01
14 2 8.22303390593273953e-01
15 2 8.22303390593273953e-01
16 2 8.39939010225154492e-01
17 2 8.75210249488915570e-01
18 2 9.28117108384557410e-01
19 2 9.63388347648318488e-01
20 2 9.28117108384557410e-01
21 2 8.75210249488915570e-01
22 2 8.39939010225154492e-01
23 2 8.22303390593273953e-01
24 2 8.22303390593273953e-01
25 2 8.39939010225154492e-01
26 2 8.75210249488915570e-01
27 2 9.28117108384557410e-01
28 2 9.63388347648318488e-01
29 2 9.28117108384557410e-01
30 2 8.75210249488915570e-01
31 2 8.39939010225154492e-01
32 2 8.22303390593273953e-01
33 2 8.22303390593273953e-01
34 2 8.39939010225154492e-01
35 2 8.75210249488915570e-01
36 2 9.28117108384557410e-01
37 2 9.63388347648318488e-01
1 3 9.08470869120796110e-01
2 3 8.75210249488915681e-01
3 3 8.25319320041094651e-01
4 3 7.92058700409214111e-01
5 3 7.75428390593273953e-01
6 3 7.75428390593273953e-01
7 3 7.92058700409214334e-01
8 3 8.25319320041094651e-01
9 3 8.75210249488915681e-01
10 3 9.08470869120796110e-01
11 3 8.75210249488915681e-01
12 3 8.25319320041094651e-01
13 3 7.92058700409214111e-01
14 3 7.75428390593273953e-01
15 3 7.75428390593273953e-01
16 3 7.92058700409214334e-01
17 3 8.25319320041094651e-01
18 3 8.75210249488915681e-01
19 3 9.08470869120796110e-01
20 3 8.75210249488915681e-01
21 3 8.25319320041094651e-01
22 3 7.92058700409214111e-01
23 3 7.75428390593273953e-01
24 3 7.75428390593273953e-01
25 3 7.92058700409214334e-01
26 3 8.25319320041094651e-01
27 3 8.75210249488915681e-01
28 3 9.08470869120796110e-01
29 3 8.75210249488915681e-01
30 3 8.25319320041094651e-01
31 3 7.92058700409214111e-01
32 3 7.75428390593273953e-01
33 3 7.75428390593273953e-01
34 3 7.92058700409214334e-01
35 3 8.25319320041094651e-01
36 3 8.75210249488915681e-01
37 3 9.08470869120796110e-01
1 4 8.71859216769114598e-01
2 4 8.39939010225154492e-01
3 4 7.92058700409214111e-01
4 4 7.60138493865254006e-01
5 4 7.44178390593273953e-01
6 4 7.44178390593273953e-01
7 4 7.60138493865254006e-01
8 4 7.92058700409214222e-01
9 4 8.39939010225154492e-01
10 4 8.71859216769114598e-01
11 4 8.39939010225154492e-01
12 4 7.92058700409214111e-01
13 4 7.60138493865254006e-01
14 4 7.44178390593273953e-01
15 4 7.44178390593273953e-01
16 4 7.60138493865254006e-01
17 4 7.92058700409214222e-01
18 4 8.39939010225154492e-01
19 4 8.71859216769114598e-01
20 4 8.39939010225154492e-01
21 4 7.92058700409214111e-01
22 4 7.60138493865254006e-01
23 4 7.44178390593273953e-01
24 4 7.44178390593273953e-01
25 4 7.60138493865254006e-01
26 4 7.92058700409214222e-01
27 4 8.39939010225154492e-01
28 4 8.71859216769114598e-01
29 4 8.39939010225154492e-01
30 4 7.92058700409214111e-01
31 4 7.60138493865254006e-01
32 4 7.44178390593273953e-01
33 4 7.44178390593273953e-01
34 4 7.60138493865254006e-01
35 4 7.92058700409214222e-01
36 4 8.39939010225154492e-01
37 4 8.71859216769114598e-01
1 5 8.53553390593273842e-01
2 5 8.22303390593273953e-01
3 5 7.75428390593273842e-01
4 5 7.44178390593273953e-01
5 5 7.28553390593273953e-01
6 5 7.28553390593273953e-01
7 5 7.44178390593273953e-01
8 5 7.75428390593273953e-01
9 5 8.22303390593273953e-01
10 5 8.53553390593273842e-01
11 5 8.22303390593273953e-01
12 5 7.75428390593273842e-01
13 5 7.44178390593273953e-01
14 5 7.28553390593273953e-01
15 5 7.28553390593273953e-01
16 5 7.44178390593273953e-01
17 5 7.75428390593273953e-01
18 5 8.22303390593273953e-01
19 5 8.53553390593273842e-01
20 5 8.22303390593273953e-01
21 5 7.75428390593273842e-01
22 5 7.44178390593273953e-01
23 5 7.28553390593273953e-01
24 5 7.28553390593273953e-01
25 5 7.44178390593273953e-01
26 5 7.75428390593273953e-01
27 5 8.22303390593273953e-01
28 5 8.53553390593273842e-01
29 5 8.22303390593273953e-01
30 5 7.75428390593273842e-01
31 5 7.44178390593273953e-01
32 5 7.28553390593273953e-01
33 5 7.28553390593273953e-01
34 5 7.44178390593273953e-01
35 5 7.75428390593273953e-01
36 5 8.22303390593273953e-01
37 5 8.53553390593273842e-01
1 6 8.53553390593273953e-01
2 6 8.22303390593273953e-01
3 6 7.75428390593273953e-01
4 6 7.44178390593273953e-01
5 6 7.28553390593273953e-01
6 6 7.28553390593273953e-01
7 6 7.44178390593273953e-01
8 6 7.75428390593273953e-01
9 6 8.22303390593273953e-01
10 6 8.53553390593273953e-01
11 6 8.22303390593273953e-01
12 6 7.75428390593273953e-01
13 6 7.44178390593273953e-01
14 6 7.28553390593273953e-01
15 6 7.28553390593273953e-01
16 6 7.44178390593273953e-01
17 6 7.75428390593273953e-01
18 6 8.22303390593273953e-01
19 6 8.53553390593273953e-01
20 6 8.22303390593273953e-01
21 6 7.75428390593273953e-01
22 6 7.44178390593273953e-01
23 6 7.28553390593273953e-01
24 6 7.28553390593273953e-01
25 6 7.44178390593273953e-01
26 6 7.75428390593273953e-01
27 6 8.22303390593273953e-01
28 6 8.53553390593273953e-01
29 6 8.22303390593273953e-01
30 6 7.75428390593273953e-01
31 6 7.44178390593273953e-01
32 6 7.28553390593273953e-01
33 6 7.28553390593273953e-01
34 6 7.44178390593273953e-01
35 6 7.75428390593273953e-01
36 6 8.22303390593273953e-01
37 6 8.53553390593273953e-01
1 7 8.71859216769114709e-01
2 7 8.39939010225154492e-01
3 7 7.92058700409214111e-01
4 7 7.60138493865254006e-01
5 7 7.44178390593273842e-01
6 7 7.44178390593273953e-01
7 7 7.60138493865254006e-01
8 7 7.92058700409214111e-01
9 7 8.39939010225154492e-01
10 7 8.71859216769114709e-01
11 7 8.39939010225154492e-01
12 7 7.92058700409214111e-01
13 7 7.60138493865254006e-01
14 7 7.44178390593273842e-01
15 7 7.44178390593273953e-01
16 7 7.60138493865254006e-01
17 7 7.92058700409214111e-01
18 7 8.39939010225154492e-01
19 7 8.71859216769114709e-01
20 7 8.39939010225154492e-01
21 7 7.92058700409214111e-01
22 7 7.60138493865254006e-01
23 7 7.44178390593273842e-01
24 7 7.44178390593273953e-01
25 7 7.60138493865254006e-01
26 7 7.92058700409214111e-01
27 7 8.39939010225154492e-01
28 7 8.71859216769114709e-01
29 7 8.39939010225154492e-01
30 7 7.92058700409214111e-01
31 7 7.60138493865254006e-01
32 7 7.44178390593273842e-01
33 7 7.44178390593273953e-01
34 7 7.60138493865254006e-01
35 7 7.92058700409214111e-01
36 7 8.39939010225154492e-01
37 7 8.71859216769114709e-01
1 8 9.08470869120796221e-01
2 8 8.75210249488915570e-01
3 8 8.25319320041094651e-01
4 8 7.92058700409214222e-01
5 8 7.75428390593273842e-01
6 8 7.75428390593273953e-01
7 8 7.92058700409214222e-01
8 8 8.25319320041094762e-01
9 8 8.75210249488915570e-01
10 8 9.08470869120796221e-01
11 8 8.75210249488915570e-01
12 8 8.25319320041094651e-01
13 8 7.92058700409214222e-01
14 8 7.75428390593273842e-01
15 8 7.75428390593273953e-01
16 8 7.92058700409214222e-01
17 8 8.25319320041094762e-01
18 8 8.75210249488915570e-01
19 8 9.08470869120796221e-01
20 8 8.75210249488915570e-01
21 8 8.25319320041094651e-01
22 8 7.92058700409214222e-01
23 8 7.75428390593273842e-01
24 8 7.75428390593273953e-01
25 8 7.92058700409214222e-01
26 8 8.25319320041094762e-01
27 8 8.75210249488915570e-01
28 8 9.08470869120796221e-01
29 8 8.75210249488915570e-01
30 8 8.25319320041094651e-01
31 8 7.92058700409214222e-01
32 8 7.75428390593273842e-01
33 8 7.75428390593273953e-01
34 8 7.92058700409214222e-01
35 8 8.25319320041094762e-01
36 8 8.75210249488915570e-01
37 8 9.08470869120796221e-01
1 9 9.63388347648318488e-01
2 9 9.28117108384557410e-01
3 9 8.75210249488915570e-01
4 9 8.39939010225154492e-01
5 9 8.22303390593273842e-01
6 9 8.22303390593273953e-01
7 9 8.39939010225154492e-01
8 9 8.75210249488915681e-01
9 9 9.28117108384557299e-01
10 9 9.63388347648318488e-01
11 9 9.28117108384557410e-01
12 9 8.75210249488915570e-01
13 9 8.39939010225154492e-01
14 9 8.22303390593273842e-01
15 9 8.22303390593273953e-01
16 9 8.39939010225154492e-01
17 9 8.75210249488915681e-01
18 9 9.28117108384557299e-01
19 9 9.63388347648318488e-01
20 9 9.28117108384557410e-01
21 9 8.75210249488915570e-01
22 9 8.39939010225154492e-01
23 9 8.22303390593273842e-01
24 9 8.22303390593273953e-01
25 9 8.39939010225154492e-01
26 9 8.75210249488915681e-01
27 9 9.28117108384557299e-01
28 9 9.63388347648318488e-01
29 9 9.28117108384557410e-01
30 9 8.75210249488915570e-01
31 9 8.39939010225154492e-01
32 9 8.22303390593273842e-01
33 9 8.22303390593273953e-01
34 9 8.39939010225154492e-01
35 9 8.75210249488915681e-01
36 9 9.28117108384557299e-01
37 9 9.63388347648318488e-01
1 10 1.00000000000000000e+00
2 10 9.63388347648318488e-01
3 10 9.08470869120796110e-01
4 10 8.71859216769114598e-01
5 10 8.53553390593273842e-01
6 10 8.53553390593273953e-01
7 10 8.71859216769114709e-01
8 10 9.08470869120796221e-01
9 10 9.63388347648318488e-01
10 10 1.00000000000000000e+00
11 10 9.63388347648318488e-01
12 10 9.08470869120796110e-01
13 10 8.71859216769114598e-01
14 10 8.53553390593273842e-01
15 10 8.53553390593273953e-01
16 10 8.71859216769114709e-01
17 10 9.08470869120796221e-01
18 10 9.63388347648318488e-01
19 10 1.00000000000000000e+00
20 10 9.63388347648318488e-01
21 10 9.08470869120796110e-01
22 10 8.71859216769114598e-01
23 10 8.53553390593273842e-01
24 10 8.53553390593273953e-01
25 10 8.71859216769114709e-01
26 10 9.08470869120796221e-01
27 10 9.63388347648318488e-01
28 10 1.00000000000000000e+00
29 10 9.63388347648318488e-01
30 10 9.08470869120796110e-01
31 10 8.71859216769114598e-01
32 10 8.53553390593273842e-01
33 10 8.53553390593273953e-01
34 10 8.71859216769114709e-01
35 10 9.08470869120796221e-01
36 10 9.63388347648318488e-01
37 10 1.00000000000000000e+00
1 11 9.63388347648318488e-01
2 11 9.28117108384557410e-01
3 11 8.75210249488915570e-01
4 11 8.39939010225154492e-01
5 11 8.22303390593273953e-01
6 11 8.22303390593273953e-01
7 11 8.39939010225154492e-01
8 11 8.75210249488915570e-01
9 11 9.28117108384557410e-01
10 11 9.63388347648318488e-01
11 11 9.28117108384557410e-01
12 11 8.75210249488915570e-01
13 11 8.39939010225154492e-01
14 11 8.22303390593273953e-01
15 11 8.22303390593273953e-01
16 11 8.39939010225154492e-01
17 11 8.75210249488915570e-01
18 11 9.28117108384557410e-01
19 11 9.63388347648318488e-01
20 11 9.28117108384557410e-01
21 11 8.75210249488915570e-01
22 11 8.39939010225154492e-01
23 11 8.22303390593273953e-01
24 11 8.22303390593273953e-01
25 11 8.39939010225154492e-01
26 11 8.75210249488915570e-01
27 11 9.28117108384557410e-01
28 11 9.63388347648318488e-01
29 11 9.28117108384557410e-01
30 11 8.75210249488915570e-01
31 11 8.39939010225154492e-01
32 11 8.22303390593273953e-01
33 11 8.22303390593273953e-01
34 11 8.39939010225154492e-01
35 11 8.75210249488915570e-01
36 11 9.28117108384557410e-01
37 11 9.63388347648318488e-01
1 12 9.08470869120796110e-01
2 12 8.75210249488915681e-01
3 12 8.25319320041094651e-01
4 12 7.92058700409214111e-01
5 12 7.75428390593273953e-01
6 12 7.75428390593273953e-01
7 12 7.92058700409214334e-01
8 12 8.25319320041094651e-01
9 12 8.75210249488915681e-01
10 12 9.08470869120796110e-01
11 12 8.75210249488915681e-01
12 12 8.25319320041094651e-01
13 12 7.92058700409214111e-01
14 12 7.75428390593273953e-01
15 12 7.75428390593273953e-01
16 12 7.92058700409214334e-01
17 12 8.25319320041094651e-01
18 12 8.75210249488915681e-01
19 12 9.08470869120796110e-01
20 12 8.75210249488915681e-01
21 12 8.25319320041094651e-01
22 12 7.92058700409214111e-01
23 12 7.75428390593273953e-01
24 12 7.75428390593273953e-01
25 12 7.92058700409214334e-01
26 12 8.25319320041094651e-01
27 12 8.75210249488915681e-01
28 12 9.08470869120796110e-01
29 12 8.75210249488915681e-01
30 12 8.25319320041094651e-01
31 12 7.92058700409214111e-01
32 12 7.75428390593273953e-01
33 12 7.75428390593273953e-01
34 12 7.92058700409214334e-01
35 12 8.25319320041094651e-01
36 12 8.75210249488915681e-01
37 12 9.08470869120796110e-01
1 13 8.71859216769114598e-01
2 13 8.39939010225154492e-01
3 13 7.92058700409214111e-01
4 13 7.60138493865254006e-01
5 13 7.44178390593273953e-01
6 13 7.44178390593273953e-01
7 13 7.60138493865254006e-01
8 13 7.92058700409214222e-01
9 13 8.39939010225154492e-01
10 13 8.71859216769114598e-01
11 13 8.39939010225154492e-01
12 13 7.92058700409214111e-01
13 13 7.60138493865254006e-01
14 13 7.44178390593273953e-01
15 13 7.44178390593273953e-01
16 13 7.60138493865254006e-01
17 13 7.92058700409214222e-01
18 13 8.39939010225154492e-01
19 13 8.71859216769114598e-01
20 13 8.39939010225154492e-01
21 13 7.92058700409214111e-01
22 13 7.60138493865254006e-01
23 13 7.44178390593273953e-01
24 13 7.44178390593273953e-01
25 13 7.60138493865254006e-01
26 13 7.92058700409214222e-01
27 13 8.39939010225154492e-01
28 13 8.71859216769114598e-01
29 13 8.39939010225154492e-01
30 13 7.92058700409214111e-01
31 13 7.60138493865254006e-01
32 13 7.44178390593273953e-01
33 13 7.44178390593273953e-01
34 13 7.60138493865254006e-01
35 13 7.92058700409214222e-01
36 13 8.39939010225154492e-01
37 13 8.71859216769114598e-01
1 14 8.53553390593273842e-01
2 14 8.22303390593273953e-01
3 14 7.75428390593273842e-01
4 14 7.44178390593273953e-01
5 14 7.28553390593273953e-01
6 14 7.28553390593273953e-01
7 14 7.44178390593273953e-01
8 14 7.75428390593273953e-01
9 14 8.22303390593273953e-01
10 14 8.53553390593273842e-01
11 14 8.22303390593273953e-01
12 14 7.75428390593273842e-01
13 14 7.44178390593273953e-01
14 14 7.28553390593273953e-01
15 14 7.28553390593273953e-01
16 14 7.44178390593273953e-01
17 14 7.75428390593273953e-01
18 14 8.22303390593273953e-01
19 14 8.53553390593273842e-01
20 14 8.22303390593273953e-01
21 14 7.75428390593273842e-01
22 14 7.44178390593273953e-01
23 14 7.28553390593273953e-01
24 14 7.28553390593273953e-01
25 14 7.44178390593273953e-01
26 14 7.75428390593273953e-01
27 14 8.22303390593273953e-01
28 14 8.53553390593273842e-01
29 14 8.22303390593273953e-01
30 14 7.75428390593273842e-01
31 14 7.44178390593273953e-01
32 14 7.28553390593273953e-01
33 14 7.28553390593273953e-01
34 14 7.44178390593273953e-01
35 14 7.75428390593273953e-01
36 14 8.22303390593273953e-01
37 14 8.53553390593273842e-01
1 15 8.53553390593273953e-01
2 15 8.22303390593273953e-01
3 15 7.75428390593273953e-01
4 15 7.44178390593273953e-01
5 15 7.28553390593273953e-01
6 15 7.28553390593273953e-01
7 15 7.44178390593273953e-01
8 15 7.75428390593273953e-01
9 15 8.22303390593273953e-01
10 15 8.53553390593273953e-01
11 15 8.22303390593273953e-01
12 15 7.75428390593273953e-01
13 15 7.44178390593273953e-01
14 15 7.28553390593273953e-01
15 15 7.28553390593273953e-01
16 15 7.44178390593273953e-01
17 15 7.75428390593273953e-01
18 15 8.22303390593273953e-01
19 15 8.53553390593273953e-01
20 15 8.22303390593273953e-01
21 15 7.75428390593273953e-01
22 15 7.44178390593273953e-01
23 15 7.28553390593273953e-01
24 15 7.28553390593273953e-01
25 15 7.44178390593273953e-01
26 15 7.75428390593273953e-01
27 15 8.22303390593273953e-01
28 15 8.53553390593273953e-01
29 15 8.22303390593273953e-01
30 15 7.75428390593273953e-01
31 15 7.44178390593273953e-01
32 15 7.28553390593273953e-01
33 15 7.28553390593273953e-01
34 15 7.44178390593273953e-01
35 15 7.75428390593273953e-01
36 15 8.22303390593273953e-01
37 15 8.53553390593273953e-01
1 16 8.71859216769114709e-01
2 16 8.39939010225154492e-01
3 16 7.92058700409214111e-01
4 16 7.60138493865254006e-01
5 16 7.44178390593273842e-01
6 16 7.44178390593273953e-01
7 16 7.60138493865254006e-01
8 16 7.92058700409214111e-01
9 16 8.39939010225154492e-01
10 16 8.71859216769114709e-01
11 16 8.39939010225154492e-01
12 16 7.92058700409214111e-01
13 16 7.60138493865254006e-01
14 16 7.44178390593273842e-01
15 16 7.44178390593273953e-01
16 16 7.60138493865254006e-01
17 16 7.92058700409214111e-01
18 16 8.39939010225154492e-01
19 16 8.71859216769114709e-01
20 16 8.39939010225154492e-01
21 16 7.92058700409214111e-01
22 16 7.60138493865254006e-01
23 16 7.44178390593273842e-01
24 16 7.44178390593273953e-01
25 16 7.60138493865254006e-01
26 16 7.92058700409214111e-01
27 16 8.39939010225154492e-01
28 16 8.71859216769114709e-01
29 16 8.39939010225154492e-01
30 16 7.92058700409214111e-01
31 16 7.60138493865254006e-01
32 16 7.44178390593273842e-01
33 16 7.44178390593273953e-01
34 16 7.60138493865254006e-01
35 16 7.92058700409214111e-01
36 16 8.39939010225154492e-01
37 16 8.71859216769114709e-01
1 17 9.08470869120796221e-01
2 17 8.75210249488915570e-01
3 17 8.25319320041094651e-01
4 17 7.92058700409214222e-01
5 17 7.75428390593273842e-01
6 17 7.75428390593273953e-01
7 17 7.92058700409214222e-01
8 17 8.25319320041094762e-01
9 17 8.75210249488915570e-01
10 17 9.08470869120796221e-01
11 17 8.75210249488915570e-01
12 17 8.25319320041094651e-01
13 17 7.92058700409214222e-01
14 17 7.75428390593273842e-01
15 17 7.75428390593273953e-01
16 17 7.92058700409214222e-01
17 17 8.25319320041094762e-01
18 17 8.75210249488915570e-01
19 17 9.08470869120796221e-01
20 17 8.75210249488915570e-01
21 17 8.25319320041094651e-01
22 17 7.92058700409214222e-01
23 17 7.75428390593273842e-01
24 17 7.75428390593273953e-01
25 17 7.92058700409214222e-01
26 17 8.25319320041094762e-01
27 17 8.75210249488915570e-01
28 17 9.08470869120796221e-01
29 17 8.75210249488915570e-01
30 17 8.25319320041094651e-01
31 17 7.92058700409214222e-01
32 17 7.75428390593273842e-01
33 17 7.75428390593273953e-01
34 17 7.92058700409214222e-01
35 17 8.25319320041094762e-01
36 17 8.75210249488915570e-01
37 17 9.08470869120796221e-01
1 18 9.63388347648318488e-01
2 18 9.28117108384557410e-01
3 18 8.75210249488915570e-01
4 18 8.39939010225154492e-01
5 18 8.22303390593273842e-01
6 18 8.22303390593273953e-01
7 18 8.39939010225154492e-01
8 18 8.75210249488915681e-01
9 18 9.28117108384557299e-01
10 18 9.63388347648318488e-01
11 18 9.28117108384557410e-01
12 18 8.75210249488915570e-01
13 18 8.39939010225154492e-01
14 18 8.22303390593273842e-01
15 18 8.22303390593273953e-01
16 18 8.39939010225154492e-01
17 18 8.75210249488915681e-01
18 18 9.28117108384557299e-01
19 18 9.63388347648318488e-01
20 18 9.28117108384557410e-01
21 18 8.75210249488915570e-01
22 18 8.39939010225154492e-01
23 18 8.22303390593273842e-01
24 18 8.22303390593273953e-01
25 18 8.39939010225154492e-01
26 18 8.75210249488915681e-01
27 18 9.28117108384557299e-01
28 18 9.63388347648318488e-01
29 18 9.28117108384557410e-01
30 18 8.75210249488915570e-01
31 18 8.39939010225154492e-01
32 18 8.22303390593273842e-01
33 18 8.22303390593273953e-01
34 18 8.39939010225154492e-01
35 18 8.75210249488915681e-01
36 18 9.28117108384557299e-01
37 18 9.63388347648318488e-01
1 19 1.00000000000000000e+00
2 19 9.63388347648318488e-01
3 19 9.08470869120796110e-01
4 19 8.71859216769114598e-01
5 19 8.53553390593273842e-01
6 19 8.53553390593273953e-01
7 19 8.71859216769114709e-01
8 19 9.08470869120796221e-01
9 19 9.63388347648318488e-01
10 19 1.00000000000000000e+00
11 19 9.63388347648318488e-01
12 19 9.08470869120796110e-01
13 19 8.71859216769114598e-01
14 19 8.53553390593273842e-01
15 19 8.53553390593273953e-01
16 19 8.71859216769114709e-01
17 19 9.08470869120796221e-01
18 19 9.63388347648318488e-01
19 19 1.00000000000000000e+00
20 19 9.63388347648318488e-01
21 19 9.08470869120796110e-01
22 19 8.71859216769114598e-01
23 19 8.53553390593273842e-01
24 19 8.53553390593273953e-01
25 19 8.71859216769114709e-01
26 19 9.08470869120796221e-01
27 19 9.63388347648318488e-01
28 19 1.00000000000000000e+00
29 19 9.63388347648318488e-01
30 19 9.08470869120796110e-01
31 19 8.71859216769114598e-01
32 19 8.53553390593273842e-01
33 19 8.53553390593273953e-01
34 19 8.71859216769114709e-01
35 19 9.08470869120796221e-01
36 19 9.63388347648318488e-01
37 19 1.00000000000000000e+00
1 20 9.63388347648318488e-01
2 20 9.28117108384557410e-01
3 20 8.75210249488915570e-01
4 20 8.39939010225154492e-01
5 20 8.22303390593273953e-01
6 20 8.22303390593273953e-01
7 20 8.39939010225154492e-01
8 20 8.75210249488915570e-01
9 20 9.28117108384557410e-01
10 20 9.63388347648318488e-01
11 20 9.28117108384557410e-01
12 20 8.75210249488915570e-01
13 20 8.39939010225154492e-01
14 20 8.22303390593273953e-01
15 20 8.22303390593273953e-01
16 20 8.39939010225154492e-01
17 20 8.75210249488915570e-01
18 20 9.28117108384557410e-01
19 20 9.63388347648318488e-01
20 20 9.28117108384557410e-01
21 20 8.75210249488915570e-01
22 20 8.39939010225154492e-01
23 20 8.22303390593273953e-01
24 20 8.22303390593273953e-01
25 20 8.39939010225154492e-01
26 20 8.75210249488915570e-01
27 20 9.28117108384557410e-01
28 20 9.63388347648318488e-01
29 20 9.28117108384557410e-01
30 20 8.75210249488915570e-01
31 20 8.39939010225154492e-01
32 20 8.22303390593273953e-01
33 20 8.22303390593273953e-01
34 20 8.39939010225154492e-01
35 20 8.75210249488915570e-01
36 20 9.28117108384557410e-01
37 20 9.63388347648318488e-01
1 21 9.08470869120796110e-01
2 21 8.75210249488915681e-01
3 21 8.25319320041094651e-01
4 21 7.92058700409214111e-01
5 21 7.75428390593273953e-01
6 21 7.75428390593273953e-01
7 21 7.92058700409214334e-01
8 21 8.25319320041094651e-01
9 21 8.75210249488915681e-01
10 21 9.08470869120796110e-01
11 21 8.75210249488915681e-01
12 21 8.25319320041094651e-01
13 21 7.92058700409214111e-01
14 21 7.75428390593273953e-01
15 21 7.75428390593273953e-01
16 21 7.92058700409214334e-01
17 21 8.25319320041094651e-01
18 21 8.75210249488915681e-01
19 21 9.08470869120796110e-01
20 21 8.75210249488915681e-01
21 21 8.25319320041094651e-01
22 21 7.92058700409214111e-01
23 21 7.75428390593273953e-01
24 21 7.75428390593273953e-01
25 21 7.92058700409214334e-01
26 21 8.25319320041094651e-01
27 21 8.75210249488915681e-01
28 21 9.08470869120796110e-01
29 21 8.75210249488915681e-01
30 21 8.25319320041094651e-01
31 21 7.92058700409214111e-01
32 21 7.75428390593273953e-01
33 21 7.75428390593273953e-01
34 21 7.92058700409214334e-01
35 21 8.25319320041094651e-01
36 21 8.75210249488915681e-01
37 21 9.08470869120796110e-01
1 22 8.71859216769114598e-01
2 22 8.39939010225154492e-01
3 22 7.92058700409214111e-01
4 22 7.60138493865254006e-01
5 22 7.44178390593273953e-01
6 22 7.44178390593273953e-01
7 22 7.60138493865254006e-01
8 22 7.92058700409214222e-01
9 22 8.39939010225154492e-01
10 22 8.71859216769114598e-01
11 22 8.39939010225154492e-01
12 22 7.92058700409214111e-01
13 22 7.60138493865254006e-01
14 22 7.44178390593273953e-01
15 22 7.44178390593273953e-01
16 22 7.60138493865254006e-01
17 22 7.92058700409214222e-01
18 22 8.39939010225154492e-01
19 22 8.71859216769114598e-01
20 22 8.39939010225154492e-01
21 22 7.92058700409214111e-01
22 22 7.60138493865254006e-01
23 22 7.44178390593273953e-01
24 22 7.44178390593273953e-01
25 22 7.60138493865254006e-01
26 22 7.92058700409214222e-01
27 22 8.39939010225154492e-01
28 22 8.71859216769114598e-01
29 22 8.39939010225154492e-01
30 22 7.92058700409214111e-01
31 22 7.60138493865254006e-01
32 22 7.44178390593273953e-01
33 22 7.44178390593273953e-01
34 22 7.60138493865254006e-01
35 22 7.92058700409214222e-01
36 22 8.39939010225154492e-01
37 22 8.71859216769114598e-01
1 23 8.53553390593273842e-01
2 23 8.22303390593273953e-01
3 23 7.75428390593273842e-01
4 23 7.44178390593273953e-01
5 23 7.28553390593273953e-01
6 23 7.28553390593273953e-01
7 23 7.44178390593273953e-01
8 23 7.75428390593273953e-01
9 23 8.22303390593273953e-01
10 23 8.53553390593273842e-01
11 23 8.22303390593273953e-01
12 23 7.75428390593273842e-01
13 23 7.44178390593273953e-01
14 23 7.28553390593273953e-01
15 23 7.28553390593273953e-01
16 23 7.44178390593273953e-01
17 23 7.75428390593273953e-01
18 23 8.22303390593273953e-01
19 23 8.53553390593273842e-01
20 23 8.22303390593273953e-01
21 23 7.75428390593273842e-01
22 23 7.44178390593273953e-01
23 23 7.28553390593273953e-01
24 23 7.28553390593273953e-01
25 23 7.44178390593273953e-01
26 23 7.75428390593273953e-01
27 23 8.22303390593273953e-01
28 23 8.53553390593273842e-01
29 23 8.22303390593273953e-01
30 23 7.75428390593273842e-01
31 23 7.44178390593273953e-01
32 23 7.28553390593273953e-01
33 23 7.28553390593273953e-01
34 23 7.44178390593273953e-01
35 23 7.75428390593273953e-01
36 23 8.22303390593273953e-01
37 23 8.53553390593273842e-01
1 24 8.53553390593273953e-01
2 24 8.22303390593273953e-01
3 24 7.75428390593273953e-01
4 24 7.44178390593273953e-01
5 24 7.28553390593273953e-01
6 24 7.28553390593273953e-01
7 24 7.44178390593273953e-01
8 24 7.75428390593273953e-01
9 24 8.22303390593273953e-01
10 24 8.53553390593273953e-01
11 24 8.22303390593273953e-01
12 24 7.75428390593273953e-01
13 24 7.44178390593273953e-01
14 24 7.28553390593273953e-01
15 24 7.28553390593273953e-01
16 24 7.44178390593273953e-01
17 24 7.75428390593273953e-01
18 24 8.22303390593273953e-01
19 24 8.53553390593273953e-01
20 24 8.22303390593273953e-01
21 24 7.75428390593273953e-01
22 24 7.44178390593273953e-01
23 24 7.28553390593273953e-01
24 24 7.28553390593273953e-01
25 24 7.44178390593273953e-01
26 24 7.75428390593273953e-01
27 24 8.22303390593273953e-01
28 24 8.53553390593273953e-01
29 24 8.22303390593273953e-01
30 24 7.75428390593273953e-01
31 24 7.44178390593273953e-01
32 24 7.28553390593273953e-01
33 24 7.28553390593273953e-01
34 24 7.44178390593273953e-01
35 24 7.75428390593273953e-01
36 24 8.22303390593273953e-01
37 24 8.53553390593273953e-01
1 25 8.71859216769114709e-01
2 25 8.39939010225154492e-01
3 25 7.92058700409214111e-01
4 25 7.60138493865254006e-01
5 25 7.44178390593273842e-01
6 25 7.44178390593273953e-01
7 25 7.60138493865254006e-01
8 25 7.92058700409214111e-01
9 25 8.39939010225154492e-01
10 25 8.71859216769114709e-01
11 25 8.39939010225154492e-01
12 25 7.92058700409214111e-01
13 25 7.60138493865254006e-01
14 25 7.44178390593273842e-01
15 25 7.44178390593273953e-01
16 25 7.60138493865254006e-01
17 25 7.92058700409214111e-01
18 25 8.39939010225154492e-01
19 25 8.71859216769114709e-01
20 25 8.39939010225154492e-01
21 25 7.92058700409214111e-01
22 25 7.60138493865254006e-01
23 25 7.44178390593273842e-01
24 25 7.44178390593273953e-01
25 25 7.60138493865254006e-01
26 25 7.92058700409214111e-01
27 25 8.39939010225154492e-01
28 25 8.71859216769114709e-01
29 25 8.39939010225154492e-01
30 25 7.92058700409214111e-01
31 25 7.60138493865254006e-01
32 25 7.44178390593273842e-01
33 25 7.44178390593273953e-01
34 25 7.60138493865254006e-01
35 25 7.92058700409214111e-01
36 25 8.39939010225154492e-01
37 25 8.71859216769114709e-01
1 26 9.08470869120796221e-01
2 26 8.75210249488915570e-01
3 26 8.25319320041094651e-01
4 26 7.92058700409214222e-01
5 26 7.75428390593273842e-01
6 26 7.75428390593273953e-01
7 26 7.92058700409214222e-01
8 26 8.25319320041094762e-01
9 26 8.75210249488915570e-01
10 26 9.08470869120796221e-01
11 26 8.75210249488915570e-01
12 26 8.25319320041094651e-01
13 26 7.92058700409214222e-01
14 26 7.75428390593273842e-01
15 26 7.75428390593273953e-01
16 26 7.92058700409214222e-01
17 26 8.25319320041094762e-01
18 26 8.75210249488915570e-01
19 26 9.08470869120796221e-01
20 26 8.75210249488915570e-01
21 26 8.25319320041094651e-01
22 26 7.92058700409214222e-01
23 26 7.75428390593273842e-01
24 26 7.75428390593273953e-01
25 26 7.92058700409214222e-01
26 26 8.25319320041094762e-01
27 26 8.75210249488915570e-01
28 26 9.08470869120796221e-01
29 26 8.75210249488915570e-01
30 26 8.25319320041094651e-01
31 26 7.92058700409214222e-01
32 26 7.75428390593273842e-01
33 26 7.75428390593273953e-01
34 26 7.92058700409214222e-01
35 26 8.25319320041094762e-01
36 26 8.75210249488915570e-01
37 26 9.08470869120796221e-01
1 27 9.63388347648318488e-01
2 27 9.28117108384557410e-01
3 27 8.75210249488915570e-01
4 27 8.39939010225154492e-01
5 27 8.22303390593273842e-01
6 27 8.22303390593273953e-01
7 27 8.39939010225154492e-01
8 27 8.75210249488915681e-01
9 27 9.28117108384557299e-01
10 27 9.63388347648318488e-01
11 27 9.28117108384557410e-01
12 27 8.75210249488915570e-01
13 27 8.39939010225154492e-01
14 27 8.22303390593273842e-01
15 27 8.22303390593273953e-01
16 27 8.39939010225154492e-01
17 27 8.75210249488915681e-01
18 27 9.28117108384557299e-01
19 27 9.63388347648318488e-01
20 27 9.28117108384557410e-01
21 27 8.75210249488915570e-01
22 27 8.39939010225154492e-01
23 27 8.22303390593273842e-01
24 27 8.22303390593273953e-01
25 27 8.39939010225154492e-01
26 27 8.75210249488915681e-01
27 27 9.28117108384557299e-01
28 27 9.63388347648318488e-01
29 27 9.28117108384557410e-01
30 27 8.75210249488915570e-01
31 27 8.39939010225154492e-01
32 27 8.22303390593273842e-01
33 27 8.22303390593273953e-01
34 27 8.39939010225154492e-01
35 27 8.75210249488915681e-01
36 27 9.28117108384557299e-01
37 27 9.63388347648318488e-01
1 28 1.00000000000000000e+00
2 28 9.63388347648318488e-01
3 28 9.08470869120796110e-01
4 28 8.71859216769114598e-01
5 28 8.53553390593273842e-01
6 28 8.53553390593273953e-01
7 28 8.71859216769114709e-01
8 28 9.08470869120796221e-01
9 28 9.63388347648318488e-01
10 28 1.00000000000000000e+00
11 28 9.63388347648318488e-01
12 28 9.08470869120796110e-01
13 28 8.71859216769114598e-01
14 28 8.53553390593273842e-01
15 28 8.53553390593273953e-01
16 28 8.71859216769114709e-01
17 28 9.08470869120796221e-01
18 28 9.63388347648318488e-01
19 28 1.00000000000000000e+00
20 28 9.63388347648318488e-01
21 28 9.08470869120796110e-01
22 28 8.71859216769114598e-01
23 28 8.53553390593273842e-01
24 28 8.53553390593273953e-01
25 28 8.71859216769114709e-01
26 28 9.08470869120796221e-01
27 28 9.63388347648318488e-01
28 28 1.00000000000000000e+00
29 28 9.63388347648318488e-01
30 28 9.08470869120796110e-01
31 28 8.71859216769114598e-01
32 28 8.53553390593273842e-01
33 28 8.53553390593273953e-01
34 28 8.71859216769114709e-01
35 28 9.08470869120796221e-01
36 28 9.63388347648318488e-01
37 28 1.00000000000000000e+00
1 29 9.63388347648318488e-01
2 29 9.28117108384557410e-01
3 29 8.75210249488915570e-01
4 29 8.39939010225154492e-01
5 29 8.22303390593273953e-01
6 29 8.22303390593273953e-01
7 29 8.39939010225154492e-01
8 29 8.75210249488915570e-01
9 29 9.28117108384557410e-01
10 29 9.63388347648318488e-01
11 29 9.28117108384557410e-01
12 29 8.75210249488915570e-01
13 29 8.39939010225154492e-01
14 29 8.22303390593273953e-01
15 29 8.22303390593273953e-01
16 29 8.39939010225154492e-01
17 29 8.75210249488915570e-01
18 29 9.28117108384557410e-01
19 29 9.63388347648318488e-01
20 29 9.28117108384557410e-01
21 29 8.75210249488915570e-01
22 29 8.39939010225154492e-01
23 29 8.22303390593273953e-01
24 29 8.22303390593273953e-01
25 29 8.39939010225154492e-01
26 29 8.75210249488915570e-01
27 29 9.28117108384557410e-01
28 29 9.63388347648318488e-01
29 29 9.28117108384557410e-01
30 29 8.75210249488915570e-01
31 29 8.39939010225154492e-01
32 29 8.22303390593273953e-01
33 29 8.22303390593273953e-01
34 29 8.39939010225154492e-01
35 29 8.75210249488915570e-01
36 29 9.28117108384557410e-01
37 29 9.63388347648318488e-01
1 30 9.08470869120796110e-01
2 30 8.75210249488915681e-01
3 30 8.25319320041094651e-01
4 30 7.92058700409214111e-01
5 30 7.75428390593273953e-01
6 30 7.75428390593273953e-01
7 30 7.92058700409214334e-01
8 30 8.25319320041094651e-01
9 30 8.75210249488915681e-01
10 30 9.08470869120796110e-01
11 30 8.75210249488915681e-01
12 30 8.25319320041094651e-01
13 30 7.92058700409214111e-01
14 30 7.75428390593273953e-01
15 30 7.75428390593273953e-01
16 30 7.92058700409214334e-01
17 30 8.25319320041094651e-01
18 30 8.75210249488915681e-01
19 30 9.08470869120796110e-01
20 30 8.75210249488915681e-01
21 30 8.25319320041094651e-01
22 30 7.92058700409214111e-01
23 30 7.75428390593273953e-01
24 30 7.75428390593273953e-01
25 30 7.92058700409214334e-01
26 30 8.25319320041094651e-01
27 30 8.75210249488915681e-01
28 30 9.08470869120796110e-01
29 30 8.75210249488915681e-01
30 30 8.25319320041094651e-01
31 30 7.92058700409214111e-01
32 30 7.75428390593273953e-01
33 30 7.75428390593273953e-01
34 30 7.92058700409214334e-01
35 30 8.25319320041094651e-01
36 30 8.75210249488915681e-01
37 30 9.08470869120796110e-01
1 31 8.71859216769114598e-01
2 31 8.39939010225154492e-01
3 31 7.92058700409214111e-01
4 31 7.60138493865254006e-01
5 31 7.44178390593273953e-01
6 31 7.44178390593273953e-01
7 31 7.60138493865254006e-01
8 31 7.92058700409214222e-01
9 31 8.39939010225154492e-01
10 31 8.71859216769114598e-01
11 31 8.39939010225154492e-01
12 31 7.92058700409214111e-01
13 31 7.60138493865254006e-01
14 31 7.44178390593273953e-01
15 31 7.44178390593273953e-01
16 31 7.60138493865254006e-01
17 31 7.92058700409214222e-01
18 31 8.39939010225154492e-01
19 31 8.71859216769114598e-01
20 31 8.39939010225154492e-01
21 31 7.92058700409214111e-01
22 31 7.60138493865254006e-01
23 31 7.44178390593273953e-01
24 31 7.44178390593273953e-01
25 31 7.60138493865254006e-01
26 31 7.92058700409214222e-01
27 31 8.39939010225154492e-01
28 31 8.71859216769114598e-01
29 31 8.39939010225154492e-01
30 31 7.92058700409214111e-01
31 31 7.60138493865254006e-01
32 31 7.44178390593273953e-01
33 31 7.44178390593273953e-01
34 31 7.60138493865254006e-01
35 31 7.92058700409214222e-01
36 31 8.39939010225154492e-01
37 31 8.71859216769114598e-01
1 32 8.53553390593273842e-01
2 32 8.22303390593273953e-01
3 32 7.75428390593273842e-01
4 32 7.44178390593273953e-01
5 32 7.28553390593273953e-01
6 32 7.28553390593273953e-01
7 32 7.44178390593273953e-01
8 32 7.75428390593273953e-01
9 32 8.22303390593273953e-01
10 32 8.53553390593273842e-01
11 32 8.22303390593273953e-01
12 32 7.75428390593273842e-01
13 32 7.44178390593273953e-01
14 32 7.28553390593273953e-01
15 32 7.28553390593273953e-01
16 32 7.44178390593273953e-01
17 32 7.75428390593273953e-01
18 32 8.22303390593273953e-01
19 32 8.53553390593273842e-01
20 32 8.22303390593273953e-01
21 32 7.75428390593273842e-01
22 32 7.44178390593273953e-01
23 32 7.28553390593273953e-01
24 32 7.28553390593273953e-01
25 32 7.44178390593273953e-01
26 32 7.75428390593273953e-01
27 32 8.22303390593273953e-01
28 32 8.53553390593273842e-01
29 32 8.22303390593273953e-01
30 32 7.75428390593273842e-01
31 32 7.44178390593273953e-01
32 32 7.28553390593273953e-01
33 32 7.28553390593273953e-01
34 32 7.44178390593273953e-01
35 32 7.75428390593273953e-01
36 32 8.22303390593273953e-01
37 32 8.53553390593273842e-01
1 33 8.53553390593273953e-01
2 33 8.22303390593273953e-01
3 33 7.75428390593273953e-01
4 33 7.44178390593273953e-01
5 33 7.28553390593273953e-01
6 33 7.28553390593273953e-01
7 33 7.44178390593273953e-01
8 33 7.75428390593273953e-01
9 33 8.22303390593273953e-01
10 33 8.53553390593273953e-01
11 33 8.22303390593273953e-01
12 33 7.75428390593273953e-01
13 33 7.44178390593273953e-01
14 33 7.28553390593273953e-01
15 33 7.28553390593273953e-01
16 33 7.44178390593273953e-01
17 33 7.75428390593273953e-01
18 33 8.22303390593273953e-01
19 33 8.53553390593273953e-01
20 33 8.22303390593273953e-01
21 33 7.75428390593273953e-01
22 33 7.44178390593273953e-01
23 33 7.28553390593273953e-01
24 33 7.28553390593273953e-01
25 33 7.44178390593273953e-01
26 33 7.75428390593273953e-01
27 33 8.22303390593273953e-01
28 33 8.53553390593273953e-01
29 33 8.22303390593273953e-01
30 33 7.75428390593273953e-01
31 33 7.44178390593273953e-01
32 33 7.28553390593273953e-01
33 33 7.28553390593273953e-01
34 33 7.44178390593273953e-01
35 33 7.75428390593273953e-01
36 33 8.22303390593273953e-01
37 33 8.53553390593273953e-01
1 34 8.71859216769114709e-01
2 34 8.39939010225154492e-01
3 34 7.92058700409214111e-01
4 34 7.60138493865254006e-01
5 34 7.44178390593273842e-01
6 34 7.44178390593273953e-01
7 34 7.60138493865254006e-01
8 34 7.92058700409214111e-01
9 34 8.39939010225154492e-01
10 34 8.71859216769114709e-01
11 34 8.39939010225154492e-01
12 34 7.92058700409214111e-01
13 34 7.60138493865254006e-01
14 34 7.44178390593273842e-01
15 34 7.44178390593273953e-01
16 34 7.60138493865254006e-01
17 34 7.92058700409214111e-01
18 34 8.39939010225154492e-01
19 34 8.71859216769114709e-01
20 34 8.39939010225154492e-01
21 34 7.92058700409214111e-01
22 34 7.60138493865254006e-01
23 34 7.44178390593273842e-01
24 34 7.44178390593273953e-01
25 34 7.60138493865254006e-01
26 34 7.92058700409214111e-01
27 34 8.39939010225154492e-01
28 34 8.71859216769114709e-01
29 34 8.39939010225154492e-01
30 34 7.92058700409214111e-01
31 34 7.60138493865254006e-01
32 34 7.44178390593273842e-01
33 34 7.44178390593273953e-01
34 34 7.60138493865254006e-01
35 34 7.92058700409214111e-01
36 34 8.39939010225154492e-01
37 34 8.71859216769114709e-01
1 35 9.08470869120796221e-01
2 35 8.75210249488915570e-01
3 35 8.25319320041094651e-01
4 35 7.92058700409214222e-01
5 35 7.75428390593273842e-01
6 35 7.75428390593273953e-01
7 35 7.92058700409214222e-01
8 35 8.25319320041094762e-01
9 35 8.75210249488915570e-01
10 35 9.08470869120796221e-01
11 35 8.75210249488915570e-01
12 35 8.25319320041094651e-01
13 35 7.92058700409214222e-01
14 35 7.75428390593273842e-01
15 35 7.75428390593273953e-01
16 35 7.92058700409214222e-01
17 35 8.25319320041094762e-01
18 35 8.75210249488915570e-01
19 35 9.08470869120796221e-01
20 35 8.75210249488915570e-01
21 35 8.25319320041094651e-01
22 35 7.92058700409214222e-01
23 35 7.75428390593273842e-01
24 35 7.75428390593273953e-01
25 35 7.92058700409214222e-01
26 35 8.25319320041094762e-01
27 35 8.75210249488915570e-01
28 35 9.08470869120796221e-01
29 35 8.75210249488915570e-01
30 35 8.25319320041094651e-01
31 35 7.92058700409214222e-01
32 35 7.75428390593273842e-01
33 35 7.75428390593273953e-01
34 35 7.92058700409214222e-01
35 35 8.25319320041094762e-01
36 35 8.75210249488915570e-01
37 35 9.08470869120796221e-01
1 36 9.63388347648318488e-01
2 36 9.28117108384557410e-01
3 36 8.75210249488915570e-01
4 36 8.39939010225154492e-01
5 36 8.22303390593273842e-01
6 36 8.22303390593273953e-01
7 36 8.39939010225154492e-01
8 36 8.75210249488915681e-01
9 36 9.28117108384557299e-01
10 36 9.63388347648318488e-01
11 36 9.28117108384557410e-01
12 36 8.75210249488915570e-01
13 36 8.39939010225154492e-01
14 36 8.22303390593273842e-01
15 36 8.22303390593273953e-01
16 36 8.39939010225154492e-01
17 36 8.75210249488915681e-01
18 36 9.28117108384557299e-01
19 36 9.63388347648318488e-01
20 36 9.28117108384557410e-01
21 36 8.75210249488915570e-01
22 36 8.39939010225154492e-01
23 36 8.22303390593273842e-01
24 36 8.22303390593273953e-01
25 36 8.39939010225154492e-01
26 36 8.75210249488915681e-01
27 36 9.28117108384557299e-01
28 36 9.63388347648318488e-01
29 36 9.28117108384557410e-01
30 36 8.75210249488915570e-01
31 36 8.39939010225154492e-01
32 36 8.22303390593273842e-01
33 36 8.22303390593273953e-01
34 36 8.39939010225154492e-01
35 36 8.75210249488915681e-01
36 36 9.28117108384557299e-01
37 36 9.63388347648318488e-01
1 37 1.00000000000000000e+00
2 37 9.63388347648318488e-01
3 37 9.08470869120796110e-01
4 37 8.71859216769114598e-01
5 37 8.53553390593273842e-01
6 37 8.53553390593273953e-01
7 37 8.71859216769114709e-01
8 37 9.08470869120796221e-01
9 37 9.63388347648318488e-01
10 37 1.00000000000000000e+00
11 37 9.63388347648318488e-01
12 37 9.08470869120796110e-01
13 37 8.71859216769114598e-01
14 37 8.53553390593273842e-01
15 37 8.53553390593273953e-01
16 37 8.71859216769114709e-01
17 37 9.08470869120796221e-01
18 37 9.63388347648318488e-01
19 37 1.00000000000000000e+00
20 37 9.63388347648318488e-01
21 37 9.08470869120796110e-01
22 37 8.71859216769114598e-01
23 37 8.53553390593273842e-01
24 37 8.53553390593273953e-01
25 37 8.71859216769114709e-01
26 37 9.08470869120796221e-01
27 37 9.63388347648318488e-01
28 37 1.00000000000000000e+00
29 37 9.63388347648318488e-01
30 37 9.08470869120796110e-01
31 37 8.71859216769114598e-01
32 37 8.53553390593273842e-01
33 37 8.53553390593273953e-01
34 37 8.71859216769114709e-01
35 37 9.08470869120796221e-01
36 37 9.63388347648318488e-01
37 37 1.00000000000000000e+00
