%%MatrixMarket matrix coordinate  real general
18 17 306
1 1 0.00000000000000000e+00
2 1 4.50182704578984960e-02
3 1 1.36203080274779370e-01
4 1 2.29085538991423809e-01
5 1 3.22403165741168007e-01
6 1 4.14735640377990711e-01
7 1 5.04558928522400918e-01
8 1 5.90315496922952931e-01
9 1 6.70495128834865950e-01
10 1 7.43718433538229085e-01
11 1 8.08813898564044842e-01
12 1 8.64879707778836715e-01
13 1 9.11323581875453037e-01
14 1 9.47877166595474496e-01
15 1 9.74585237549167815e-01
16 1 9.91773362669283620e-01
17 1 1.00000000000000000e+00
18 1 1.00000000000000000e+00
1 2 0.00000000000000000e+00
2 2 4.78319123615171538e-02
3 2 1.44715772791953079e-01
4 2 2.43403385178387832e-01
5 2 3.42553363599991056e-01
6 2 4.40656617901615144e-01
7 2 5.36093861555051010e-01
8 2 6.27210215480637601e-01
9 2 7.12401074387045141e-01
10 2 7.90200835634368381e-01
11 2 8.59364767224297776e-01
12 2 9.18934689515014003e-01
13 2 9.68281305742668907e-01
14 2 1.00711948950769159e+00
15 2 1.03549681489599088e+00
16 2 1.05375919783611383e+00
17 2 1.06250000000000000e+00
18 2 1.06250000000000000e+00
1 3 0.00000000000000000e+00
2 3 5.06455542651358115e-02
3 3 1.53228465309126760e-01
4 3 2.57721231365351855e-01
5 3 3.62703561458814105e-01
6 3 4.66577595425239633e-01
7 3 5.67628794587701102e-01
8 3 6.64104934038322159e-01
9 3 7.54307019939224221e-01
10 3 8.36683237730507678e-01
11 3 9.09915635884550489e-01
12 3 9.72989671251191401e-01
13 3 1.02523902960988478e+00
14 3 1.06636181241990879e+00
15 3 1.09640839224281383e+00
16 3 1.11574503300294392e+00
17 3 1.12500000000000000e+00
18 3 1.12500000000000000e+00
1 4 0.00000000000000000e+00
2 4 5.34591961687544762e-02
3 4 1.61741157826300469e-01
4 4 2.72039077552315878e-01
5 4 3.82853759317637155e-01
6 4 4.92498572948864011e-01
7 4 5.99163727620351194e-01
8 4 7.00999652596006717e-01
9 4 7.96212965491403413e-01
10 4 8.83165639826646864e-01
11 4 9.60466504544803312e-01
12 4 1.02704465298736869e+00
13 4 1.08219675347710065e+00
14 4 1.12560413533212600e+00
15 4 1.15731996958963679e+00
16 4 1.17773086816977401e+00
17 4 1.18750000000000022e+00
18 4 1.18750000000000000e+00
1 5 0.00000000000000000e+00
2 5 5.62728380723731270e-02
3 5 1.70253850343474150e-01
4 5 2.86356923739279845e-01
5 5 4.03003957176460148e-01
6 5 5.18419550472488444e-01
7 5 6.30698660653001175e-01
8 5 7.37894371153691275e-01
9 5 8.38118911043582493e-01
10 5 9.29648041922786383e-01
11 5 1.01101737320505625e+00
12 5 1.08109963472354598e+00
13 5 1.13915447734431652e+00
14 5 1.18484645824434343e+00
15 5 1.21823154693645974e+00
16 5 1.23971670333660433e+00
17 5 1.25000000000000000e+00
18 5 1.25000000000000000e+00
1 6 0.00000000000000000e+00
2 6 5.90864799759917708e-02
3 6 1.78766542860647859e-01
4 6 3.00674769926243812e-01
5 6 4.23154155035283197e-01
6 6 5.44340527996112877e-01
7 6 6.62233593685651267e-01
8 6 7.74789089711375834e-01
9 6 8.80024856595761462e-01
10 6 9.76130444018925680e-01
11 6 1.06156824186530918e+00
12 6 1.13515461645972326e+00
13 6 1.19611220121153239e+00
14 6 1.24408878115656041e+00
15 6 1.27914312428328270e+00
16 6 1.30170253850343465e+00
17 6 1.31250000000000000e+00
18 6 1.31250000000000000e+00
1 7 0.00000000000000000e+00
2 7 6.19001218796104286e-02
3 7 1.87279235377821596e-01
4 7 3.14992616113207780e-01
5 7 4.43304352894106135e-01
6 7 5.70261505519737422e-01
7 7 6.93768526718301359e-01
8 7 8.11683808269060392e-01
9 7 9.21930802147940542e-01
10 7 1.02261284611506498e+00
11 7 1.11211911052556189e+00
12 7 1.18920959819590055e+00
13 7 1.25306992507874804e+00
14 7 1.30333110406877739e+00
15 7 1.34005470163010543e+00
16 7 1.36368837367026474e+00
17 7 1.37500000000000000e+00
18 7 1.37499999999999978e+00
1 8 0.00000000000000000e+00
2 8 6.47137637832290863e-02
3 8 1.95791927894995305e-01
4 8 3.29310462300171802e-01
5 8 4.63454550752929129e-01
6 8 5.96182483043361855e-01
7 8 7.25303459750951451e-01
8 8 8.48578526826744950e-01
9 8 9.63836747700119734e-01
10 8 1.06909524821120439e+00
11 8 1.16266997918581483e+00
12 8 1.24326457993207784e+00
13 8 1.31002764894596369e+00
14 8 1.36257342698099460e+00
15 8 1.40096627897692860e+00
16 8 1.42567420883709506e+00
17 8 1.43750000000000022e+00
18 8 1.43749999999999978e+00
1 9 0.00000000000000000e+00
2 9 6.75274056868477440e-02
3 9 2.04304620412169041e-01
4 9 3.43628308487135770e-01
5 9 4.83604748611752122e-01
6 9 6.22103460566986288e-01
7 9 7.56838392783601543e-01
8 9 8.85473245384429508e-01
9 9 1.00574269325229881e+00
10 9 1.11557765030734379e+00
11 9 1.21322084784606776e+00
12 9 1.29731956166825513e+00
13 9 1.36698537281317956e+00
14 9 1.42181574989321180e+00
15 9 1.46187785632375156e+00
16 9 1.48766004400392560e+00
17 9 1.50000000000000022e+00
18 9 1.49999999999999978e+00
1 10 0.00000000000000000e+00
2 10 7.03410475904664018e-02
3 10 2.12817312929342778e-01
4 10 3.57946154674099737e-01
5 10 5.03754946470575171e-01
6 10 6.48024438090610611e-01
7 10 7.88373325816251525e-01
8 10 9.22367963942114177e-01
9 10 1.04764863880447789e+00
10 10 1.16206005240348320e+00
11 10 1.26377171650632047e+00
12 10 1.35137454340443242e+00
13 10 1.42394309668039543e+00
14 10 1.48105807280542923e+00
15 10 1.52278943367057451e+00
16 10 1.54964587917075569e+00
17 10 1.56250000000000022e+00
18 10 1.56249999999999978e+00
1 11 0.00000000000000000e+00
2 11 7.31546894940850595e-02
3 11 2.21330005446516487e-01
4 11 3.72264000861063704e-01
5 11 5.23905144329398165e-01
6 11 6.73945415614234933e-01
7 11 8.19908258848901506e-01
8 11 9.59262682499798847e-01
9 11 1.08955458435665697e+00
10 11 1.20854245449962239e+00
11 11 1.31432258516657341e+00
12 11 1.40542952514060948e+00
13 11 1.48090082054761130e+00
14 11 1.54030039571764643e+00
15 11 1.58370101101739746e+00
16 11 1.61163171433758601e+00
17 11 1.62500000000000022e+00
18 11 1.62499999999999956e+00
1 12 0.00000000000000000e+00
2 12 7.59683313977037172e-02
3 12 2.29842697963690196e-01
4 12 3.86581847048027671e-01
5 12 5.44055342188221158e-01
6 12 6.99866393137859366e-01
7 12 8.51443191881551487e-01
8 12 9.96157401057483405e-01
9 12 1.13146052990883628e+00
10 12 1.25502485659576180e+00
11 12 1.36487345382682612e+00
12 12 1.45948450687678677e+00
13 12 1.53785854441482717e+00
14 12 1.59954271862986364e+00
15 12 1.64461258836422042e+00
16 12 1.67361754950441610e+00
17 12 1.68750000000000044e+00
18 12 1.68749999999999978e+00
1 13 0.00000000000000000e+00
2 13 7.87819733013223750e-02
3 13 2.38355390480863877e-01
4 13 4.00899693234991694e-01
5 13 5.64205540047044152e-01
6 13 7.25787370661483799e-01
7 13 8.82978124914201690e-01
8 13 1.03305211961516785e+00
9 13 1.17336647546101558e+00
10 13 1.30150725869190098e+00
11 13 1.41542432248707883e+00
12 13 1.51353948861296406e+00
13 13 1.59481626828204304e+00
14 13 1.65878504154208084e+00
15 13 1.70552416571104337e+00
16 13 1.73560338467124642e+00
17 13 1.75000000000000022e+00
18 13 1.75000000000000000e+00
1 14 0.00000000000000000e+00
2 14 8.15956152049410188e-02
3 14 2.46868082998037558e-01
4 14 4.15217539421955717e-01
5 14 5.84355737905867145e-01
6 14 7.51708348185108233e-01
7 14 9.14513057946851671e-01
8 14 1.06994683817285230e+00
9 14 1.21527242101319466e+00
10 14 1.34798966078804039e+00
11 14 1.46597519114733155e+00
12 14 1.56759447034914134e+00
13 14 1.65177399214925869e+00
14 14 1.71802736445429782e+00
15 14 1.76643574305786655e+00
16 14 1.79758921983807674e+00
17 14 1.81250000000000000e+00
18 14 1.81250000000000000e+00
1 15 0.00000000000000000e+00
2 15 8.44092571085596766e-02
3 15 2.55380775515211267e-01
4 15 4.29535385608919684e-01
5 15 6.04505935764690139e-01
6 15 7.77629325708732555e-01
7 15 9.46047990979501652e-01
8 15 1.10684155673053675e+00
9 15 1.25717836656537374e+00
10 15 1.39447206288417958e+00
11 15 1.51652605980758426e+00
12 15 1.62164945208531885e+00
13 15 1.70873171601647433e+00
14 15 1.77726968736651481e+00
15 15 1.82734732040468950e+00
16 15 1.85957505500490683e+00
17 15 1.87500000000000000e+00
18 15 1.87500000000000000e+00
1 16 0.00000000000000000e+00
2 16 8.72228990121783204e-02
3 16 2.63893468032385003e-01
4 16 4.43853231795883652e-01
5 16 6.24656133623513021e-01
6 16 8.03550303232356988e-01
7 16 9.77582924012151633e-01
8 16 1.14373627528822142e+00
9 16 1.29908431211755282e+00
10 16 1.44095446498031898e+00
11 16 1.56707692846783719e+00
12 16 1.67570443382149592e+00
13 16 1.76568943988369020e+00
14 16 1.83651201027873201e+00
15 16 1.88825889775151268e+00
16 16 1.92156089017173715e+00
17 16 1.93750000000000000e+00
18 16 1.93750000000000000e+00
1 17 0.00000000000000000e+00
2 17 9.00365409157969920e-02
3 17 2.72406160549558740e-01
4 17 4.58171077982847619e-01
5 17 6.44806331482336015e-01
6 17 8.29471280755981422e-01
7 17 1.00911785704480184e+00
8 17 1.18063099384590586e+00
9 17 1.34099025766973190e+00
10 17 1.48743686707645817e+00
11 17 1.61762779712808968e+00
12 17 1.72975941555767343e+00
13 17 1.82264716375090607e+00
14 17 1.89575433319094899e+00
15 17 1.94917047509833563e+00
16 17 1.98354672533856724e+00
17 17 2.00000000000000000e+00
18 17 2.00000000000000000e+00
