%%MatrixMarket matrix coordinate  real general
18 17 306
1 1 1.00000000000000000e+00
2 1 1.00000000000000000e+00
3 1 9.91773362669283620e-01
4 1 9.74585237549167815e-01
5 1 9.47877166595474496e-01
6 1 9.11323581875453148e-01
7 1 8.64879707778836604e-01
8 1 8.08813898564044731e-01
9 1 7.43718433538229085e-01
10 1 6.70495128834866061e-01
11 1 5.90315496922953042e-01
12 1 5.04558928522401029e-01
13 1 4.14735640377990711e-01
14 1 3.22403165741168007e-01
15 1 2.29085538991423865e-01
16 1 1.36203080274779453e-01
17 1 4.50182704578985585e-02
18 1 6.12323399573676604e-17
1 2 1.06250000000000000e+00
2 2 1.06250000000000000e+00
3 2 1.05375919783611405e+00
4 2 1.03549681489599088e+00
5 2 1.00711948950769159e+00
6 2 9.68281305742668907e-01
7 2 9.18934689515014003e-01
8 2 8.59364767224297554e-01
9 2 7.90200835634368381e-01
10 2 7.12401074387045252e-01
11 2 6.27210215480637490e-01
12 2 5.36093861555051121e-01
13 2 4.40656617901615089e-01
14 2 3.42553363599991001e-01
15 2 2.43403385178387888e-01
16 2 1.44715772791953162e-01
17 2 4.78319123615172162e-02
18 2 6.50593612047031461e-17
1 3 1.12500000000000000e+00
2 3 1.12500000000000000e+00
3 3 1.11574503300294436e+00
4 3 1.09640839224281406e+00
5 3 1.06636181241990879e+00
6 3 1.02523902960988478e+00
7 3 9.72989671251191401e-01
8 3 9.09915635884550489e-01
9 3 8.36683237730507678e-01
10 3 7.54307019939224221e-01
11 3 6.64104934038322159e-01
12 3 5.67628794587701324e-01
13 3 4.66577595425239577e-01
14 3 3.62703561458814050e-01
15 3 2.57721231365351910e-01
16 3 1.53228465309126871e-01
17 3 5.06455542651358809e-02
18 3 6.88863824520386318e-17
1 4 1.18750000000000000e+00
2 4 1.18750000000000022e+00
3 4 1.17773086816977468e+00
4 4 1.15731996958963701e+00
5 4 1.12560413533212578e+00
6 4 1.08219675347710065e+00
7 4 1.02704465298736869e+00
8 4 9.60466504544803312e-01
9 4 8.83165639826646864e-01
10 4 7.96212965491403413e-01
11 4 7.00999652596006606e-01
12 4 5.99163727620351416e-01
13 4 4.92498572948863955e-01
14 4 3.82853759317637043e-01
15 4 2.72039077552315878e-01
16 4 1.61741157826300580e-01
17 4 5.34591961687545456e-02
18 4 7.27134036993741052e-17
1 5 1.25000000000000000e+00
2 5 1.25000000000000000e+00
3 5 1.23971670333660478e+00
4 5 1.21823154693645974e+00
5 5 1.18484645824434298e+00
6 5 1.13915447734431652e+00
7 5 1.08109963472354598e+00
8 5 1.01101737320505602e+00
9 5 9.29648041922786383e-01
10 5 8.38118911043582604e-01
11 5 7.37894371153691275e-01
12 5 6.30698660653001508e-01
13 5 5.18419550472488333e-01
14 5 4.03003957176460093e-01
15 5 2.86356923739279901e-01
16 5 1.70253850343474289e-01
17 5 5.62728380723732033e-02
18 5 7.65404249467095785e-17
1 6 1.31250000000000000e+00
2 6 1.31250000000000000e+00
3 6 1.30170253850343509e+00
4 6 1.27914312428328270e+00
5 6 1.24408878115656019e+00
6 6 1.19611220121153239e+00
7 6 1.13515461645972349e+00
8 6 1.06156824186530874e+00
9 6 9.76130444018925680e-01
10 6 8.80024856595761684e-01
11 6 7.74789089711375834e-01
12 6 6.62233593685651489e-01
13 6 5.44340527996112766e-01
14 6 4.23154155035283142e-01
15 6 3.00674769926243923e-01
16 6 1.78766542860648026e-01
17 6 5.90864799759918610e-02
18 6 8.03674461940450642e-17
1 7 1.37499999999999978e+00
2 7 1.37500000000000000e+00
3 7 1.36368837367026519e+00
4 7 1.34005470163010543e+00
5 7 1.30333110406877739e+00
6 7 1.25306992507874826e+00
7 7 1.18920959819590100e+00
8 7 1.11211911052556145e+00
9 7 1.02261284611506498e+00
10 7 9.21930802147940875e-01
11 7 8.11683808269060503e-01
12 7 6.93768526718301470e-01
13 7 5.70261505519737200e-01
14 7 4.43304352894106135e-01
15 7 3.14992616113207946e-01
16 7 1.87279235377821707e-01
17 7 6.19001218796105257e-02
18 7 8.41944674413805499e-17
1 8 1.43749999999999978e+00
2 8 1.43750000000000022e+00
3 8 1.42567420883709550e+00
4 8 1.40096627897692860e+00
5 8 1.36257342698099460e+00
6 8 1.31002764894596391e+00
7 8 1.24326457993207828e+00
8 8 1.16266997918581416e+00
9 8 1.06909524821120439e+00
10 8 9.63836747700120067e-01
11 8 8.48578526826745061e-01
12 8 7.25303459750951673e-01
13 8 5.96182483043361633e-01
14 8 4.63454550752929129e-01
15 8 3.29310462300171913e-01
16 8 1.95791927894995416e-01
17 8 6.47137637832291834e-02
18 8 8.80214886887160233e-17
1 9 1.49999999999999978e+00
2 9 1.50000000000000022e+00
3 9 1.48766004400392582e+00
4 9 1.46187785632375156e+00
5 9 1.42181574989321158e+00
6 9 1.36698537281317956e+00
7 9 1.29731956166825535e+00
8 9 1.21322084784606687e+00
9 9 1.11557765030734379e+00
10 9 1.00574269325229926e+00
11 9 8.85473245384429619e-01
12 9 7.56838392783601654e-01
13 9 6.22103460566986066e-01
14 9 4.83604748611752122e-01
15 9 3.43628308487135825e-01
16 9 2.04304620412169124e-01
17 9 6.75274056868478412e-02
18 9 9.18485099360514967e-17
1 10 1.56249999999999978e+00
2 10 1.56250000000000022e+00
3 10 1.54964587917075591e+00
4 10 1.52278943367057451e+00
5 10 1.48105807280542878e+00
6 10 1.42394309668039543e+00
7 10 1.35137454340443264e+00
8 10 1.26377171650631981e+00
9 10 1.16206005240348320e+00
10 10 1.04764863880447834e+00
11 10 9.22367963942114288e-01
12 10 7.88373325816251747e-01
13 10 6.48024438090610500e-01
14 10 5.03754946470575171e-01
15 10 3.57946154674099792e-01
16 10 2.12817312929342861e-01
17 10 7.03410475904664989e-02
18 10 9.56755311833869824e-17
1 11 1.62499999999999956e+00
2 11 1.62500000000000022e+00
3 11 1.61163171433758601e+00
4 11 1.58370101101739746e+00
5 11 1.54030039571764621e+00
6 11 1.48090082054761130e+00
7 11 1.40542952514061015e+00
8 11 1.31432258516657252e+00
9 11 1.20854245449962239e+00
10 11 1.08955458435665742e+00
11 11 9.59262682499798958e-01
12 11 8.19908258848901728e-01
13 11 6.73945415614234822e-01
14 11 5.23905144329398165e-01
15 11 3.72264000861063760e-01
16 11 2.21330005446516542e-01
17 11 7.31546894940851705e-02
18 11 9.95025524307224681e-17
1 12 1.68749999999999978e+00
2 12 1.68750000000000044e+00
3 12 1.67361754950441632e+00
4 12 1.64461258836422042e+00
5 12 1.59954271862986341e+00
6 12 1.53785854441482717e+00
7 12 1.45948450687678721e+00
8 12 1.36487345382682523e+00
9 12 1.25502485659576180e+00
10 12 1.13146052990883650e+00
11 12 9.96157401057483405e-01
12 12 8.51443191881551820e-01
13 12 6.99866393137859255e-01
14 12 5.44055342188221158e-01
15 12 3.86581847048027727e-01
16 12 2.29842697963690279e-01
17 12 7.59683313977038283e-02
18 12 1.03329573678057954e-16
1 13 1.75000000000000000e+00
2 13 1.75000000000000022e+00
3 13 1.73560338467124664e+00
4 13 1.70552416571104337e+00
5 13 1.65878504154208040e+00
6 13 1.59481626828204304e+00
7 13 1.51353948861296472e+00
8 13 1.41542432248707817e+00
9 13 1.30150725869190098e+00
10 13 1.17336647546101558e+00
11 13 1.03305211961516785e+00
12 13 8.82978124914202023e-01
13 13 7.25787370661483688e-01
14 13 5.64205540047044263e-01
15 13 4.00899693234991750e-01
16 13 2.38355390480863988e-01
17 13 7.87819733013224860e-02
18 13 1.07156594925393427e-16
1 14 1.81250000000000000e+00
2 14 1.81250000000000000e+00
3 14 1.79758921983807674e+00
4 14 1.76643574305786655e+00
5 14 1.71802736445429760e+00
6 14 1.65177399214925891e+00
7 14 1.56759447034914179e+00
8 14 1.46597519114733110e+00
9 14 1.34798966078804039e+00
10 14 1.21527242101319466e+00
11 14 1.06994683817285230e+00
12 14 9.14513057946852115e-01
13 14 7.51708348185108122e-01
14 14 5.84355737905867145e-01
15 14 4.15217539421955772e-01
16 14 2.46868082998037697e-01
17 14 8.15956152049411437e-02
18 14 1.10983616172728901e-16
1 15 1.87500000000000000e+00
2 15 1.87500000000000000e+00
3 15 1.85957505500490683e+00
4 15 1.82734732040468950e+00
5 15 1.77726968736651458e+00
6 15 1.70873171601647456e+00
7 15 1.62164945208531885e+00
8 15 1.51652605980758404e+00
9 15 1.39447206288417958e+00
10 15 1.25717836656537396e+00
11 15 1.10684155673053675e+00
12 15 9.46047990979502096e-01
13 15 7.77629325708732555e-01
14 15 6.04505935764690139e-01
15 15 4.29535385608919740e-01
16 15 2.55380775515211433e-01
17 15 8.44092571085598015e-02
18 15 1.14810637420064374e-16
1 16 1.93750000000000000e+00
2 16 1.93750000000000000e+00
3 16 1.92156089017173715e+00
4 16 1.88825889775151268e+00
5 16 1.83651201027873157e+00
6 16 1.76568943988369020e+00
7 16 1.67570443382149592e+00
8 16 1.56707692846783675e+00
9 16 1.44095446498031898e+00
10 16 1.29908431211755304e+00
11 16 1.14373627528822142e+00
12 16 9.77582924012152077e-01
13 16 8.03550303232356988e-01
14 16 6.24656133623513021e-01
15 16 4.43853231795883707e-01
16 16 2.63893468032385170e-01
17 16 8.72228990121784592e-02
18 16 1.18637658667399847e-16
1 17 2.00000000000000000e+00
2 17 2.00000000000000000e+00
3 17 1.98354672533856724e+00
4 17 1.94917047509833563e+00
5 17 1.89575433319094899e+00
6 17 1.82264716375090630e+00
7 17 1.72975941555767321e+00
8 17 1.61762779712808946e+00
9 17 1.48743686707645817e+00
10 17 1.34099025766973212e+00
11 17 1.18063099384590608e+00
12 17 1.00911785704480206e+00
13 17 8.29471280755981422e-01
14 17 6.44806331482336015e-01
15 17 4.58171077982847730e-01
16 17 2.72406160549558907e-01
17 17 9.00365409157971169e-02
18 17 1.22464679914735321e-16
