%%MatrixMarket matrix coordinate  real general
1 19 19
1 1 0.00000000000000000e+00
1 2 0.00000000000000000e+00
1 3 6.25000000000000000e-02
1 4 1.25000000000000000e-01
1 5 1.87500000000000000e-01
1 6 2.50000000000000000e-01
1 7 3.12500000000000000e-01
1 8 3.75000000000000000e-01
1 9 4.37500000000000000e-01
1 10 5.00000000000000000e-01
1 11 5.62500000000000000e-01
1 12 6.25000000000000000e-01
1 13 6.87500000000000000e-01
1 14 7.50000000000000000e-01
1 15 8.12500000000000000e-01
1 16 8.75000000000000000e-01
1 17 9.37500000000000000e-01
1 18 1.00000000000000000e+00
1 19 1.00000000000000000e+00
