%%MatrixMarket matrix coordinate  real general
6 5 30
1 1 1.00000000000000000e+00
2 1 1.00000000000000000e+00
3 1 8.53553390593273842e-01
4 1 5.60660171779821415e-01
5 1 1.90743569830546272e-01
6 1 6.12323399573676604e-17
1 2 1.25000000000000000e+00
2 2 1.25000000000000022e+00
3 2 1.06694173824159244e+00
4 2 7.00825214724776768e-01
5 2 2.38429462288182792e-01
6 2 7.65404249467095785e-17
1 3 1.50000000000000000e+00
2 3 1.50000000000000022e+00
3 3 1.28033008588991093e+00
4 3 8.40990257669732011e-01
5 3 2.86115354745819395e-01
6 3 9.18485099360514967e-17
1 4 1.75000000000000000e+00
2 4 1.75000000000000022e+00
3 4 1.49371843353822920e+00
4 4 9.81155300614687365e-01
5 4 3.33801247203455942e-01
6 4 1.07156594925393403e-16
1 5 2.00000000000000000e+00
2 5 2.00000000000000000e+00
3 5 1.70710678118654768e+00
4 5 1.12132034355964283e+00
5 5 3.81487139661092545e-01
6 5 1.22464679914735321e-16
