%%MatrixMarket matrix coordinate  real general
6 5 30
1 1 0.00000000000000000e+00
2 1 1.90743569830546189e-01
3 1 5.60660171779821193e-01
4 1 8.53553390593273731e-01
5 1 1.00000000000000000e+00
6 1 1.00000000000000000e+00
1 2 0.00000000000000000e+00
2 2 2.38429462288182764e-01
3 2 7.00825214724776546e-01
4 2 1.06694173824159222e+00
5 2 1.25000000000000000e+00
6 2 1.25000000000000000e+00
1 3 0.00000000000000000e+00
2 3 2.86115354745819339e-01
3 3 8.40990257669731900e-01
4 3 1.28033008588991071e+00
5 3 1.50000000000000000e+00
6 3 1.50000000000000000e+00
1 4 0.00000000000000000e+00
2 4 3.33801247203455886e-01
3 4 9.81155300614687254e-01
4 4 1.49371843353822897e+00
5 4 1.74999999999999978e+00
6 4 1.75000000000000000e+00
1 5 0.00000000000000000e+00
2 5 3.81487139661092489e-01
3 5 1.12132034355964261e+00
4 5 1.70710678118654746e+00
5 5 2.00000000000000000e+00
6 5 2.00000000000000000e+00
