%%MatrixMarket matrix coordinate  real general
130 130 16900
1 1 0.00000000000000000e+00
2 1 5.53694151413283708e-03
3 1 1.66352582702823971e-02
4 1 2.77815621431573810e-02
5 1 3.89740724988671891e-02
6 1 5.02109565188908064e-02
7 1 6.14903293768015793e-02
8 1 7.28102544771181415e-02
9 1 8.41687437578388653e-02
10 1 9.55637580581400886e-02
11 1 1.06993207552634112e-01
12 1 1.18454952253491119e-01
13 1 1.29946802581631438e-01
14 1 1.41466520008088625e-01
15 1 1.53011817766531444e-01
16 1 1.64580361637813949e-01
17 1 1.76169770807296427e-01
18 1 1.87777618795548024e-01
19 1 1.99401434462902094e-01
20 1 2.11038703088191310e-01
21 1 2.22686867521838028e-01
22 1 2.34343329413319090e-01
23 1 2.46005450512862711e-01
24 1 2.57670554047068845e-01
25 1 2.69335926167972806e-01
26 1 2.80998817474897966e-01
27 1 2.92656444608264732e-01
28 1 3.04305991914341434e-01
29 1 3.15944613179738709e-01
30 1 3.27569433434265644e-01
31 1 3.39177550820575768e-01
32 1 3.50766038528846413e-01
33 1 3.62331946794546722e-01
34 1 3.73872304957162449e-01
35 1 3.85384123577562687e-01
36 1 3.96864396611507408e-01
37 1 4.08310103636618293e-01
38 1 4.19718212129956858e-01
39 1 4.31085679793181575e-01
40 1 4.42409456922090549e-01
41 1 4.53686488817193312e-01
42 1 4.64913718231802719e-01
43 1 4.76088087853988096e-01
44 1 4.87206542818594324e-01
45 1 4.98266033245399476e-01
46 1 5.09263516799362104e-01
47 1 5.20195961268799079e-01
48 1 5.31060347157233603e-01
49 1 5.41853670284563105e-01
50 1 5.52572944393119547e-01
51 1 5.63215203754127924e-01
52 1 5.73777505770017404e-01
53 1 5.84256933567995906e-01
54 1 5.94650598580275802e-01
55 1 6.04955643106321994e-01
56 1 6.15169242852495746e-01
57 1 6.25288609444479726e-01
58 1 6.35310992907901939e-01
59 1 6.45233684112612838e-01
60 1 6.55054017176131875e-01
61 1 6.64769371821844701e-01
62 1 6.74377175687621677e-01
63 1 6.83874906580620556e-01
64 1 6.93260094674149063e-01
65 1 7.02530324642587800e-01
66 1 7.11683237730508234e-01
67 1 7.20716533752267186e-01
68 1 7.29627973018522780e-01
69 1 7.38415378186281002e-01
70 1 7.47076636029269103e-01
71 1 7.55609699125615708e-01
72 1 7.64012587460019987e-01
73 1 7.72283389937797993e-01
74 1 7.80420265808408953e-01
75 1 7.88421445996281389e-01
76 1 7.96285234336989833e-01
77 1 8.04010008717059632e-01
78 1 8.11594222115913366e-01
79 1 8.19036403548708658e-01
80 1 8.26335158909057732e-01
81 1 8.33489171710857124e-01
82 1 8.40497203728699738e-01
83 1 8.47358095536576150e-01
84 1 8.54070766944815429e-01
85 1 8.60634217335447094e-01
86 1 8.67047525896399995e-01
87 1 8.73309851755182165e-01
88 1 8.79420434012906593e-01
89 1 8.85378591679748750e-01
90 1 8.91183723513128356e-01
91 1 8.96835307760116995e-01
92 1 9.02332901805764642e-01
93 1 9.07676141729228614e-01
94 1 9.12864741769768506e-01
95 1 9.17898493704838114e-01
96 1 9.22777266142667973e-01
97 1 9.27501003731881934e-01
98 1 9.32069726290827960e-01
99 1 9.36483527859439002e-01
100 1 9.40742575676551285e-01
101 1 9.44847109085719561e-01
102 1 9.48797438372661728e-01
103 1 9.52593943537552779e-01
104 1 9.56237073005461014e-01
105 1 9.59727342278280382e-01
106 1 9.63065332531568008e-01
107 1 9.66251689159732030e-01
108 1 9.69287120273050973e-01
109 1 9.72172395150016966e-01
110 1 9.74908342648513448e-01
111 1 9.77495849579329668e-01
112 1 9.79935859045507729e-01
113 1 9.82229368750996645e-01
114 1 9.84377429282060179e-01
115 1 9.86381142364845753e-01
116 1 9.88241659102479852e-01
117 1 9.89960178194997376e-01
118 1 9.91537944145356454e-01
119 1 9.92976245454721629e-01
120 1 9.94276412810122467e-01
121 1 9.95439817267520177e-01
122 1 9.96467868433225989e-01
123 1 9.97362012646527574e-01
124 1 9.98123731166287165e-01
125 1 9.98754538364173827e-01
126 1 9.99255979927096027e-01
127 1 9.99629631071292768e-01
128 1 9.99877094770437513e-01
129 1 1.00000000000000000e+00
130 1 1.00000000000000000e+00
1 2 0.00000000000000000e+00
2 2 5.55857019192241859e-03
3 2 1.67002397479006914e-02
4 2 2.78900838702790879e-02
5 2 3.91263149695658882e-02
6 2 5.04070930677927229e-02
7 2 6.17305259759297134e-02
8 2 7.30946695336693736e-02
9 2 8.44975279131429252e-02
10 2 9.59370539880546741e-02
11 2 1.07411149769636602e-01
12 2 1.18917666910731315e-01
13 2 1.30454407279215950e-01
14 2 1.42019123601870217e-01
15 2 1.53609520179681935e-01
16 2 1.65223253675461645e-01
17 2 1.76857933974512438e-01
18 2 1.88511125118968115e-01
19 2 2.00180346316272795e-01
20 2 2.11863073022129533e-01
21 2 2.23556738098095176e-01
22 2 2.35258733043839874e-01
23 2 2.46966409303928602e-01
24 2 2.58677079648815200e-01
25 2 2.70388019629566434e-01
26 2 2.82096469105659275e-01
27 2 2.93799633845015784e-01
28 2 3.05494687195256798e-01
29 2 3.17178771824972061e-01
30 2 3.28849001533618290e-01
31 2 3.40502463128468658e-01
32 2 3.52136218366849774e-01
33 2 3.63747305961712897e-01
34 2 3.75332743648401357e-01
35 2 3.86889530310287499e-01
36 2 3.98414648160771157e-01
37 2 4.09905064978948797e-01
38 2 4.21357736396089477e-01
39 2 4.32769608229873703e-01
40 2 4.44137618863192474e-01
41 2 4.55458701664135490e-01
42 2 4.66729787443645738e-01
43 2 4.77947806947167708e-01
44 2 4.89109693376479415e-01
45 2 5.00212384937764432e-01
46 2 5.11252827411859623e-01
47 2 5.22227976742505318e-01
48 2 5.33134801638316613e-01
49 2 5.43970286184112140e-01
50 2 5.54731432457155171e-01
51 2 5.65415263143792646e-01
52 2 5.76018824151931508e-01
53 2 5.86539187214745850e-01
54 2 5.96973452480979994e-01
55 2 6.07318751087206121e-01
56 2 6.17572247707388389e-01
57 2 6.27731143075122344e-01
58 2 6.37792676473948550e-01
59 2 6.47754128191177614e-01
60 2 6.57612821930726121e-01
61 2 6.67366127180523794e-01
62 2 6.77011461530151570e-01
63 2 6.86546292934451130e-01
64 2 6.95968141918969940e-01
65 2 7.05274583723222936e-01
66 2 7.14463250377893155e-01
67 2 7.23531832712237089e-01
68 2 7.32478082288126497e-01
69 2 7.41299813257321194e-01
70 2 7.49994904138758578e-01
71 2 7.58561299512825138e-01
72 2 7.66997011629785508e-01
73 2 7.75300121929742514e-01
74 2 7.83468782471723024e-01
75 2 7.91501217269704460e-01
76 2 7.99395723533618652e-01
77 2 8.07150672813610748e-01
78 2 8.14764512046053491e-01
79 2 8.22235764500070854e-01
80 2 8.29563030623546194e-01
81 2 8.36744988787852528e-01
82 2 8.43780395930764926e-01
83 2 8.50668088097265795e-01
84 2 8.57406980878193781e-01
85 2 8.63996069746913675e-01
86 2 8.70434430294432793e-01
87 2 8.76721218363600840e-01
88 2 8.82855670083269484e-01
89 2 8.88837101803497842e-01
90 2 8.94664909933101549e-01
91 2 9.00338570681055050e-01
92 2 9.05857639703443462e-01
93 2 9.11221751657858459e-01
94 2 9.16430619667306767e-01
95 2 9.21484034695872478e-01
96 2 9.26381864838537794e-01
97 2 9.31124054527709522e-01
98 2 9.35710623659151586e-01
99 2 9.40141666640139984e-01
100 2 9.44417351362787816e-01
101 2 9.48537918105585631e-01
102 2 9.52503678366304896e-01
103 2 9.56315013629496224e-01
104 2 9.59972374071888512e-01
105 2 9.63476277209054932e-01
106 2 9.66827306486769400e-01
107 2 9.70026109820512294e-01
108 2 9.73073398086617525e-01
109 2 9.75969943568571585e-01
110 2 9.78716578361984113e-01
111 2 9.81314192741748914e-01
112 2 9.83763733494904313e-01
113 2 9.86066202222680155e-01
114 2 9.88222653615193236e-01
115 2 9.90234193702208665e-01
116 2 9.92101978083348879e-01
117 2 9.93827210141071449e-01
118 2 9.95411139239674170e-01
119 2 9.96855058913528991e-01
120 2 9.98160305047662066e-01
121 2 9.99328254053721277e-01
122 2 1.00036032104429329e+00
123 2 1.00125795800842821e+00
124 2 1.00202265199115548e+00
125 2 1.00265592327965902e+00
126 2 1.00315932359868620e+00
127 2 1.00353443431766487e+00
128 2 1.00378286467188449e+00
129 2 1.00390625000000000e+00
130 2 1.00390625000000000e+00
1 3 0.00000000000000000e+00
2 3 5.60182754750158073e-03
3 3 1.68302027031372696e-02
4 3 2.81071273245225087e-02
5 3 3.94307999109632795e-02
6 3 5.07993661655965559e-02
7 3 6.22109191741859746e-02
8 3 7.36634996467718378e-02
9 3 8.51550962237510312e-02
10 3 9.66836458478839145e-02
11 3 1.08247034203641540e-01
12 3 1.19843096225211707e-01
13 3 1.31469616674384948e-01
14 3 1.43124330789433429e-01
15 3 1.54804925005982974e-01
16 3 1.66509037750757094e-01
17 3 1.78234260308944431e-01
18 3 1.89978137765808353e-01
19 3 2.01738170023014224e-01
20 3 2.13511812890005981e-01
21 3 2.25296479250609555e-01
22 3 2.37089540304881441e-01
23 3 2.48888326886060357e-01
24 3 2.60690130852307911e-01
25 3 2.72492206552753635e-01
26 3 2.84291772367181950e-01
27 3 2.96086012318517888e-01
28 3 3.07872077757087692e-01
29 3 3.19647089115438765e-01
30 3 3.31408137732323582e-01
31 3 3.43152287744254381e-01
32 3 3.54876578042856439e-01
33 3 3.66578024296045357e-01
34 3 3.78253621030879117e-01
35 3 3.89900343775737179e-01
36 3 4.01515151259298486e-01
37 3 4.13094987663609858e-01
38 3 4.24636784928354716e-01
39 3 4.36137465103257904e-01
40 3 4.47593942745396212e-01
41 3 4.59003127358019847e-01
42 3 4.70361925867331832e-01
43 3 4.81667245133527044e-01
44 3 4.92915994492249765e-01
45 3 5.04105088322494121e-01
46 3 5.15231448636854550e-01
47 3 5.26292007689917796e-01
48 3 5.37283710600482411e-01
49 3 5.48203517983210209e-01
50 3 5.59048408585226309e-01
51 3 5.69815381923121755e-01
52 3 5.80501460915759826e-01
53 3 5.91103694508245736e-01
54 3 6.01619160282388488e-01
55 3 6.12044967048974264e-01
56 3 6.22378257417173453e-01
57 3 6.32616210336407248e-01
58 3 6.42756043606041438e-01
59 3 6.52795016348307500e-01
60 3 6.62730431439914502e-01
61 3 6.72559637897881979e-01
62 3 6.82280033215211246e-01
63 3 6.91889065642112167e-01
64 3 7.01384236408611694e-01
65 3 7.10763101884493209e-01
66 3 7.20023275672662777e-01
67 3 7.29162430632176561e-01
68 3 7.38178300827333711e-01
69 3 7.47068683399401690e-01
70 3 7.55831440357737083e-01
71 3 7.64464500287243998e-01
72 3 7.72965859969316993e-01
73 3 7.81333585913631667e-01
74 3 7.89565815798351278e-01
75 3 7.97660759816550491e-01
76 3 8.05616701926876400e-01
77 3 8.13432001006712868e-01
78 3 8.21105091906333961e-01
79 3 8.28634486402795023e-01
80 3 8.36018774052523228e-01
81 3 8.43256622941843781e-01
82 3 8.50346780334895191e-01
83 3 8.57288073218645308e-01
84 3 8.64079408744950150e-01
85 3 8.70719774569846949e-01
86 3 8.77208239090498276e-01
87 3 8.83543951580438414e-01
88 3 8.89726142223995264e-01
89 3 8.95754122050995916e-01
90 3 9.01627282773047933e-01
91 3 9.07345096522931160e-01
92 3 9.12907115498800992e-01
93 3 9.18312971515118037e-01
94 3 9.23562375462383067e-01
95 3 9.28655116677941650e-01
96 3 9.33591062230277324e-01
97 3 9.38370156119364807e-01
98 3 9.42992418395798837e-01
99 3 9.47457944201541724e-01
100 3 9.51766902735260878e-01
101 3 9.55919536145317883e-01
102 3 9.59916158353591342e-01
103 3 9.63757153813383560e-01
104 3 9.67442976204743843e-01
105 3 9.70974147070604143e-01
106 3 9.74351254397172295e-01
107 3 9.77574951142072601e-01
108 3 9.80645953713750740e-01
109 3 9.83565040405680713e-01
110 3 9.86333049788925775e-01
111 3 9.88950879066587407e-01
112 3 9.91419482393697482e-01
113 3 9.93739869166047396e-01
114 3 9.95913102281459461e-01
115 3 9.97940296376934155e-01
116 3 9.99822616045087154e-01
117 3 1.00156127403321982e+00
118 3 1.00315752942830971e+00
119 3 1.00461268583114416e+00
120 3 1.00592808952274115e+00
121 3 1.00710512762612381e+00
122 3 1.00814522626642766e+00
123 3 1.00904984873222903e+00
124 3 1.00982049364089188e+00
125 3 1.01045869311062897e+00
126 3 1.01096601094186656e+00
127 3 1.01134404081040929e+00
128 3 1.01159440447477844e+00
129 3 1.01171875000000000e+00
130 3 1.01171875000000022e+00
1 4 0.00000000000000000e+00
2 4 5.64508490308074373e-03
3 4 1.69601656583738512e-02
4 4 2.83241707787659260e-02
5 4 3.97352848523606778e-02
6 4 5.11916392634003889e-02
7 4 6.26913123724422289e-02
8 4 7.42323297598743159e-02
9 4 8.58126645343591510e-02
10 4 9.74302377077131271e-02
11 4 1.09082918637646520e-01
12 4 1.20768525539692126e-01
13 4 1.32484826069553918e-01
14 4 1.44229537976996641e-01
15 4 1.56000329832284013e-01
16 4 1.67794821826052515e-01
17 4 1.79610586643376424e-01
18 4 1.91445150412648507e-01
19 4 2.03295993729755653e-01
20 4 2.15160552757882484e-01
21 4 2.27036220403123906e-01
22 4 2.38920347565922925e-01
23 4 2.50810244468192112e-01
24 4 2.62703182055800621e-01
25 4 2.74596393475940836e-01
26 4 2.86487075628704679e-01
27 4 2.98372390792019937e-01
28 4 3.10249468318918475e-01
29 4 3.22115406405905413e-01
30 4 3.33967273931028819e-01
31 4 3.45802112360040104e-01
32 4 3.57616937718862937e-01
33 4 3.69408742630377873e-01
34 4 3.81174498413357044e-01
35 4 3.92911157241186915e-01
36 4 4.04615654357825927e-01
37 4 4.16284910348270865e-01
38 4 4.27915833460620010e-01
39 4 4.39505321976642216e-01
40 4 4.51050266627600061e-01
41 4 4.62547553051904203e-01
42 4 4.73994064291017758e-01
43 4 4.85386683319886270e-01
44 4 4.96722295608019948e-01
45 4 5.07997791707223811e-01
46 4 5.19210069861849366e-01
47 4 5.30356038637330163e-01
48 4 5.41432619562648321e-01
49 4 5.52436749782308278e-01
50 4 5.63365384713297557e-01
51 4 5.74215500702450643e-01
52 4 5.84984097679588033e-01
53 4 5.95668201801745734e-01
54 4 6.06264868083796871e-01
55 4 6.16771183010742408e-01
56 4 6.27184267126958517e-01
57 4 6.37501277597692484e-01
58 4 6.47719410738134327e-01
59 4 6.57835904505437497e-01
60 4 6.67848040949103106e-01
61 4 6.77753148615240164e-01
62 4 6.87548604900270699e-01
63 4 6.97231838349773314e-01
64 4 7.06800330898253448e-01
65 4 7.16251620045763371e-01
66 4 7.25583300967432399e-01
67 4 7.34793028552116256e-01
68 4 7.43878519366540814e-01
69 4 7.52837553541482074e-01
70 4 7.61667976576715811e-01
71 4 7.70367701061662857e-01
72 4 7.78934708308848367e-01
73 4 7.87367049897520710e-01
74 4 7.95662849124979865e-01
75 4 8.03820302363396522e-01
76 4 8.11837680320134258e-01
77 4 8.19713329199814988e-01
78 4 8.27445671766614543e-01
79 4 8.35033208305519303e-01
80 4 8.42474517481500151e-01
81 4 8.49768257095834922e-01
82 4 8.56913164739025568e-01
83 4 8.63908058340024709e-01
84 4 8.70751836611706742e-01
85 4 8.77443479392780112e-01
86 4 8.83982047886563982e-01
87 4 8.90366684797275876e-01
88 4 8.96596614364721267e-01
89 4 9.02671142298493989e-01
90 4 9.08589655612994207e-01
91 4 9.14351622364806826e-01
92 4 9.19956591294158632e-01
93 4 9.25404191372377616e-01
94 4 9.30694131257459478e-01
95 4 9.35826198660010378e-01
96 4 9.40800259622016855e-01
97 4 9.45616257711020203e-01
98 4 9.50274213132445866e-01
99 4 9.54774221762943687e-01
100 4 9.59116454107733718e-01
101 4 9.63301154185050135e-01
102 4 9.67328638340877900e-01
103 4 9.71199293997270563e-01
104 4 9.74913578337598841e-01
105 4 9.78472016932153132e-01
106 4 9.81875202307575301e-01
107 4 9.85123792463633019e-01
108 4 9.88218509340883955e-01
109 4 9.91160137242790062e-01
110 4 9.93949521215867215e-01
111 4 9.96587565391426122e-01
112 4 9.99075231292490651e-01
113 4 1.00141353610941475e+00
114 4 1.00360355094772569e+00
115 4 1.00564639905165931e+00
116 4 1.00754325400682521e+00
117 4 1.00929533792536796e+00
118 4 1.01090391961694515e+00
119 4 1.01237031274875933e+00
120 4 1.01369587399782035e+00
121 4 1.01488200119852623e+00
122 4 1.01593013148856248e+00
123 4 1.01684173945602985e+00
124 4 1.01761833529062851e+00
125 4 1.01826146294159914e+00
126 4 1.01877269828504691e+00
127 4 1.01915364730315372e+00
128 4 1.01940594427767262e+00
129 4 1.01953125000000000e+00
130 4 1.01953125000000022e+00
1 5 0.00000000000000000e+00
2 5 5.68834225865990587e-03
3 5 1.70901286136104294e-02
4 5 2.85412142330093467e-02
5 5 4.00397697937580829e-02
6 5 5.15839123612042358e-02
7 5 6.31717055706984831e-02
8 5 7.48011598729768079e-02
9 5 8.64702328449672708e-02
10 5 9.81768295675423536e-02
11 5 1.09918803071651500e-01
12 5 1.21693954854172504e-01
13 5 1.33500035464722944e-01
14 5 1.45334745164559798e-01
15 5 1.57195734658585051e-01
16 5 1.69080605901347936e-01
17 5 1.80986912977808417e-01
18 5 1.92912163059488717e-01
19 5 2.04853817436497082e-01
20 5 2.16809292625758987e-01
21 5 2.28775961555638285e-01
22 5 2.40751154826964492e-01
23 5 2.52732162050323894e-01
24 5 2.64716233259293388e-01
25 5 2.76700580399128149e-01
26 5 2.88682378890227298e-01
27 5 3.00658769265521986e-01
28 5 3.12626858880749259e-01
29 5 3.24583723696372173e-01
30 5 3.36526410129734055e-01
31 5 3.48451936975825827e-01
32 5 3.60357297394869547e-01
33 5 3.72239460964710334e-01
34 5 3.84095375795834915e-01
35 5 3.95921970706636650e-01
36 5 4.07716157456353423e-01
37 5 4.19474833032931926e-01
38 5 4.31194881992885304e-01
39 5 4.42873178850026417e-01
40 5 4.54506590509803854e-01
41 5 4.66091978745788504e-01
42 5 4.77626202714703685e-01
43 5 4.89106121506245550e-01
44 5 5.00528596723790131e-01
45 5 5.11890495091953501e-01
46 5 5.23188691086844404e-01
47 5 5.34420069584742641e-01
48 5 5.45581528524814230e-01
49 5 5.56669981581406459e-01
50 5 5.67682360841368805e-01
51 5 5.78615619481779753e-01
52 5 5.89466734443416240e-01
53 5 6.00232709095245731e-01
54 5 6.10910575885205254e-01
55 5 6.21497398972510551e-01
56 5 6.31990276836743581e-01
57 5 6.42386344858977498e-01
58 5 6.52682777870227326e-01
59 5 6.62876792662567382e-01
60 5 6.72965650458291820e-01
61 5 6.82946659332598349e-01
62 5 6.92817176585330152e-01
63 5 7.02574611057434462e-01
64 5 7.12216425387895313e-01
65 5 7.21740138207033533e-01
66 5 7.31143326262202020e-01
67 5 7.40423626472055951e-01
68 5 7.49578737905748027e-01
69 5 7.58606423683562348e-01
70 5 7.67504512795694649e-01
71 5 7.76270901836081717e-01
72 5 7.84903556648379852e-01
73 5 7.93400513881409641e-01
74 5 8.01759882451608119e-01
75 5 8.09979844910242663e-01
76 5 8.18058658713391784e-01
77 5 8.25994657392916998e-01
78 5 8.33786251626895236e-01
79 5 8.41431930208243473e-01
80 5 8.48930260910477075e-01
81 5 8.56279891249826064e-01
82 5 8.63479549143156055e-01
83 5 8.70528043461404111e-01
84 5 8.77424264478463112e-01
85 5 8.84167184215713386e-01
86 5 8.90755856682629577e-01
87 5 8.97189418014113338e-01
88 5 9.03467086505447048e-01
89 5 9.09588162545992063e-01
90 5 9.15552028452940703e-01
91 5 9.21358148206682714e-01
92 5 9.27006067089516050e-01
93 5 9.32495411229637416e-01
94 5 9.37825887052536000e-01
95 5 9.42997280642079438e-01
96 5 9.48009457013756385e-01
97 5 9.52862359302675821e-01
98 5 9.57556007869093007e-01
99 5 9.62090499324345649e-01
100 5 9.66466005480206669e-01
101 5 9.70682772224782275e-01
102 5 9.74741118328164458e-01
103 5 9.78641434181157788e-01
104 5 9.82384180470453949e-01
105 5 9.85969886793702344e-01
106 5 9.89399150217978085e-01
107 5 9.92672633785193548e-01
108 5 9.95791064968017170e-01
109 5 9.98755234079899523e-01
110 5 1.00156599264280866e+00
111 5 1.00422425171626450e+00
112 5 1.00673098019128382e+00
113 5 1.00908720305278199e+00
114 5 1.01129399961399180e+00
115 5 1.01335250172638469e+00
116 5 1.01526389196856326e+00
117 5 1.01702940181751633e+00
118 5 1.01865030980558080e+00
119 5 1.02012793966637427e+00
120 5 1.02146365847289933e+00
121 5 1.02265887477092865e+00
122 5 1.02371503671069708e+00
123 5 1.02463363017983067e+00
124 5 1.02541617694036513e+00
125 5 1.02606423277256908e+00
126 5 1.02657938562822726e+00
127 5 1.02696325379589815e+00
128 5 1.02721748408056679e+00
129 5 1.02734375000000000e+00
130 5 1.02734375000000022e+00
1 6 0.00000000000000000e+00
2 6 5.73159961423906888e-03
3 6 1.72200915688470110e-02
4 6 2.87582576872527640e-02
5 6 4.03442547351554812e-02
6 6 5.19761854590080619e-02
7 6 6.36520987689547374e-02
8 6 7.53699899860792860e-02
9 6 8.71278011555753906e-02
10 6 9.89234214273715801e-02
11 6 1.10754687505656452e-01
12 6 1.22619384168652895e-01
13 6 1.34515244859891914e-01
14 6 1.46439952352122982e-01
15 6 1.58391139484886090e-01
16 6 1.70366389976643356e-01
17 6 1.82363239312240411e-01
18 6 1.94379175706328927e-01
19 6 2.06411641143238539e-01
20 6 2.18458032493635462e-01
21 6 2.30515702708152664e-01
22 6 2.42581962088006031e-01
23 6 2.54654079632455621e-01
24 6 2.66729284462786154e-01
25 6 2.78804767322315405e-01
26 6 2.90877682151749917e-01
27 6 3.02945147739024090e-01
28 6 3.15004249442580042e-01
29 6 3.27052040986838932e-01
30 6 3.39085546328439347e-01
31 6 3.51101761591611605e-01
32 6 3.63097657070876156e-01
33 6 3.75070179299042739e-01
34 6 3.87016253178312786e-01
35 6 3.98932784172086330e-01
36 6 4.10816660554880753e-01
37 6 4.22664755717592933e-01
38 6 4.34473930525150598e-01
39 6 4.46241035723410673e-01
40 6 4.57962914392007647e-01
41 6 4.69636404439672805e-01
42 6 4.81258341138389611e-01
43 6 4.92825559692604775e-01
44 6 5.04334897839560314e-01
45 6 5.15783198476683191e-01
46 6 5.27167312311839442e-01
47 6 5.38484100532155119e-01
48 6 5.49730437486980139e-01
49 6 5.60903213380504528e-01
50 6 5.71999336969440164e-01
51 6 5.83015738261108862e-01
52 6 5.93949371207244337e-01
53 6 6.04797216388745729e-01
54 6 6.15556283686613637e-01
55 6 6.26223614934278583e-01
56 6 6.36796286546528645e-01
57 6 6.47271412120262624e-01
58 6 6.57646145002320326e-01
59 6 6.67917680819697268e-01
60 6 6.78083259967480201e-01
61 6 6.88140170049956534e-01
62 6 6.98085748270389717e-01
63 6 7.07917383765095609e-01
64 6 7.17632519877537178e-01
65 6 7.27228656368303805e-01
66 6 7.36703351556971642e-01
67 6 7.46054224391995535e-01
68 6 7.55278956444955130e-01
69 6 7.64375293825642732e-01
70 6 7.73341049014673265e-01
71 6 7.82174102610500577e-01
72 6 7.90872404987911004e-01
73 6 7.99433977865298684e-01
74 6 8.07856915778236262e-01
75 6 8.16139387457088583e-01
76 6 8.24279637106649532e-01
77 6 8.32275985586018896e-01
78 6 8.40126831487175707e-01
79 6 8.47830652110967864e-01
80 6 8.55386004339453998e-01
81 6 8.62791525403817205e-01
82 6 8.70045933547286543e-01
83 6 8.77148028582783623e-01
84 6 8.84096692345219148e-01
85 6 8.90890889038646661e-01
86 6 8.97529665478695282e-01
87 6 9.04012151230950800e-01
88 6 9.10337558646172940e-01
89 6 9.16505182793490136e-01
90 6 9.22514401292887309e-01
91 6 9.28364674048558713e-01
92 6 9.34055542884873691e-01
93 6 9.39586631086896884e-01
94 6 9.44957642847612300e-01
95 6 9.50168362624148610e-01
96 6 9.55218654405495915e-01
97 6 9.60108460894331217e-01
98 6 9.64837802605739925e-01
99 6 9.69406776885747390e-01
100 6 9.73815556852679620e-01
101 6 9.78064390264514527e-01
102 6 9.82153598315450904e-01
103 6 9.86083574365044901e-01
104 6 9.89854782603309169e-01
105 6 9.93467756655251444e-01
106 6 9.96923098128380980e-01
107 6 1.00022147510675374e+00
108 6 1.00336362059515039e+00
109 6 1.00635033091700898e+00
110 6 1.00918246406975021e+00
111 6 1.01186093804110300e+00
112 6 1.01438672909007677e+00
113 6 1.01676086999614901e+00
114 6 1.01898444828025792e+00
115 6 1.02105860440111007e+00
116 6 1.02298452993030131e+00
117 6 1.02476346570966492e+00
118 6 1.02639669999421623e+00
119 6 1.02788556658398922e+00
120 6 1.02923144294797853e+00
121 6 1.03043574834333107e+00
122 6 1.03149994193283145e+00
123 6 1.03242552090363149e+00
124 6 1.03321401859010154e+00
125 6 1.03386700260353903e+00
126 6 1.03438607297140739e+00
127 6 1.03477286028864257e+00
128 6 1.03502902388346074e+00
129 6 1.03515624999999978e+00
130 6 1.03515625000000022e+00
1 7 0.00000000000000000e+00
2 7 5.77485696981823188e-03
3 7 1.73500545240835892e-02
4 7 2.89753011414961778e-02
5 7 4.06487396765528794e-02
6 7 5.23684585568118949e-02
7 7 6.41324919672109917e-02
8 7 7.59388200991817641e-02
9 7 8.77853694661835243e-02
10 7 9.96700132872008066e-02
11 7 1.11590571939661404e-01
12 7 1.23544813483133301e-01
13 7 1.35530454255060884e-01
14 7 1.47545159539686166e-01
15 7 1.59586544311187101e-01
16 7 1.71652174051938805e-01
17 7 1.83739565646672431e-01
18 7 1.95846188353169165e-01
19 7 2.07969464849979940e-01
20 7 2.20106772361511910e-01
21 7 2.32255443860666988e-01
22 7 2.44412769349047598e-01
23 7 2.56575997214587348e-01
24 7 2.68742335666278920e-01
25 7 2.80908954245502607e-01
26 7 2.93072985413272535e-01
27 7 3.05231526212526194e-01
28 7 3.17381640004410825e-01
29 7 3.29520358277305636e-01
30 7 3.41644682527144583e-01
31 7 3.53751586207397328e-01
32 7 3.65838016746882766e-01
33 7 3.77900897633375144e-01
34 7 3.89937130560790712e-01
35 7 4.01943597637536010e-01
36 7 4.13917163653408082e-01
37 7 4.25854678402253994e-01
38 7 4.37752979057415892e-01
39 7 4.49608892596794929e-01
40 7 4.61419238274211496e-01
41 7 4.73180830133557162e-01
42 7 4.84890479562075538e-01
43 7 4.96544997878964056e-01
44 7 5.08141198955330609e-01
45 7 5.19675901861412881e-01
46 7 5.31145933536834480e-01
47 7 5.42548131479567486e-01
48 7 5.53879346449146048e-01
49 7 5.65136445179602598e-01
50 7 5.76316313097511412e-01
51 7 5.87415857040438083e-01
52 7 5.98432007971072544e-01
53 7 6.09361723682245726e-01
54 7 6.20201991488022131e-01
55 7 6.30949830896046615e-01
56 7 6.41602296256313709e-01
57 7 6.52156479381547638e-01
58 7 6.62609512134413325e-01
59 7 6.72958568976827043e-01
60 7 6.83200869476668804e-01
61 7 6.93333680767314831e-01
62 7 7.03354319955449170e-01
63 7 7.13260156472756646e-01
64 7 7.23048614367178932e-01
65 7 7.32717174529573856e-01
66 7 7.42263376851741263e-01
67 7 7.51684822311935119e-01
68 7 7.60979174984162232e-01
69 7 7.70144163967723117e-01
70 7 7.79177585233651993e-01
71 7 7.88077303384919547e-01
72 7 7.96841253327442267e-01
73 7 8.05467441849187615e-01
74 7 8.13953949104864405e-01
75 7 8.22298930003934503e-01
76 7 8.30500615499907169e-01
77 7 8.38557313779120794e-01
78 7 8.46467411347456289e-01
79 7 8.54229374013692144e-01
80 7 8.61841747768431032e-01
81 7 8.69303159557808236e-01
82 7 8.76612317951416919e-01
83 7 8.83768013704163025e-01
84 7 8.90769120211975407e-01
85 7 8.97614593861579824e-01
86 7 9.04303474274760766e-01
87 7 9.10834884447788151e-01
88 7 9.17208030786898831e-01
89 7 9.23422203040988210e-01
90 7 9.29476774132833694e-01
91 7 9.35371199890434490e-01
92 7 9.41105018680231220e-01
93 7 9.46677850944156352e-01
94 7 9.52089398642688711e-01
95 7 9.57339444606217671e-01
96 7 9.62427851797235556e-01
97 7 9.67354562485986613e-01
98 7 9.72119597342386954e-01
99 7 9.76723054447149353e-01
100 7 9.81165108225152571e-01
101 7 9.85446008304246446e-01
102 7 9.89566078302737351e-01
103 7 9.93525714548932015e-01
104 7 9.97325384736164389e-01
105 7 1.00096562651680054e+00
106 7 1.00444704603878376e+00
107 7 1.00777031642831405e+00
108 7 1.01093617622228371e+00
109 7 1.01394542775411844e+00
110 7 1.01679893549669176e+00
111 7 1.01949762436594149e+00
112 7 1.02204247798886971e+00
113 7 1.02443453693951603e+00
114 7 1.02667489694652425e+00
115 7 1.02876470707583545e+00
116 7 1.03070516789203959e+00
117 7 1.03249752960181329e+00
118 7 1.03414309018285189e+00
119 7 1.03564319350160439e+00
120 7 1.03699922742305750e+00
121 7 1.03821262191573327e+00
122 7 1.03928484715496605e+00
123 7 1.04021741162743231e+00
124 7 1.04101186023983816e+00
125 7 1.04166977243450920e+00
126 7 1.04219276031458774e+00
127 7 1.04258246678138700e+00
128 7 1.04284056368635469e+00
129 7 1.04296874999999978e+00
130 7 1.04296875000000000e+00
1 8 0.00000000000000000e+00
2 8 5.81811432539739489e-03
3 8 1.74800174793201708e-02
4 8 2.91923445957395916e-02
5 8 4.09532246179502776e-02
6 8 5.27607316546157348e-02
7 8 6.46128851654672459e-02
8 8 7.65076502122842422e-02
9 8 8.84429377767916441e-02
10 8 1.00416605147030033e-01
11 8 1.12426456373666370e-01
12 8 1.24470242797613678e-01
13 8 1.36545663650229909e-01
14 8 1.48650366727249350e-01
15 8 1.60781949137488139e-01
16 8 1.72937958127234254e-01
17 8 1.85115891981104425e-01
18 8 1.97313201000009403e-01
19 8 2.09527288556721342e-01
20 8 2.21755512229388385e-01
21 8 2.33995185013181367e-01
22 8 2.46243576610089165e-01
23 8 2.58497914796719075e-01
24 8 2.70755386869771630e-01
25 8 2.83013141168689919e-01
26 8 2.95268288674795210e-01
27 8 3.07517904686028243e-01
28 8 3.19759030566241609e-01
29 8 3.31988675567772284e-01
30 8 3.44203818725849819e-01
31 8 3.56401410823183051e-01
32 8 3.68578376422889376e-01
33 8 3.80731615967707604e-01
34 8 3.92858007943268528e-01
35 8 4.04954411102985690e-01
36 8 4.17017666751935412e-01
37 8 4.29044601086915001e-01
38 8 4.41032027589681186e-01
39 8 4.52976749470179185e-01
40 8 4.64875562156415290e-01
41 8 4.76725255827441408e-01
42 8 4.88522617985761576e-01
43 8 5.00264436065323337e-01
44 8 5.11947500071100903e-01
45 8 5.23568605246142571e-01
46 8 5.35124554761829407e-01
47 8 5.46612162426979964e-01
48 8 5.58028255411311958e-01
49 8 5.69369676978700667e-01
50 8 5.80633289225582661e-01
51 8 5.91815975819767193e-01
52 8 6.02914644734900751e-01
53 8 6.13926230975745613e-01
54 8 6.24847699289430514e-01
55 8 6.35676046857814647e-01
56 8 6.46408305966098884e-01
57 8 6.57041546642832652e-01
58 8 6.67572879266506325e-01
59 8 6.77999457133956818e-01
60 8 6.88318478985857296e-01
61 8 6.98527191484673016e-01
62 8 7.08622891640508845e-01
63 8 7.18602929180417904e-01
64 8 7.28464708856820686e-01
65 8 7.38205692690844018e-01
66 8 7.47823402146510774e-01
67 8 7.57315420231874703e-01
68 8 7.66679393523369224e-01
69 8 7.75913034109803390e-01
70 8 7.85014121452630720e-01
71 8 7.93980504159338407e-01
72 8 8.02810101666973641e-01
73 8 8.11500905833076658e-01
74 8 8.20050982431492659e-01
75 8 8.28458472550780645e-01
76 8 8.36721593893164917e-01
77 8 8.44838641972222915e-01
78 8 8.52807991207736871e-01
79 8 8.60628095916416536e-01
80 8 8.68297491197407956e-01
81 8 8.75814793711799489e-01
82 8 8.83178702355547296e-01
83 8 8.90387998825542537e-01
84 8 8.97441548078731888e-01
85 8 9.04338298684513098e-01
86 8 9.11077283070826360e-01
87 8 9.17657617664625724e-01
88 8 9.24078502927624834e-01
89 8 9.30339223288486394e-01
90 8 9.36439146972779968e-01
91 8 9.42377725732310489e-01
92 8 9.48154494475588749e-01
93 8 9.53769070801416041e-01
94 8 9.59221154437764900e-01
95 8 9.64510526588286732e-01
96 8 9.69637049188975086e-01
97 8 9.74600664077641787e-01
98 8 9.79401392079034205e-01
99 8 9.84039332008551204e-01
100 8 9.88514659597625522e-01
101 8 9.92827626343978586e-01
102 8 9.96978558290023908e-01
103 8 1.00096785473281913e+00
104 8 1.00479598686901950e+00
105 8 1.00846349637834942e+00
106 8 1.01197099394918655e+00
107 8 1.01531915774987458e+00
108 8 1.01850873184941704e+00
109 8 1.02154052459122791e+00
110 8 1.02441540692363331e+00
111 8 1.02713431069077998e+00
112 8 1.02969822688766266e+00
113 8 1.03210820388288327e+00
114 8 1.03436534561279014e+00
115 8 1.03647080975056083e+00
116 8 1.03842580585377764e+00
117 8 1.04023159349396166e+00
118 8 1.04188948037148732e+00
119 8 1.04340082041921933e+00
120 8 1.04476701189813670e+00
121 8 1.04598949548813569e+00
122 8 1.04706975237710065e+00
123 8 1.04800930235123335e+00
124 8 1.04880970188957479e+00
125 8 1.04947254226547937e+00
126 8 1.04999944765776809e+00
127 8 1.05039207327413142e+00
128 8 1.05065210348924865e+00
129 8 1.05078124999999978e+00
130 8 1.05078125000000000e+00
1 9 0.00000000000000000e+00
2 9 5.86137168097655616e-03
3 9 1.76099804345567525e-02
4 9 2.94093880499830089e-02
5 9 4.12577095593476759e-02
6 9 5.31530047524195609e-02
7 9 6.50932783637235002e-02
8 9 7.70764803253867342e-02
9 9 8.91005060873997640e-02
10 9 1.01163197006859246e-01
11 9 1.13262340807671322e-01
12 9 1.25395672112094070e-01
13 9 1.37560873045398907e-01
14 9 1.49755573914812562e-01
15 9 1.61977353963789150e-01
16 9 1.74223742202529674e-01
17 9 1.86492218315536418e-01
18 9 1.98780213646849613e-01
19 9 2.11085112263462799e-01
20 9 2.23404252097264833e-01
21 9 2.35734926165695718e-01
22 9 2.48074383871130705e-01
23 9 2.60419832378850802e-01
24 9 2.72768438073264397e-01
25 9 2.85117328091877231e-01
26 9 2.97463591936317828e-01
27 9 3.09804283159530347e-01
28 9 3.22136421128072392e-01
29 9 3.34456992858238988e-01
30 9 3.46762954924555056e-01
31 9 3.59051235438968830e-01
32 9 3.71318736098895985e-01
33 9 3.83562334302040064e-01
34 9 3.95778885325746344e-01
35 9 4.07965224568435425e-01
36 9 4.20118169850462853e-01
37 9 4.32234523771576118e-01
38 9 4.44311076121946535e-01
39 9 4.56344606343563386e-01
40 9 4.68331886038619083e-01
41 9 4.80269681521325709e-01
42 9 4.92154756409447502e-01
43 9 5.03983874251682673e-01
44 9 5.15753801186871197e-01
45 9 5.27461308630872261e-01
46 9 5.39103175986824446e-01
47 9 5.50676193374392442e-01
48 9 5.62177164373477867e-01
49 9 5.73602908777798848e-01
50 9 5.84950265353653909e-01
51 9 5.96216094599096302e-01
52 9 6.07397281498728847e-01
53 9 6.18490738269245499e-01
54 9 6.29493407090838897e-01
55 9 6.40402262819582790e-01
56 9 6.51214315675883948e-01
57 9 6.61926613904117667e-01
58 9 6.72536246398599213e-01
59 9 6.83040345291086703e-01
60 9 6.93436088495045899e-01
61 9 7.03720702202031090e-01
62 9 7.13891463325568409e-01
63 9 7.23945701888079052e-01
64 9 7.33880803346462551e-01
65 9 7.43694210852114179e-01
66 9 7.53383427441280284e-01
67 9 7.62946018151814287e-01
68 9 7.72379612062576326e-01
69 9 7.81681904251883775e-01
70 9 7.90850657671609336e-01
71 9 7.99883704933757156e-01
72 9 8.08778950006505126e-01
73 9 8.17534369816965700e-01
74 9 8.26148015758120802e-01
75 9 8.34618015097626786e-01
76 9 8.42942572286422442e-01
77 9 8.51119970165324924e-01
78 9 8.59148571068017342e-01
79 9 8.67026817819140927e-01
80 9 8.74753234626384990e-01
81 9 8.82326427865790519e-01
82 9 8.89745086759677783e-01
83 9 8.97007983946922050e-01
84 9 9.04113975945488146e-01
85 9 9.11062003507446261e-01
86 9 9.17851091866892066e-01
87 9 9.24480350881463186e-01
88 9 9.30948975068350837e-01
89 9 9.37256243535984468e-01
90 9 9.43401519812726352e-01
91 9 9.49384251574186599e-01
92 9 9.55203970270946279e-01
93 9 9.60860290658675731e-01
94 9 9.66352910232841200e-01
95 9 9.71681608570355793e-01
96 9 9.76846246580714839e-01
97 9 9.81846765669297183e-01
98 9 9.86683186815681346e-01
99 9 9.91355609569953056e-01
100 9 9.95864210970098584e-01
101 9 1.00020924438371073e+00
102 9 1.00439103827731047e+00
103 9 1.00840999491670646e+00
104 9 1.01226658900187472e+00
105 9 1.01596136623989852e+00
106 9 1.01949494185958955e+00
107 9 1.02286799907143489e+00
108 9 1.02608128747655014e+00
109 9 1.02913562142833737e+00
110 9 1.03203187835057486e+00
111 9 1.03477099701561848e+00
112 9 1.03735397578645583e+00
113 9 1.03978187082625051e+00
114 9 1.04205579427905626e+00
115 9 1.04417691242528621e+00
116 9 1.04614644381551591e+00
117 9 1.04796565738611003e+00
118 9 1.04963587056012297e+00
119 9 1.05115844733683428e+00
120 9 1.05253479637321568e+00
121 9 1.05376636906053811e+00
122 9 1.05485465759923525e+00
123 9 1.05580119307503439e+00
124 9 1.05660754353931141e+00
125 9 1.05727531209644932e+00
126 9 1.05780613500094867e+00
127 9 1.05820167976687585e+00
128 9 1.05846364329214260e+00
129 9 1.05859374999999978e+00
130 9 1.05859375000000000e+00
1 10 0.00000000000000000e+00
2 10 5.90462903655571830e-03
3 10 1.77399433897933341e-02
4 10 2.96264315042264227e-02
5 10 4.15621945007450672e-02
6 10 5.35452778502233939e-02
7 10 6.55736715619797544e-02
8 10 7.76453104384892262e-02
9 10 8.97580743980078838e-02
10 10 1.01909788866688458e-01
11 10 1.14098225241676274e-01
12 10 1.26321101426574489e-01
13 10 1.38576082440567905e-01
14 10 1.50860781102375774e-01
15 10 1.63172758790090161e-01
16 10 1.75509526277825068e-01
17 10 1.87868544649968466e-01
18 10 2.00247226293689823e-01
19 10 2.12642935970204200e-01
20 10 2.25052991965141308e-01
21 10 2.37474667318210098e-01
22 10 2.49905191132172244e-01
23 10 2.62341749960982529e-01
24 10 2.74781489276757107e-01
25 10 2.87221515015064544e-01
26 10 2.99658895197840447e-01
27 10 3.12090661633032396e-01
28 10 3.24513811689903231e-01
29 10 3.36925310148705692e-01
30 10 3.49322091123260237e-01
31 10 3.61701060054754608e-01
32 10 3.74059095774902595e-01
33 10 3.86393052636372525e-01
34 10 3.98699762708224159e-01
35 10 4.10976038033885160e-01
36 10 4.23218672948990182e-01
37 10 4.35424446456237235e-01
38 10 4.47590124654211829e-01
39 10 4.59712463216947587e-01
40 10 4.71788209920822932e-01
41 10 4.83814107215210010e-01
42 10 4.95786894833133429e-01
43 10 5.07703312438041898e-01
44 10 5.19560102302641491e-01
45 10 5.31354012015601951e-01
46 10 5.43081797211819373e-01
47 10 5.54740224321804920e-01
48 10 5.66326073335643665e-01
49 10 5.77836140576897028e-01
50 10 5.89267241481725268e-01
51 10 6.00616213378425412e-01
52 10 6.11879918262557165e-01
53 10 6.23055245562745497e-01
54 10 6.34139114892247391e-01
55 10 6.45128478781350934e-01
56 10 6.56020325385669123e-01
57 10 6.66811681165402792e-01
58 10 6.77499613530692324e-01
59 10 6.88081233448216367e-01
60 10 6.98553698004234280e-01
61 10 7.08914212919389275e-01
62 10 7.19160035010628085e-01
63 10 7.29288474595740199e-01
64 10 7.39296897836104416e-01
65 10 7.49182729013384341e-01
66 10 7.58943452736049906e-01
67 10 7.68576616071753982e-01
68 10 7.78079830601783540e-01
69 10 7.87450774393964270e-01
70 10 7.96687193890587952e-01
71 10 8.05786905708175905e-01
72 10 8.14747798346036500e-01
73 10 8.23567833800854743e-01
74 10 8.32245049084748945e-01
75 10 8.40777557644472706e-01
76 10 8.49163550679680190e-01
77 10 8.57401298358427044e-01
78 10 8.65489150928298034e-01
79 10 8.73425539721865318e-01
80 10 8.81208978055361913e-01
81 10 8.88838062019781550e-01
82 10 8.96311471163808271e-01
83 10 9.03627969068301451e-01
84 10 9.10786403812244516e-01
85 10 9.17785708330379535e-01
86 10 9.24624900662957661e-01
87 10 9.31303084098300760e-01
88 10 9.37819447209076618e-01
89 10 9.44173263783482430e-01
90 10 9.50363892652672626e-01
91 10 9.56390777416062376e-01
92 10 9.62253446066303808e-01
93 10 9.67951510515935420e-01
94 10 9.73484666027917500e-01
95 10 9.78852690552424964e-01
96 10 9.84055443972454480e-01
97 10 9.89092867260952469e-01
98 10 9.93964981552328486e-01
99 10 9.98671887131355018e-01
100 10 1.00321376234257165e+00
101 10 1.00759086242344309e+00
102 10 1.01180351826459702e+00
103 10 1.01585213510059358e+00
104 10 1.01973719113472971e+00
105 10 1.02345923610144762e+00
106 10 1.02701888976999234e+00
107 10 1.03041684039299541e+00
108 10 1.03365384310368325e+00
109 10 1.03673071826544683e+00
110 10 1.03964834977751641e+00
111 10 1.04240768334045697e+00
112 10 1.04500972468524878e+00
113 10 1.04745553776961775e+00
114 10 1.04974624294532237e+00
115 10 1.05188301510001159e+00
116 10 1.05386708177725419e+00
117 10 1.05569972127825840e+00
118 10 1.05738226074875863e+00
119 10 1.05891607425444945e+00
120 10 1.06030258084829487e+00
121 10 1.06154324263294053e+00
122 10 1.06263956282136984e+00
123 10 1.06359308379883566e+00
124 10 1.06440538518904804e+00
125 10 1.06507808192741926e+00
126 10 1.06561282234412902e+00
127 10 1.06601128625962049e+00
128 10 1.06627518309503655e+00
129 10 1.06640624999999978e+00
130 10 1.06640625000000000e+00
1 11 0.00000000000000000e+00
2 11 5.94788639213488218e-03
3 11 1.78699063450299123e-02
4 11 2.98434749584698400e-02
5 11 4.18666794421424723e-02
6 11 5.39375509480272339e-02
7 11 6.60540647602360226e-02
8 11 7.82141405515917043e-02
9 11 9.04156427086160036e-02
10 11 1.02656380726517671e-01
11 11 1.14934109675681240e-01
12 11 1.27246530741054881e-01
13 11 1.39591291835736903e-01
14 11 1.51965988289938958e-01
15 11 1.64368163616391200e-01
16 11 1.76795310353120461e-01
17 11 1.89244870984400487e-01
18 11 2.01714238940530005e-01
19 11 2.14200759676945629e-01
20 11 2.26701731833017811e-01
21 11 2.39214408470724449e-01
22 11 2.51735998393213811e-01
23 11 2.64263667543114256e-01
24 11 2.76794540480249762e-01
25 11 2.89325701938251800e-01
26 11 3.01854198459363066e-01
27 11 3.14377040106534444e-01
28 11 3.26891202251734014e-01
29 11 3.39393627439172396e-01
30 11 3.51881227321965417e-01
31 11 3.64350884670540387e-01
32 11 3.76799455450909204e-01
33 11 3.89223770970704930e-01
34 11 4.01620640090701975e-01
35 11 4.13986851499334896e-01
36 11 4.26319176047517567e-01
37 11 4.38614369140898297e-01
38 11 4.50869173186477123e-01
39 11 4.63080320090331898e-01
40 11 4.75244533803026781e-01
41 11 4.87358532909094366e-01
42 11 4.99419033256819356e-01
43 11 5.11422750624401234e-01
44 11 5.23366403418411785e-01
45 11 5.35246715400331752e-01
46 11 5.47060418436814300e-01
47 11 5.58804255269217398e-01
48 11 5.70474982297809574e-01
49 11 5.82069372375995098e-01
50 11 5.93584217609796405e-01
51 11 6.05016332157754633e-01
52 11 6.16362555026385484e-01
53 11 6.27619752856245494e-01
54 11 6.38784822693655774e-01
55 11 6.49854694743119077e-01
56 11 6.60826335095454187e-01
57 11 6.71696748426687806e-01
58 11 6.82462980662785323e-01
59 11 6.93122121605346253e-01
60 11 7.03671307513422883e-01
61 11 7.14107723636747349e-01
62 11 7.24428606695687649e-01
63 11 7.34631247303401347e-01
64 11 7.44712992325746170e-01
65 11 7.54671247174654614e-01
66 11 7.64503478030819528e-01
67 11 7.74207213991693677e-01
68 11 7.83780049140990753e-01
69 11 7.93219644536044655e-01
70 11 8.02523730109566569e-01
71 11 8.11690106482594653e-01
72 11 8.20716646685567874e-01
73 11 8.29601297784743785e-01
74 11 8.38342082411377199e-01
75 11 8.46937100191318737e-01
76 11 8.55384529072937827e-01
77 11 8.63682626551529165e-01
78 11 8.71829730788578616e-01
79 11 8.79824261624589599e-01
80 11 8.87664721484338948e-01
81 11 8.95349696173772580e-01
82 11 9.02877855567938759e-01
83 11 9.10247954189680852e-01
84 11 9.17458831679000886e-01
85 11 9.24509413153312698e-01
86 11 9.31398709459023255e-01
87 11 9.38125817315138111e-01
88 11 9.44689919349802620e-01
89 11 9.51090284030980393e-01
90 11 9.57326265492619122e-01
91 11 9.63397303257938264e-01
92 11 9.69302921861661337e-01
93 11 9.75042730373194999e-01
94 11 9.80616421822993911e-01
95 11 9.86023772534493914e-01
96 11 9.91264641364194010e-01
97 11 9.96338968852607865e-01
98 11 1.00124677628897563e+00
99 11 1.00598816469275687e+00
100 11 1.01056331371504449e+00
101 11 1.01497248046317523e+00
102 11 1.01921599825188358e+00
103 11 1.02329427528448069e+00
104 11 1.02720779326758516e+00
105 11 1.03095710596299650e+00
106 11 1.03454283768039512e+00
107 11 1.03796568171455572e+00
108 11 1.04122639873081635e+00
109 11 1.04432581510255629e+00
110 11 1.04726482120445796e+00
111 11 1.05004436966529546e+00
112 11 1.05266547358404172e+00
113 11 1.05512920471298499e+00
114 11 1.05743669161158849e+00
115 11 1.05958911777473674e+00
116 11 1.06158771973899224e+00
117 11 1.06343378517040676e+00
118 11 1.06512865093739406e+00
119 11 1.06667370117206439e+00
120 11 1.06807036532337407e+00
121 11 1.06932011620534295e+00
122 11 1.07042446804350466e+00
123 11 1.07138497452263670e+00
124 11 1.07220322683878466e+00
125 11 1.07288085175838921e+00
126 11 1.07341950968730937e+00
127 11 1.07382089275236514e+00
128 11 1.07408672289793050e+00
129 11 1.07421875000000000e+00
130 11 1.07421875000000000e+00
1 12 0.00000000000000000e+00
2 12 5.99114374771404518e-03
3 12 1.79998693002664904e-02
4 12 3.00605184127132573e-02
5 12 4.21711643835398706e-02
6 12 5.43298240458310738e-02
7 12 6.65344579584922907e-02
8 12 7.87829706646941824e-02
9 12 9.10732110192241234e-02
10 12 1.03402972586346883e-01
11 12 1.15769994109686192e-01
12 12 1.28171960055535300e-01
13 12 1.40606501230905900e-01
14 12 1.53071195477502142e-01
15 12 1.65563568442692238e-01
16 12 1.78081094428415881e-01
17 12 1.90621197318832536e-01
18 12 2.03181251587370243e-01
19 12 2.15758583383687086e-01
20 12 2.28350471700894314e-01
21 12 2.40954149623238856e-01
22 12 2.53566805654255378e-01
23 12 2.66185585125245983e-01
24 12 2.78807591683742473e-01
25 12 2.91429888861439057e-01
26 12 3.04049501720885684e-01
27 12 3.16663418580036493e-01
28 12 3.29268592813564798e-01
29 12 3.41861944729639156e-01
30 12 3.54440363520670654e-01
31 12 3.67000709286326110e-01
32 12 3.79539815126915869e-01
33 12 3.92054489305037390e-01
34 12 4.04541517473179790e-01
35 12 4.16997664964784631e-01
36 12 4.29419679146044952e-01
37 12 4.41804291825559414e-01
38 12 4.54148221718742418e-01
39 12 4.66448176963716210e-01
40 12 4.78700857685230574e-01
41 12 4.90902958602978667e-01
42 12 5.03051171680505282e-01
43 12 5.15142188810760460e-01
44 12 5.27172704534182079e-01
45 12 5.39139418785061442e-01
46 12 5.51039039661809227e-01
47 12 5.62868286216629876e-01
48 12 5.74623891259975483e-01
49 12 5.86302604175093278e-01
50 12 5.97901193737867653e-01
51 12 6.09416450937083742e-01
52 12 6.20845191790213802e-01
53 12 6.32184260149745381e-01
54 12 6.43430530495064379e-01
55 12 6.54580910704887220e-01
56 12 6.65632344805239362e-01
57 12 6.76581815687972821e-01
58 12 6.87426347794878323e-01
59 12 6.98163009762476139e-01
60 12 7.08788917022611376e-01
61 12 7.19301234354105534e-01
62 12 7.29697178380747213e-01
63 12 7.39974020011062494e-01
64 12 7.50129086815388035e-01
65 12 7.60159765335924886e-01
66 12 7.70063503325589149e-01
67 12 7.79837811911633372e-01
68 12 7.89480267680197856e-01
69 12 7.98988514678124928e-01
70 12 8.08360266328545296e-01
71 12 8.17593307257013624e-01
72 12 8.26685495025099359e-01
73 12 8.35634761768632939e-01
74 12 8.44439115738005563e-01
75 12 8.53096642738164768e-01
76 12 8.61605507466195464e-01
77 12 8.69963954744631174e-01
78 12 8.78170310648859198e-01
79 12 8.86222983527313879e-01
80 12 8.94120464913315982e-01
81 12 9.01861330327763611e-01
82 12 9.09444239972069246e-01
83 12 9.16867939311060365e-01
84 12 9.24131259545757366e-01
85 12 9.31233117976245861e-01
86 12 9.38172518255088961e-01
87 12 9.44948550531975573e-01
88 12 9.51560391490528512e-01
89 12 9.58007304278478578e-01
90 12 9.64288638332565395e-01
91 12 9.70403829099814264e-01
92 12 9.76352397657018978e-01
93 12 9.82133950230454578e-01
94 12 9.87748177618070322e-01
95 12 9.93194854516562975e-01
96 12 9.98473838755933540e-01
97 12 1.00358507044426326e+00
98 12 1.00852857102562266e+00
99 12 1.01330444225415861e+00
100 12 1.01791286508751755e+00
101 12 1.02235409850290759e+00
102 12 1.02662847823917014e+00
103 12 1.03073641546836803e+00
104 12 1.03467839540044015e+00
105 12 1.03845497582454560e+00
106 12 1.04206678559079813e+00
107 12 1.04551452303611603e+00
108 12 1.04879895435794968e+00
109 12 1.05192091193966597e+00
110 12 1.05488129263139951e+00
111 12 1.05768105599013418e+00
112 12 1.06032122248283467e+00
113 12 1.06280287165635223e+00
114 12 1.06512714027785460e+00
115 12 1.06729522044946235e+00
116 12 1.06930835770073029e+00
117 12 1.07116784906255513e+00
118 12 1.07287504112602972e+00
119 12 1.07443132808967956e+00
120 12 1.07583814979845327e+00
121 12 1.07709698977774537e+00
122 12 1.07820937326563904e+00
123 12 1.07917686524643752e+00
124 12 1.08000106848852129e+00
125 12 1.08068362158935916e+00
126 12 1.08122619703048972e+00
127 12 1.08163049924510957e+00
128 12 1.08189826270082445e+00
129 12 1.08203125000000000e+00
130 12 1.08203125000000022e+00
1 13 0.00000000000000000e+00
2 13 6.03440110329320819e-03
3 13 1.81298322555030721e-02
4 13 3.02775618669566746e-02
5 13 4.24756493249372757e-02
6 13 5.47220971436349068e-02
7 13 6.70148511567485311e-02
8 13 7.93518007777966605e-02
9 13 9.17307793298322433e-02
10 13 1.04149564446176096e-01
11 13 1.16605878543691144e-01
12 13 1.29097389370015692e-01
13 13 1.41621710626074898e-01
14 13 1.54176402665065326e-01
15 13 1.66758973268993305e-01
16 13 1.79366878503711330e-01
17 13 1.91997523653264557e-01
18 13 2.04648264234210425e-01
19 13 2.17316407090428515e-01
20 13 2.29999211568770817e-01
21 13 2.42693890775753207e-01
22 13 2.55397612915296945e-01
23 13 2.68107502707377765e-01
24 13 2.80820642887235183e-01
25 13 2.93534075784626314e-01
26 13 3.06244804982408358e-01
27 13 3.18949797053538542e-01
28 13 3.31645983375395581e-01
29 13 3.44330262020105859e-01
30 13 3.56999499719375890e-01
31 13 3.69650533902111889e-01
32 13 3.82280174802922479e-01
33 13 3.94885207639369851e-01
34 13 4.07462394855657606e-01
35 13 4.20008478430234367e-01
36 13 4.32520182244572338e-01
37 13 4.44994214510220532e-01
38 13 4.57427270251007712e-01
39 13 4.69816033837100466e-01
40 13 4.82157181567434312e-01
41 13 4.94447384296863024e-01
42 13 5.06683310104191209e-01
43 13 5.18861626997119796e-01
44 13 5.30979005649952374e-01
45 13 5.43032122169791132e-01
46 13 5.55017660886804265e-01
47 13 5.66932317164042354e-01
48 13 5.78772800222141282e-01
49 13 5.90535835974191459e-01
50 13 6.02218169865938902e-01
51 13 6.13816569716412741e-01
52 13 6.25327828554042009e-01
53 13 6.36748767443245378e-01
54 13 6.48076238296472762e-01
55 13 6.59307126666655363e-01
56 13 6.70438354515024537e-01
57 13 6.81466882949257946e-01
58 13 6.92389714926971322e-01
59 13 7.03203897919605914e-01
60 13 7.13906526531799868e-01
61 13 7.24494745071463719e-01
62 13 7.34965750065806889e-01
63 13 7.45316792718723531e-01
64 13 7.55545181305029789e-01
65 13 7.65648283497195048e-01
66 13 7.75623528620358549e-01
67 13 7.85468409831573067e-01
68 13 7.95180486219404958e-01
69 13 8.04757384820205202e-01
70 13 8.14196802547523912e-01
71 13 8.23496508031432595e-01
72 13 8.32654343364630734e-01
73 13 8.41668225752522092e-01
74 13 8.50536149064633706e-01
75 13 8.59256185285010798e-01
76 13 8.67826485859453101e-01
77 13 8.76245282937733294e-01
78 13 8.84510890509139780e-01
79 13 8.92621705430038159e-01
80 13 9.00576208342293016e-01
81 13 9.08372964481754752e-01
82 13 9.16010624376199623e-01
83 13 9.23487924432439766e-01
84 13 9.30803687412513847e-01
85 13 9.37956822799179135e-01
86 13 9.44946327051154555e-01
87 13 9.51771283748813035e-01
88 13 9.58430863631254404e-01
89 13 9.64924324525976540e-01
90 13 9.71251011172511558e-01
91 13 9.77410354941690152e-01
92 13 9.83401873452376507e-01
93 13 9.89225170087714156e-01
94 13 9.94879933413146622e-01
95 13 1.00036593649863192e+00
96 13 1.00568303614767318e+00
97 13 1.01083117203591866e+00
98 13 1.01581036576226968e+00
99 13 1.02062071981556035e+00
100 13 1.02526241645999039e+00
101 13 1.02973571654263973e+00
102 13 1.03404095822645647e+00
103 13 1.03817855565225514e+00
104 13 1.04214899753329537e+00
105 13 1.04595284568609448e+00
106 13 1.04959073350120113e+00
107 13 1.05306336435767633e+00
108 13 1.05637150998508300e+00
109 13 1.05951600877677543e+00
110 13 1.06249776405834107e+00
111 13 1.06531774231497267e+00
112 13 1.06797697138162784e+00
113 13 1.07047653859971925e+00
114 13 1.07281758894412071e+00
115 13 1.07500132312418750e+00
116 13 1.07702899566246835e+00
117 13 1.07890191295470350e+00
118 13 1.08062143131466515e+00
119 13 1.08218895500729451e+00
120 13 1.08360593427353247e+00
121 13 1.08487386335014779e+00
122 13 1.08599427848777341e+00
123 13 1.08696875597023856e+00
124 13 1.08779891013825791e+00
125 13 1.08848639142032932e+00
126 13 1.08903288437366985e+00
127 13 1.08944010573785399e+00
128 13 1.08970980250371863e+00
129 13 1.08984375000000000e+00
130 13 1.08984375000000022e+00
1 14 0.00000000000000000e+00
2 14 6.07765845887237120e-03
3 14 1.82597952107396537e-02
4 14 3.04946053212000918e-02
5 14 4.27801342663346740e-02
6 14 5.51143702414387468e-02
7 14 6.74952443550047992e-02
8 14 7.99206308908991386e-02
9 14 9.23883476404403631e-02
10 14 1.04896156306005323e-01
11 14 1.17441762977696110e-01
12 14 1.30022818684496111e-01
13 14 1.42636920021243896e-01
14 14 1.55281609852628510e-01
15 14 1.67954378095294343e-01
16 14 1.80652662579006723e-01
17 14 1.93373849987696578e-01
18 14 2.06115276881050635e-01
19 14 2.18874230797169944e-01
20 14 2.31647951436647320e-01
21 14 2.44433631928267586e-01
22 14 2.57228420176338457e-01
23 14 2.70029420289509492e-01
24 14 2.82833694090727894e-01
25 14 2.95638262707813626e-01
26 14 3.08440108243930977e-01
27 14 3.21236175527040535e-01
28 14 3.34023373937226420e-01
29 14 3.46798579310572563e-01
30 14 3.59558635918081126e-01
31 14 3.72300358517897667e-01
32 14 3.85020534478929088e-01
33 14 3.97715925973702256e-01
34 14 4.10383272238135421e-01
35 14 4.23019291895684157e-01
36 14 4.35620685343099723e-01
37 14 4.48184137194881593e-01
38 14 4.60706318783272895e-01
39 14 4.73183890710484778e-01
40 14 4.85613505449638161e-01
41 14 4.97991809990747325e-01
42 14 5.10315448527877247e-01
43 14 5.22581065183479021e-01
44 14 5.34785306765722668e-01
45 14 5.46924825554520821e-01
46 14 5.58996282111799192e-01
47 14 5.70996348111454832e-01
48 14 5.82921709184307191e-01
49 14 5.94769067773289750e-01
50 14 6.06535145994010150e-01
51 14 6.18216688495741851e-01
52 14 6.29810465317870216e-01
53 14 6.41313274736745376e-01
54 14 6.52721946097881145e-01
55 14 6.64033342628423395e-01
56 14 6.75244364224809712e-01
57 14 6.86351950210542960e-01
58 14 6.97353082059064322e-01
59 14 7.08244786076735688e-01
60 14 7.19024136040988471e-01
61 14 7.29688255788821905e-01
62 14 7.40234321750866453e-01
63 14 7.50659565426384678e-01
64 14 7.60961275794671543e-01
65 14 7.71136801658465210e-01
66 14 7.81183553915128170e-01
67 14 7.91099007751512762e-01
68 14 8.00880704758612061e-01
69 14 8.10526254962285586e-01
70 14 8.20033338766502640e-01
71 14 8.29399708805851454e-01
72 14 8.38623191704162219e-01
73 14 8.47701689736411246e-01
74 14 8.56633182391261960e-01
75 14 8.65415727831856607e-01
76 14 8.74047464252710959e-01
77 14 8.82526611130835414e-01
78 14 8.90851470369420362e-01
79 14 8.99020427332762440e-01
80 14 9.07031951771270051e-01
81 14 9.14884598635745894e-01
82 14 9.22577008780330110e-01
83 14 9.30107909553819279e-01
84 14 9.37476115279270328e-01
85 14 9.44680527622112409e-01
86 14 9.51720135847220261e-01
87 14 9.58594016965650497e-01
88 14 9.65301335771980296e-01
89 14 9.71841344773474503e-01
90 14 9.78213384012457943e-01
91 14 9.84416880783566151e-01
92 14 9.90451349247734147e-01
93 14 9.96316389944973846e-01
94 14 1.00201168920822292e+00
95 14 1.00753701848070087e+00
96 14 1.01289223353941282e+00
97 14 1.01807727362757405e+00
98 14 1.02309216049891671e+00
99 14 1.02793699737696209e+00
100 14 1.03261196783246345e+00
101 14 1.03711733458237187e+00
102 14 1.04145343821374281e+00
103 14 1.04562069583614226e+00
104 14 1.04961959966615037e+00
105 14 1.05345071554764336e+00
106 14 1.05711468141160392e+00
107 14 1.06061220567923686e+00
108 14 1.06394406561221611e+00
109 14 1.06711110561388489e+00
110 14 1.07011423548528262e+00
111 14 1.07295442863981116e+00
112 14 1.07563272028042078e+00
113 14 1.07815020554308627e+00
114 14 1.08050803761038705e+00
115 14 1.08270742579891288e+00
116 14 1.08474963362420640e+00
117 14 1.08663597684685187e+00
118 14 1.08836782150330080e+00
119 14 1.08994658192490945e+00
120 14 1.09137371874861144e+00
121 14 1.09265073692255044e+00
122 14 1.09377918370990801e+00
123 14 1.09476064669403961e+00
124 14 1.09559675178799454e+00
125 14 1.09628916125129927e+00
126 14 1.09683957171685020e+00
127 14 1.09724971223059842e+00
128 14 1.09752134230661258e+00
129 14 1.09765625000000000e+00
130 14 1.09765625000000022e+00
1 15 0.00000000000000000e+00
2 15 6.12091581445153333e-03
3 15 1.83897581659762353e-02
4 15 3.07116487754435091e-02
5 15 4.30846192077320722e-02
6 15 5.55066433392425798e-02
7 15 6.79756375532610674e-02
8 15 8.04894610040016306e-02
9 15 9.30459159510484690e-02
10 15 1.05642748165834549e-01
11 15 1.18277647411701076e-01
12 15 1.30948247998976502e-01
13 15 1.43652129416412894e-01
14 15 1.56386817040191695e-01
15 15 1.69149782921595382e-01
16 15 1.81938446654302144e-01
17 15 1.94750176322128599e-01
18 15 2.07582289527890873e-01
19 15 2.20432054503911373e-01
20 15 2.33296691304523796e-01
21 15 2.46173373080781965e-01
22 15 2.59059227437380024e-01
23 15 2.71951337871641274e-01
24 15 2.84846745294220605e-01
25 15 2.97742449631000938e-01
26 15 3.10635411505453596e-01
27 15 3.23522554000542639e-01
28 15 3.36400764499057259e-01
29 15 3.49266896601039267e-01
30 15 3.62117772116786307e-01
31 15 3.74950183133683446e-01
32 15 3.87760894154935698e-01
33 15 4.00546644308034605e-01
34 15 4.13304149620613237e-01
35 15 4.26030105361133837e-01
36 15 4.38721188441627163e-01
37 15 4.51374059879542711e-01
38 15 4.63985367315538244e-01
39 15 4.76551747583868979e-01
40 15 4.89069829331842010e-01
41 15 5.01536235684631682e-01
42 15 5.13947586951563284e-01
43 15 5.26300503369838357e-01
44 15 5.38591607881492962e-01
45 15 5.50817528939250511e-01
46 15 5.62974903336794230e-01
47 15 5.75060379058867310e-01
48 15 5.87070618146472989e-01
49 15 5.99002299572387931e-01
50 15 6.10852122122081287e-01
51 15 6.22616807275070849e-01
52 15 6.34293102081698312e-01
53 15 6.45877782030245262e-01
54 15 6.57367653899289528e-01
55 15 6.68759558590191538e-01
56 15 6.80050373934594887e-01
57 15 6.91237017471827975e-01
58 15 7.02316449191157210e-01
59 15 7.13285674233865463e-01
60 15 7.24141745550177074e-01
61 15 7.34881766506180090e-01
62 15 7.45502893435925906e-01
63 15 7.56002338134045715e-01
64 15 7.66377370284313297e-01
65 15 7.76625319819735260e-01
66 15 7.86743579209897681e-01
67 15 7.96729605671452457e-01
68 15 8.06580923297819274e-01
69 15 8.16295125104365860e-01
70 15 8.25869874985481367e-01
71 15 8.35302909580270314e-01
72 15 8.44592040043693593e-01
73 15 8.53735153720300288e-01
74 15 8.62730215717890214e-01
75 15 8.71575270378702638e-01
76 15 8.80268442645968707e-01
77 15 8.88807939323937424e-01
78 15 8.97192050229700944e-01
79 15 9.05419149235486720e-01
80 15 9.13487695200246974e-01
81 15 9.21396232789737146e-01
82 15 9.29143393184460598e-01
83 15 9.36727894675198680e-01
84 15 9.44148543146026697e-01
85 15 9.51404232445045572e-01
86 15 9.58493944643285856e-01
87 15 9.65416750182487959e-01
88 15 9.72171807912706187e-01
89 15 9.78758365020972576e-01
90 15 9.85175756852404327e-01
91 15 9.91423406625442150e-01
92 15 9.97500825043091566e-01
93 15 1.00340760980223354e+00
94 15 1.00914344500329922e+00
95 15 1.01470810046276982e+00
96 15 1.02010143093115246e+00
97 15 1.02532337521922945e+00
98 15 1.03037395523556374e+00
99 15 1.03525327493836405e+00
100 15 1.03996151920493651e+00
101 15 1.04449895262210402e+00
102 15 1.04886591820102915e+00
103 15 1.05306283602002937e+00
104 15 1.05709020179900559e+00
105 15 1.06094858540919224e+00
106 15 1.06463862932200692e+00
107 15 1.06816104700079739e+00
108 15 1.07151662123934943e+00
109 15 1.07470620245099435e+00
110 15 1.07773070691222417e+00
111 15 1.08059111496464966e+00
112 15 1.08328846917921395e+00
113 15 1.08582387248645351e+00
114 15 1.08819848627665317e+00
115 15 1.09041352847363826e+00
116 15 1.09247027158594467e+00
117 15 1.09437004073900024e+00
118 15 1.09611421169193646e+00
119 15 1.09770420884252462e+00
120 15 1.09914150322369042e+00
121 15 1.10042761049495286e+00
122 15 1.10156408893204261e+00
123 15 1.10255253741784065e+00
124 15 1.10339459343773116e+00
125 15 1.10409193108226922e+00
126 15 1.10464625906003078e+00
127 15 1.10505931872334306e+00
128 15 1.10533288210950653e+00
129 15 1.10546875000000000e+00
130 15 1.10546875000000022e+00
1 16 0.00000000000000000e+00
2 16 6.16417317003069547e-03
3 16 1.85197211212128170e-02
4 16 3.09286922296869299e-02
5 16 4.33891041491294774e-02
6 16 5.58989164370464198e-02
7 16 6.84560307515173355e-02
8 16 8.10582911171041226e-02
9 16 9.37034842616566027e-02
10 16 1.06389340025663776e-01
11 16 1.19113531845706028e-01
12 16 1.31873677313456894e-01
13 16 1.44667338811581891e-01
14 16 1.57492024227754879e-01
15 16 1.70345187747896393e-01
16 16 1.83224230729597537e-01
17 16 1.96126502656560592e-01
18 16 2.09049302174731083e-01
19 16 2.21989878210652775e-01
20 16 2.34945431172400299e-01
21 16 2.47913114233296317e-01
22 16 2.60890034698421536e-01
23 16 2.73873255453773001e-01
24 16 2.86859796497713315e-01
25 16 2.99846636554188251e-01
26 16 3.12830714766976270e-01
27 16 3.25808932474044743e-01
28 16 3.38778155060888042e-01
29 16 3.51735213891505916e-01
30 16 3.64676908315491544e-01
31 16 3.77600007749469224e-01
32 16 3.90501253830942308e-01
33 16 4.03377362642367010e-01
34 16 4.16225027003090997e-01
35 16 4.29040918826583517e-01
36 16 4.41821691540154549e-01
37 16 4.54563982564203828e-01
38 16 4.67264415847803538e-01
39 16 4.79919604457253235e-01
40 16 4.92526153214045859e-01
41 16 5.05080661378516038e-01
42 16 5.17579725375249211e-01
43 16 5.30019941556197582e-01
44 16 5.42397908997263256e-01
45 16 5.54710232323980201e-01
46 16 5.66953524561789157e-01
47 16 5.79124410006279788e-01
48 16 5.91219527108638898e-01
49 16 6.03235531371486111e-01
50 16 6.15169098250152646e-01
51 16 6.27016926054399959e-01
52 16 6.38775738845526520e-01
53 16 6.50442289323745371e-01
54 16 6.62013361700697911e-01
55 16 6.73485774551959682e-01
56 16 6.84856383644380062e-01
57 16 6.96122084733112989e-01
58 16 7.07279816323250210e-01
59 16 7.18326562390995127e-01
60 16 7.29259355059365566e-01
61 16 7.40075277223538275e-01
62 16 7.50771465120985360e-01
63 16 7.61345110841706862e-01
64 16 7.71793464773955162e-01
65 16 7.82113837981005533e-01
66 16 7.92303604504667303e-01
67 16 8.02360203591391929e-01
68 16 8.12281141837026488e-01
69 16 8.22063995246446133e-01
70 16 8.31706411204459983e-01
71 16 8.41206110354689285e-01
72 16 8.50560888383225078e-01
73 16 8.59768617704189220e-01
74 16 8.68827249044518357e-01
75 16 8.77734812925548669e-01
76 16 8.86489421039226455e-01
77 16 8.95089267517039433e-01
78 16 9.03532630089981526e-01
79 16 9.11817871138211000e-01
80 16 9.19943438629223897e-01
81 16 9.27907866943728177e-01
82 16 9.35709777588591085e-01
83 16 9.43347879796578193e-01
84 16 9.50820971012783067e-01
85 16 9.58127937267978735e-01
86 16 9.65267753439351450e-01
87 16 9.72239483399325310e-01
88 16 9.79042280053432079e-01
89 16 9.85675385268470650e-01
90 16 9.92138129692350712e-01
91 16 9.98429932467318149e-01
92 16 1.00455030083844910e+00
93 16 1.01049882965949323e+00
94 16 1.01627520079837552e+00
95 16 1.02187918244483877e+00
96 16 1.02731062832289211e+00
97 16 1.03256947681088462e+00
98 16 1.03765574997221077e+00
99 16 1.04256955249976602e+00
100 16 1.04731107057740958e+00
101 16 1.05188057066183616e+00
102 16 1.05627839818831570e+00
103 16 1.06050497620391648e+00
104 16 1.06456080393186081e+00
105 16 1.06844645527074134e+00
106 16 1.07216257723240993e+00
107 16 1.07570988832235792e+00
108 16 1.07908917686648254e+00
109 16 1.08230129928810381e+00
110 16 1.08534717833916572e+00
111 16 1.08822780128948837e+00
112 16 1.09094421807800712e+00
113 16 1.09349753942982075e+00
114 16 1.09588893494291928e+00
115 16 1.09811963114836364e+00
116 16 1.10019090954768273e+00
117 16 1.10210410463114861e+00
118 16 1.10386060188057211e+00
119 16 1.10546183576013957e+00
120 16 1.10690928769876940e+00
121 16 1.10820448406735550e+00
122 16 1.10934899415417720e+00
123 16 1.11034442814164169e+00
124 16 1.11119243508746801e+00
125 16 1.11189470091323916e+00
126 16 1.11245294640321113e+00
127 16 1.11286892521608749e+00
128 16 1.11314442191240071e+00
129 16 1.11328125000000000e+00
130 16 1.11328125000000022e+00
1 17 0.00000000000000000e+00
2 17 6.20743052560985848e-03
3 17 1.86496840764493951e-02
4 17 3.11457356839303506e-02
5 17 4.36935890905268756e-02
6 17 5.62911895348502528e-02
7 17 6.89364239497735898e-02
8 17 8.16271212302065868e-02
9 17 9.43610525722647087e-02
10 17 1.07135931885492988e-01
11 17 1.19949416279710994e-01
12 17 1.32799106627937286e-01
13 17 1.45682548206750889e-01
14 17 1.58597231415318063e-01
15 17 1.71540592574197404e-01
16 17 1.84510014804892958e-01
17 17 1.97502828990992613e-01
18 17 2.10516314821571321e-01
19 17 2.23547701917394231e-01
20 17 2.36594171040276774e-01
21 17 2.49652855385810668e-01
22 17 2.62720841959463103e-01
23 17 2.75795173035904728e-01
24 17 2.88872847701206026e-01
25 17 3.01950823477375563e-01
26 17 3.15026018028498944e-01
27 17 3.28095310947546848e-01
28 17 3.41155545622718825e-01
29 17 3.54203531181972675e-01
30 17 3.67236044514196724e-01
31 17 3.80249832365255003e-01
32 17 3.93241613506948973e-01
33 17 4.06208080976699415e-01
34 17 4.19145904385568868e-01
35 17 4.32051732292033253e-01
36 17 4.44922194638681934e-01
37 17 4.57753905248864890e-01
38 17 4.70543464380068832e-01
39 17 4.83287461330637436e-01
40 17 4.95982477096249652e-01
41 17 5.08625087072400395e-01
42 17 5.21211863798935138e-01
43 17 5.33739379742556919e-01
44 17 5.46204210113033439e-01
45 17 5.58602935708709891e-01
46 17 5.70932145786784195e-01
47 17 5.83188440953692266e-01
48 17 5.95368436070804807e-01
49 17 6.07468763170584292e-01
50 17 6.19486074378223894e-01
51 17 6.31417044833729069e-01
52 17 6.43258375609354727e-01
53 17 6.55006796617245368e-01
54 17 6.66659069502106294e-01
55 17 6.78211990513727714e-01
56 17 6.89662393354165237e-01
57 17 7.01007151994398003e-01
58 17 7.12243183455343210e-01
59 17 7.23367450548125013e-01
60 17 7.34376964568554058e-01
61 17 7.45268787940896571e-01
62 17 7.56040036806044813e-01
63 17 7.66687883549368010e-01
64 17 7.77209559263596916e-01
65 17 7.87602356142275584e-01
66 17 7.97863629799436813e-01
67 17 8.07990801511331513e-01
68 17 8.17981360376233813e-01
69 17 8.27832865388526407e-01
70 17 8.37542947423438822e-01
71 17 8.47109311129108145e-01
72 17 8.56529736722756452e-01
73 17 8.65802081688078262e-01
74 17 8.74924282371146611e-01
75 17 8.83894355472394699e-01
76 17 8.92710399432484203e-01
77 17 9.01370595710141553e-01
78 17 9.09873209950262107e-01
79 17 9.18216593040935392e-01
80 17 9.26399182058200710e-01
81 17 9.34419501097719096e-01
82 17 9.42276161992721573e-01
83 17 9.49967864917957483e-01
84 17 9.57493398879539437e-01
85 17 9.64851642090911898e-01
86 17 9.72041562235417156e-01
87 17 9.79062216616162773e-01
88 17 9.85912752194158082e-01
89 17 9.92592405515968723e-01
90 17 9.99100502532296986e-01
91 17 1.00543645830919415e+00
92 17 1.01159977663380651e+00
93 17 1.01759004951675291e+00
94 17 1.02340695659345182e+00
95 17 1.02905026442690772e+00
96 17 1.03451982571463152e+00
97 17 1.03981557840254024e+00
98 17 1.04493754470885780e+00
99 17 1.04988583006116776e+00
100 17 1.05466062194988264e+00
101 17 1.05926218870156830e+00
102 17 1.06369087817560226e+00
103 17 1.06794711638780360e+00
104 17 1.07203140606471603e+00
105 17 1.07594432513229044e+00
106 17 1.07968652514281271e+00
107 17 1.08325872964391823e+00
108 17 1.08666173249361564e+00
109 17 1.08989639612521350e+00
110 17 1.09296364976610705e+00
111 17 1.09586448761432687e+00
112 17 1.09859996697680007e+00
113 17 1.10117120637318799e+00
114 17 1.10357938360918539e+00
115 17 1.10582573382308902e+00
116 17 1.10791154750942078e+00
117 17 1.10983816852329675e+00
118 17 1.11160699206920777e+00
119 17 1.11321946267775451e+00
120 17 1.11467707217384859e+00
121 17 1.11598135763975792e+00
122 17 1.11713389937631180e+00
123 17 1.11813631886544274e+00
124 17 1.11899027673720441e+00
125 17 1.11969747074420911e+00
126 17 1.12025963374639148e+00
127 17 1.12067853170883236e+00
128 17 1.12095596171529488e+00
129 17 1.12109375000000000e+00
130 17 1.12109375000000022e+00
1 18 0.00000000000000000e+00
2 18 6.25068788118902149e-03
3 18 1.87796470316859733e-02
4 18 3.13627791381737644e-02
5 18 4.39980740319242739e-02
6 18 5.66834626326540858e-02
7 18 6.94168171480298579e-02
8 18 8.21959513433090649e-02
9 18 9.50186208828728424e-02
10 18 1.07882523745322201e-01
11 18 1.20785300713715960e-01
12 18 1.33724535942417705e-01
13 18 1.46697757601919859e-01
14 18 1.59702438602881275e-01
15 18 1.72735997400498442e-01
16 18 1.85795798880188379e-01
17 18 1.98879155325424634e-01
18 18 2.11983327468411559e-01
19 18 2.25105525624135661e-01
20 18 2.38242910908153277e-01
21 18 2.51392596538325019e-01
22 18 2.64551649220504670e-01
23 18 2.77717090618036455e-01
24 18 2.90885898904698792e-01
25 18 3.04055010400562820e-01
26 18 3.17221321290021563e-01
27 18 3.30381689421048896e-01
28 18 3.43532936184549609e-01
29 18 3.56671848472439434e-01
30 18 3.69795180712901961e-01
31 18 3.82899656981040726e-01
32 18 3.95981973182955582e-01
33 18 4.09038799311031820e-01
34 18 4.22066781768046684e-01
35 18 4.35062545757482932e-01
36 18 4.48022697737209430e-01
37 18 4.60943827933526007e-01
38 18 4.73822512912334071e-01
39 18 4.86655318204021692e-01
40 18 4.99438800978453501e-01
41 18 5.12169512766284640e-01
42 18 5.24844002222621064e-01
43 18 5.37458817928916144e-01
44 18 5.50010511228803733e-01
45 18 5.62495639093439581e-01
46 18 5.74910767011779233e-01
47 18 5.87252471901104633e-01
48 18 5.99517345032970606e-01
49 18 6.11701994969682472e-01
50 18 6.23803050506295031e-01
51 18 6.35817163613058178e-01
52 18 6.47741012373182934e-01
53 18 6.59571303910745366e-01
54 18 6.71304777303514677e-01
55 18 6.82938206475495857e-01
56 18 6.94468403063950523e-01
57 18 7.05892219255682907e-01
58 18 7.17206550587436209e-01
59 18 7.28408338705254788e-01
60 18 7.39494574077742439e-01
61 18 7.50462298658254867e-01
62 18 7.61308608491104377e-01
63 18 7.72030656257029158e-01
64 18 7.82625653753238559e-01
65 18 7.93090874303545745e-01
66 18 8.03423655094206324e-01
67 18 8.13621399431271097e-01
68 18 8.23681578915441137e-01
69 18 8.33601735530606791e-01
70 18 8.43379483642417549e-01
71 18 8.53012511903526893e-01
72 18 8.62498585062287826e-01
73 18 8.71835545671967416e-01
74 18 8.81021315697774976e-01
75 18 8.90053898019240730e-01
76 18 8.98931377825741951e-01
77 18 9.07651923903243674e-01
78 18 9.16213789810542689e-01
79 18 9.24615314943659561e-01
80 18 9.32854925487177744e-01
81 18 9.40931135251710127e-01
82 18 9.48842546396852060e-01
83 18 9.56587850039336884e-01
84 18 9.64165826746295695e-01
85 18 9.71575346913845062e-01
86 18 9.78815371031482750e-01
87 18 9.85884949833000235e-01
88 18 9.92783224334884085e-01
89 18 9.99509425763466797e-01
90 18 1.00606287537224315e+00
91 18 1.01244298415107026e+00
92 18 1.01864925242916415e+00
93 18 1.02468126937401238e+00
94 18 1.03053871238852812e+00
95 18 1.03622134640897667e+00
96 18 1.04172902310637094e+00
97 18 1.04706167999419564e+00
98 18 1.05221933944550483e+00
99 18 1.05720210762256972e+00
100 18 1.06201017332235570e+00
101 18 1.06664380674130044e+00
102 18 1.07110335816288860e+00
103 18 1.07538925657169071e+00
104 18 1.07950200819757125e+00
105 18 1.08344219499383954e+00
106 18 1.08721047305321572e+00
107 18 1.09080757096547853e+00
108 18 1.09423428812074874e+00
109 18 1.09749149296232296e+00
110 18 1.10058012119304860e+00
111 18 1.10350117393916536e+00
112 18 1.10625571587559324e+00
113 18 1.10884487331655501e+00
114 18 1.11126983227545151e+00
115 18 1.11353183649781440e+00
116 18 1.11563218547115883e+00
117 18 1.11757223241544512e+00
118 18 1.11935338225784342e+00
119 18 1.12097708959536968e+00
120 18 1.12244485664892779e+00
121 18 1.12375823121216056e+00
122 18 1.12491880459844640e+00
123 18 1.12592820958924378e+00
124 18 1.12678811838694104e+00
125 18 1.12750024057517906e+00
126 18 1.12806632108957205e+00
127 18 1.12848813820157678e+00
128 18 1.12876750151818883e+00
129 18 1.12890625000000000e+00
130 18 1.12890625000000022e+00
1 19 0.00000000000000000e+00
2 19 6.29394523676818363e-03
3 19 1.89096099869225584e-02
4 19 3.15798225924171852e-02
5 19 4.43025589733216721e-02
6 19 5.70757357304579258e-02
7 19 6.98972103462861261e-02
8 19 8.27647814564115569e-02
9 19 9.56761891934809483e-02
10 19 1.08629115605151427e-01
11 19 1.21621185147720898e-01
12 19 1.34649965256898096e-01
13 19 1.47712966997088857e-01
14 19 1.60807645790444459e-01
15 19 1.73931402226799453e-01
16 19 1.87081582955483827e-01
17 19 2.00255481659856654e-01
18 19 2.13450340115251769e-01
19 19 2.26663349330877090e-01
20 19 2.39891650776029780e-01
21 19 2.53132337690839371e-01
22 19 2.66382456481546237e-01
23 19 2.79639008200168182e-01
24 19 2.92898950108191558e-01
25 19 3.06159197323750076e-01
26 19 3.19416624551544237e-01
27 19 3.32668067894551001e-01
28 19 3.45910326746380337e-01
29 19 3.59140165762906194e-01
30 19 3.72354316911607197e-01
31 19 3.85549481596826504e-01
32 19 3.98722332858962192e-01
33 19 4.11869517645364225e-01
34 19 4.24987659150524499e-01
35 19 4.38073359222932668e-01
36 19 4.51123200835736815e-01
37 19 4.64133750618187124e-01
38 19 4.77101561444599309e-01
39 19 4.90023175077405893e-01
40 19 5.02895124860657350e-01
41 19 5.15713938460168997e-01
42 19 5.28476140646306991e-01
43 19 5.41178256115275480e-01
44 19 5.53816812344574028e-01
45 19 5.66388342478169271e-01
46 19 5.78889388236774161e-01
47 19 5.91316502848517223e-01
48 19 6.03666253995136515e-01
49 19 6.15935226768780542e-01
50 19 6.28120026634366280e-01
51 19 6.40217282392387177e-01
52 19 6.52223649137011252e-01
53 19 6.64135811204245141e-01
54 19 6.75950485104923060e-01
55 19 6.87664422437263889e-01
56 19 6.99274412773735587e-01
57 19 7.10777286516967921e-01
58 19 7.22169917719529209e-01
59 19 7.33449226862384673e-01
60 19 7.44612183586931042e-01
61 19 7.55655809375613163e-01
62 19 7.66577180176163941e-01
63 19 7.77373428964690305e-01
64 19 7.88041748242880424e-01
65 19 7.98579392464816018e-01
66 19 8.08983680388976056e-01
67 19 8.19251997351210792e-01
68 19 8.29381797454648462e-01
69 19 8.39370605672687176e-01
70 19 8.49216019861396276e-01
71 19 8.58915712677945864e-01
72 19 8.68467433401819200e-01
73 19 8.77869009655856458e-01
74 19 8.87118349024403119e-01
75 19 8.96213440566086650e-01
76 19 9.05152356218999699e-01
77 19 9.13933252096345683e-01
78 19 9.22554369670823160e-01
79 19 9.31014036846383841e-01
80 19 9.39310668916154778e-01
81 19 9.47442769405701157e-01
82 19 9.55408930800982437e-01
83 19 9.63207835160716286e-01
84 19 9.70838254613051954e-01
85 19 9.78299051736778336e-01
86 19 9.85589179827548456e-01
87 19 9.92707683049837586e-01
88 19 9.99653696475609865e-01
89 19 1.00642644601096487e+00
90 19 1.01302524821218953e+00
91 19 1.01944950999294615e+00
92 19 1.02569872822452157e+00
93 19 1.03177248923127185e+00
94 19 1.03767046818360442e+00
95 19 1.04339242839104562e+00
96 19 1.04893822049811036e+00
97 19 1.05430778158585081e+00
98 19 1.05950113418215208e+00
99 19 1.06451838518397168e+00
100 19 1.06935972469482876e+00
101 19 1.07402542478103258e+00
102 19 1.07851583815017493e+00
103 19 1.08283139675557782e+00
104 19 1.08697261033042647e+00
105 19 1.09094006485538864e+00
106 19 1.09473442096361850e+00
107 19 1.09835641228703884e+00
108 19 1.10180684374788185e+00
109 19 1.10508658979943242e+00
110 19 1.10819659261999015e+00
111 19 1.11113786026400385e+00
112 19 1.11391146477438618e+00
113 19 1.11651854025992225e+00
114 19 1.11896028094171740e+00
115 19 1.12123793917253978e+00
116 19 1.12335282343289689e+00
117 19 1.12530629630759327e+00
118 19 1.12709977244647908e+00
119 19 1.12873471651298463e+00
120 19 1.13021264112400699e+00
121 19 1.13153510478456298e+00
122 19 1.13270370982058100e+00
123 19 1.13372010031304504e+00
124 19 1.13458596003667744e+00
125 19 1.13530301040614923e+00
126 19 1.13587300843275241e+00
127 19 1.13629774469432143e+00
128 19 1.13657904132108301e+00
129 19 1.13671875000000000e+00
130 19 1.13671875000000044e+00
1 20 0.00000000000000000e+00
2 20 6.33720259234734663e-03
3 20 1.90395729421591400e-02
4 20 3.17968660466606060e-02
5 20 4.46070439147190773e-02
6 20 5.74680088282617588e-02
7 20 7.03776035445423942e-02
8 20 8.33336115695140350e-02
9 20 9.63337575040890681e-02
10 20 1.09375707464980640e-01
11 20 1.22457069581725864e-01
12 20 1.35575394571378516e-01
13 20 1.48728176392257855e-01
14 20 1.61912852978007643e-01
15 20 1.75126807053100464e-01
16 20 1.88367367030779248e-01
17 20 2.01631807994288675e-01
18 20 2.14917352762091979e-01
19 20 2.28221173037618547e-01
20 20 2.41540390643906255e-01
21 20 2.54872078843353778e-01
22 20 2.68213263742587749e-01
23 20 2.81560925782299964e-01
24 20 2.94912001311684269e-01
25 20 3.08263384246937389e-01
26 20 3.21611927813066856e-01
27 20 3.34954446368053049e-01
28 20 3.48287717308211120e-01
29 20 3.61608483053372953e-01
30 20 3.74913453110312378e-01
31 20 3.88199306212612227e-01
32 20 4.01462692534968801e-01
33 20 4.14700235979696630e-01
34 20 4.27908536533002315e-01
35 20 4.41084172688382403e-01
36 20 4.54223703934264256e-01
37 20 4.67323673302848241e-01
38 20 4.80380609976864492e-01
39 20 4.93391031950790204e-01
40 20 5.06351448742861199e-01
41 20 5.19258364154053242e-01
42 20 5.32108279069993029e-01
43 20 5.44897694301634816e-01
44 20 5.57623113460344211e-01
45 20 5.70281045862898961e-01
46 20 5.82868009461768977e-01
47 20 5.95380533795929812e-01
48 20 6.07815162957302424e-01
49 20 6.20168458567878722e-01
50 20 6.32437002762437528e-01
51 20 6.44617401171716398e-01
52 20 6.56706285900839570e-01
53 20 6.68700318497745139e-01
54 20 6.80596192906331665e-01
55 20 6.92390638399031921e-01
56 20 7.04080422483520652e-01
57 20 7.15662353778253046e-01
58 20 7.27133284851622097e-01
59 20 7.38490115019514337e-01
60 20 7.49729793096119757e-01
61 20 7.60849320092971237e-01
62 20 7.71845751861223395e-01
63 20 7.82716201672351453e-01
64 20 7.93457842732522178e-01
65 20 8.04067910626086291e-01
66 20 8.14543705683745567e-01
67 20 8.24882595271150376e-01
68 20 8.35082015993855786e-01
69 20 8.45139475814767449e-01
70 20 8.55052556080374893e-01
71 20 8.64818913452364835e-01
72 20 8.74436281741350574e-01
73 20 8.83902473639745501e-01
74 20 8.93215382351031262e-01
75 20 9.02372983112932570e-01
76 20 9.11373334612257335e-01
77 20 9.20214580289447692e-01
78 20 9.28894949531103742e-01
79 20 9.37412758749108010e-01
80 20 9.45766412345131813e-01
81 20 9.53954403559692188e-01
82 20 9.61975315205112924e-01
83 20 9.69827820282095687e-01
84 20 9.77510682479808324e-01
85 20 9.85022756559711499e-01
86 20 9.92362988623614162e-01
87 20 9.99530416266675048e-01
88 20 1.00652416861633576e+00
89 20 1.01334346625846283e+00
90 20 1.01998762105213592e+00
91 20 1.02645603583482203e+00
92 20 1.03274820401987899e+00
93 20 1.03886370908853132e+00
94 20 1.04480222397868072e+00
95 20 1.05056351037311457e+00
96 20 1.05614741788984978e+00
97 20 1.06155388317750621e+00
98 20 1.06678292891879933e+00
99 20 1.07183466274537365e+00
100 20 1.07670927606730182e+00
101 20 1.08140704282076472e+00
102 20 1.08592831813746127e+00
103 20 1.09027353693946494e+00
104 20 1.09444321246328169e+00
105 20 1.09843793471693774e+00
106 20 1.10225836887402129e+00
107 20 1.10590525360859915e+00
108 20 1.10937939937501517e+00
109 20 1.11268168663654188e+00
110 20 1.11581306404693170e+00
111 20 1.11877454658884234e+00
112 20 1.12156721367317935e+00
113 20 1.12419220720328950e+00
114 20 1.12665072960798351e+00
115 20 1.12894404184726516e+00
116 20 1.13107346139463516e+00
117 20 1.13304036019974164e+00
118 20 1.13484616263511451e+00
119 20 1.13649234343059979e+00
120 20 1.13798042559908619e+00
121 20 1.13931197835696540e+00
122 20 1.14048861504271559e+00
123 20 1.14151199103684586e+00
124 20 1.14238380168641407e+00
125 20 1.14310578023711917e+00
126 20 1.14367969577593276e+00
127 20 1.14410735118706586e+00
128 20 1.14439058112397718e+00
129 20 1.14453125000000000e+00
130 20 1.14453125000000044e+00
1 21 0.00000000000000000e+00
2 21 6.38045994792650964e-03
3 21 1.91695358973957182e-02
4 21 3.20139095009040198e-02
5 21 4.49115288561164686e-02
6 21 5.78602819260655918e-02
7 21 7.08579967427986485e-02
8 21 8.39024416826165131e-02
9 21 9.69913258146971741e-02
10 21 1.10122299324809853e-01
11 21 1.23292954015730816e-01
12 21 1.36500823885858907e-01
13 21 1.49743385787426853e-01
14 21 1.63018060165570827e-01
15 21 1.76322211879401475e-01
16 21 1.89653151106074669e-01
17 21 2.03008134328720669e-01
18 21 2.16384365408932189e-01
19 21 2.29778996744359948e-01
20 21 2.43189130511782731e-01
21 21 2.56611819995868129e-01
22 21 2.70044071003629260e-01
23 21 2.83482843364431747e-01
24 21 2.96925052515176979e-01
25 21 3.10367571170124645e-01
26 21 3.23807231074589585e-01
27 21 3.37240824841555098e-01
28 21 3.50665107870041903e-01
29 21 3.64076800343839713e-01
30 21 3.77472589309017614e-01
31 21 3.90849130828398006e-01
32 21 4.04203052210975411e-01
33 21 4.17530954314029090e-01
34 21 4.30829413915480131e-01
35 21 4.44094986153832139e-01
36 21 4.57324207032791641e-01
37 21 4.70513595987509303e-01
38 21 4.83659658509129786e-01
39 21 4.96758888824174460e-01
40 21 5.09807772625065048e-01
41 21 5.22802789847937599e-01
42 21 5.35740417493678955e-01
43 21 5.48617132487994041e-01
44 21 5.61429414576114505e-01
45 21 5.74173749247628651e-01
46 21 5.86846630686763904e-01
47 21 5.99444564743342401e-01
48 21 6.11964071919468222e-01
49 21 6.24401690366976903e-01
50 21 6.36753978890508776e-01
51 21 6.49017519951045507e-01
52 21 6.61188922664667778e-01
53 21 6.73264825791245025e-01
54 21 6.85241900707740048e-01
55 21 6.97116854360800065e-01
56 21 7.08886432193305716e-01
57 21 7.20547421039538061e-01
58 21 7.32096651983715208e-01
59 21 7.43531003176644223e-01
60 21 7.54847402605308249e-01
61 21 7.66042830810329312e-01
62 21 7.77114323546282959e-01
63 21 7.88058974380012489e-01
64 21 7.98873937222163932e-01
65 21 8.09556428787356452e-01
66 21 8.20103730978515189e-01
67 21 8.30513193191089960e-01
68 21 8.40782234533063000e-01
69 21 8.50908345956847834e-01
70 21 8.60889092299353398e-01
71 21 8.70722114226783694e-01
72 21 8.80405130080882059e-01
73 21 8.89935937623634654e-01
74 21 8.99312415677659405e-01
75 21 9.08532525659778600e-01
76 21 9.17594313005515083e-01
77 21 9.26495908482549813e-01
78 21 9.35235529391384213e-01
79 21 9.43811480651832291e-01
80 21 9.52222155774108847e-01
81 21 9.60466037713683218e-01
82 21 9.68541699609243412e-01
83 21 9.76447805403475089e-01
84 21 9.84183110346564805e-01
85 21 9.91746461382644662e-01
86 21 9.99136797419679645e-01
87 21 1.00635314948351251e+00
88 21 1.01339464075706176e+00
89 21 1.02026048650596080e+00
90 21 1.02694999389208208e+00
91 21 1.03346256167669792e+00
92 21 1.03979767981523641e+00
93 21 1.04595492894579079e+00
94 21 1.05193397977375702e+00
95 21 1.05773459235518352e+00
96 21 1.06335661528158942e+00
97 21 1.06879998476916160e+00
98 21 1.07406472365544636e+00
99 21 1.07915094030677561e+00
100 21 1.08405882743977489e+00
101 21 1.08878866086049686e+00
102 21 1.09334079812474783e+00
103 21 1.09771567712335205e+00
104 21 1.10191381459613691e+00
105 21 1.10593580457848684e+00
106 21 1.10978231678442407e+00
107 21 1.11345409493015968e+00
108 21 1.11695195500214850e+00
109 21 1.12027678347365134e+00
110 21 1.12342953547387325e+00
111 21 1.12641123291368084e+00
112 21 1.12922296257197252e+00
113 21 1.13186587414665674e+00
114 21 1.13434117827424963e+00
115 21 1.13665014452199054e+00
116 21 1.13879409935637321e+00
117 21 1.14077442409189000e+00
118 21 1.14259255282374994e+00
119 21 1.14424997034821474e+00
120 21 1.14574821007416516e+00
121 21 1.14708885192936783e+00
122 21 1.14827352026484997e+00
123 21 1.14930388176064668e+00
124 21 1.15018164333615069e+00
125 21 1.15090855006808912e+00
126 21 1.15148638311911311e+00
127 21 1.15191695767981028e+00
128 21 1.15220212092687113e+00
129 21 1.15234375000000000e+00
130 21 1.15234375000000044e+00
1 22 0.00000000000000000e+00
2 22 6.42371730350567351e-03
3 22 1.92994988526322964e-02
4 22 3.22309529551474336e-02
5 22 4.52160137975138668e-02
6 22 5.82525550238694317e-02
7 22 7.13383899410549166e-02
8 22 8.44712717957190051e-02
9 22 9.76488941253052800e-02
10 22 1.10868891184639079e-01
11 22 1.24128838449735768e-01
12 22 1.37426253200339299e-01
13 22 1.50758595182595850e-01
14 22 1.64123267353133984e-01
15 22 1.77517616705702486e-01
16 22 1.90938935181370117e-01
17 22 2.04384460663152689e-01
18 22 2.17851378055772399e-01
19 22 2.31336820451101349e-01
20 22 2.44837870379659206e-01
21 22 2.58351561148382480e-01
22 22 2.71874878264670772e-01
23 22 2.85404760946563529e-01
24 22 2.98938103718669690e-01
25 22 3.12471758093311902e-01
26 22 3.26002534336112260e-01
27 22 3.39527203315057147e-01
28 22 3.53042498431872687e-01
29 22 3.66545117634306417e-01
30 22 3.80031725507722795e-01
31 22 3.93498955444183729e-01
32 22 4.06943411886982020e-01
33 22 4.20361672648361551e-01
34 22 4.33750291297958002e-01
35 22 4.47105799619281818e-01
36 22 4.60424710131319026e-01
37 22 4.73703518672170421e-01
38 22 4.86938707041395080e-01
39 22 5.00126745697558661e-01
40 22 5.13264096507268897e-01
41 22 5.26347215541821956e-01
42 22 5.39372555917364993e-01
43 22 5.52336570674353378e-01
44 22 5.65235715691884688e-01
45 22 5.78066452632358341e-01
46 22 5.90825251911758942e-01
47 22 6.03508595690754990e-01
48 22 6.16112980881634131e-01
49 22 6.28634922166075083e-01
50 22 6.41070955018580024e-01
51 22 6.53417638730374617e-01
52 22 6.65671559428495985e-01
53 22 6.77829333084744912e-01
54 22 6.89887608509148542e-01
55 22 7.01843070322568097e-01
56 22 7.13692441903091002e-01
57 22 7.25432488300822964e-01
58 22 7.37060019115808207e-01
59 22 7.48571891333773887e-01
60 22 7.59965012114496741e-01
61 22 7.71236341527687497e-01
62 22 7.82382895231342523e-01
63 22 7.93401747087673637e-01
64 22 8.04290031711805797e-01
65 22 8.15044946948626725e-01
66 22 8.25663756273284810e-01
67 22 8.36143791111029655e-01
68 22 8.46482453072270213e-01
69 22 8.56677216098928329e-01
70 22 8.66725628518332125e-01
71 22 8.76625315001202443e-01
72 22 8.86373978420413433e-01
73 22 8.95969401607523697e-01
74 22 9.05409449004287659e-01
75 22 9.14692068206624631e-01
76 22 9.23815291398772831e-01
77 22 9.32777236675651711e-01
78 22 9.41576109251664795e-01
79 22 9.50210202554556460e-01
80 22 9.58677899203085770e-01
81 22 9.66977671867674249e-01
82 22 9.75108084013373899e-01
83 22 9.83067790524854490e-01
84 22 9.90855538213321174e-01
85 22 9.98470166205577936e-01
86 22 1.00591060621574524e+00
87 22 1.01317588270034986e+00
88 22 1.02026511289778754e+00
89 22 1.02717750675345876e+00
90 22 1.03391236673202824e+00
91 22 1.04046908751857381e+00
92 22 1.04684715561059405e+00
93 22 1.05304614880305047e+00
94 22 1.05906573556883332e+00
95 22 1.06490567433725269e+00
96 22 1.07056581267332906e+00
97 22 1.07604608636081700e+00
98 22 1.08134651839209339e+00
99 22 1.08646721786817757e+00
100 22 1.09140837881224795e+00
101 22 1.09617027890022900e+00
102 22 1.10075327811203416e+00
103 22 1.10515781730723917e+00
104 22 1.10938441672899213e+00
105 22 1.11343367444003571e+00
106 22 1.11730626469482686e+00
107 22 1.12100293625171998e+00
108 22 1.12452451062928160e+00
109 22 1.12787188031076080e+00
110 22 1.13104600690081503e+00
111 22 1.13404791923851933e+00
112 22 1.13687871147076525e+00
113 22 1.13953954109002376e+00
114 22 1.14203162694051574e+00
115 22 1.14435624719671569e+00
116 22 1.14651473731811127e+00
117 22 1.14850848798403837e+00
118 22 1.15033894301238560e+00
119 22 1.15200759726582969e+00
120 22 1.15351599454924414e+00
121 22 1.15486572550177047e+00
122 22 1.15605842548698479e+00
123 22 1.15709577248444773e+00
124 22 1.15797948498588732e+00
125 22 1.15871131989905929e+00
126 22 1.15929307046229346e+00
127 22 1.15972656417255493e+00
128 22 1.16001366072976508e+00
129 22 1.16015625000000000e+00
130 22 1.16015625000000044e+00
1 23 0.00000000000000000e+00
2 23 6.46697465908483565e-03
3 23 1.94294618078688780e-02
4 23 3.24479964093908474e-02
5 23 4.55204987389112720e-02
6 23 5.86448281216732578e-02
7 23 7.18187831393111847e-02
8 23 8.50401019088214832e-02
9 23 9.83064624359133998e-02
10 23 1.11615483044468305e-01
11 23 1.24964722883740720e-01
12 23 1.38351682514819718e-01
13 23 1.51773804577764848e-01
14 23 1.65228474540697196e-01
15 23 1.78713021532003524e-01
16 23 1.92224719256665538e-01
17 23 2.05760786997584683e-01
18 23 2.19318390702612637e-01
19 23 2.32894644157842778e-01
20 23 2.46486610247535709e-01
21 23 2.60091302300896887e-01
22 23 2.73705685525712339e-01
23 23 2.87326678528695312e-01
24 23 3.00951154922162400e-01
25 23 3.14575945016499159e-01
26 23 3.28197837597634934e-01
27 23 3.41813581788559251e-01
28 23 3.55419888993703470e-01
29 23 3.69013434924773120e-01
30 23 3.82590861706427976e-01
31 23 3.96148780059969452e-01
32 23 4.09683771562988686e-01
33 23 4.23192390982693900e-01
34 23 4.36671168680435873e-01
35 23 4.50116613084731554e-01
36 23 4.63525213229846467e-01
37 23 4.76893441356831538e-01
38 23 4.90217755573660374e-01
39 23 5.03494602570942917e-01
40 23 5.16720420389472745e-01
41 23 5.29891641235706312e-01
42 23 5.43004694341050920e-01
43 23 5.56056008860712603e-01
44 23 5.69042016807654982e-01
45 23 5.81959156017088031e-01
46 23 5.94803873136753869e-01
47 23 6.07572626638167579e-01
48 23 6.20261889843800041e-01
49 23 6.32868153965173152e-01
50 23 6.45387931146651272e-01
51 23 6.57817757509703838e-01
52 23 6.70154196192324303e-01
53 23 6.82393840378245020e-01
54 23 6.94533316310556925e-01
55 23 7.06569286284336240e-01
56 23 7.18498451612876177e-01
57 23 7.30317555562107867e-01
58 23 7.42023386247901096e-01
59 23 7.53612779490903661e-01
60 23 7.65082621623685233e-01
61 23 7.76429852245045682e-01
62 23 7.87651466916402199e-01
63 23 7.98744519795334784e-01
64 23 8.09706126201447551e-01
65 23 8.20533465109896998e-01
66 23 8.31223781568054432e-01
67 23 8.41774389030969239e-01
68 23 8.52182671611477427e-01
69 23 8.62446086241008714e-01
70 23 8.72562164737310741e-01
71 23 8.82528515775621192e-01
72 23 8.92342826759944918e-01
73 23 9.02002865591412739e-01
74 23 9.11506482330915802e-01
75 23 9.20851610753470551e-01
76 23 9.30036269792030579e-01
77 23 9.39058564868753831e-01
78 23 9.47916689111945376e-01
79 23 9.56608924457280740e-01
80 23 9.65133642632062805e-01
81 23 9.73489306021665390e-01
82 23 9.81674468417504387e-01
83 23 9.89687775646233892e-01
84 23 9.97527966080077655e-01
85 23 1.00519387102851110e+00
86 23 1.01268441501181083e+00
87 23 1.01999861591718743e+00
88 23 1.02713558503851354e+00
89 23 1.03409452700095672e+00
90 23 1.04087473957197463e+00
91 23 1.04747561336044992e+00
92 23 1.05389663140595169e+00
93 23 1.06013736866030994e+00
94 23 1.06619749136390962e+00
95 23 1.07207675631932187e+00
96 23 1.07777501006506871e+00
97 23 1.08329218795247262e+00
98 23 1.08862831312874042e+00
99 23 1.09378349542957953e+00
100 23 1.09875793018472101e+00
101 23 1.10355189693996136e+00
102 23 1.10816575809932072e+00
103 23 1.11259995749112628e+00
104 23 1.11685501886184713e+00
105 23 1.12093154430158459e+00
106 23 1.12483021260522964e+00
107 23 1.12855177757328051e+00
108 23 1.13209706625641493e+00
109 23 1.13546697714787026e+00
110 23 1.13866247832775636e+00
111 23 1.14168460556335782e+00
112 23 1.14453446036955819e+00
113 23 1.14721320803339077e+00
114 23 1.14972207560678186e+00
115 23 1.15206234987144107e+00
116 23 1.15423537527984954e+00
117 23 1.15624255187618674e+00
118 23 1.15808533320102103e+00
119 23 1.15976522418344463e+00
120 23 1.16128377902432334e+00
121 23 1.16264259907417311e+00
122 23 1.16384333070911938e+00
123 23 1.16488766320824877e+00
124 23 1.16577732663562394e+00
125 23 1.16651408973002946e+00
126 23 1.16709975780547404e+00
127 23 1.16753617066529958e+00
128 23 1.16782520053265904e+00
129 23 1.16796875000000000e+00
130 23 1.16796875000000044e+00
1 24 0.00000000000000000e+00
2 24 6.51023201466399779e-03
3 24 1.95594247631054631e-02
4 24 3.26650398636342681e-02
5 24 4.58249836803086702e-02
6 24 5.90371012194770978e-02
7 24 7.22991763375674529e-02
8 24 8.56089320219239752e-02
9 24 9.89640307465215335e-02
10 24 1.12362074904297518e-01
11 24 1.25800607317745672e-01
12 24 1.39277111829300110e-01
13 24 1.52789013972933818e-01
14 24 1.66333681728260352e-01
15 24 1.79908426358304535e-01
16 24 1.93510503331960987e-01
17 24 2.07137113332016676e-01
18 24 2.20785403349452847e-01
19 24 2.34452467864584208e-01
20 24 2.48135350115412184e-01
21 24 2.61831043453411239e-01
22 24 2.75536492786753850e-01
23 24 2.89248596110827039e-01
24 24 3.02964206125655111e-01
25 24 3.16680131939686471e-01
26 24 3.30393140859157552e-01
27 24 3.44099960262061411e-01
28 24 3.57797279555534253e-01
29 24 3.71481752215239824e-01
30 24 3.85149997905133212e-01
31 24 3.98798604675755120e-01
32 24 4.12424131238995295e-01
33 24 4.26023109317026250e-01
34 24 4.39592046062913633e-01
35 24 4.53127426550181234e-01
36 24 4.66625716328373796e-01
37 24 4.80083364041492600e-01
38 24 4.93496804105925668e-01
39 24 5.06862459444327174e-01
40 24 5.20176744271676483e-01
41 24 5.33436066929590669e-01
42 24 5.46636832764736846e-01
43 24 5.59775447047071828e-01
44 24 5.72848317923425387e-01
45 24 5.85851859401817721e-01
46 24 5.98782494361748907e-01
47 24 6.11636657585580057e-01
48 24 6.24410798805965839e-01
49 24 6.37101385764271444e-01
50 24 6.49704907274722521e-01
51 24 6.62217876289033058e-01
52 24 6.74636832956152510e-01
53 24 6.86958347671745018e-01
54 24 6.99179024111965419e-01
55 24 7.11295502246104383e-01
56 24 7.23304461322661352e-01
57 24 7.35202622823392771e-01
58 24 7.46986753379994095e-01
59 24 7.58653667648033436e-01
60 24 7.70200231132873725e-01
61 24 7.81623362962403867e-01
62 24 7.92920038601461652e-01
63 24 8.04087292502995821e-01
64 24 8.15122220691089305e-01
65 24 8.26021983271167159e-01
66 24 8.36783806862824053e-01
67 24 8.47404986950908712e-01
68 24 8.57882890150684640e-01
69 24 8.68214956383088987e-01
70 24 8.78398700956289469e-01
71 24 8.88431716550040051e-01
72 24 8.98311675099476292e-01
73 24 9.08036329575301782e-01
74 24 9.17603515657543944e-01
75 24 9.27011153300316471e-01
76 24 9.36257248185288327e-01
77 24 9.45339893061855840e-01
78 24 9.54257268972225958e-01
79 24 9.63007646360004910e-01
80 24 9.71589386061039728e-01
81 24 9.80000940175656532e-01
82 24 9.88240852821634985e-01
83 24 9.96307760767613182e-01
84 24 1.00420039394683402e+00
85 24 1.01191757585144426e+00
86 24 1.01945822380787643e+00
87 24 1.02682134913402501e+00
88 24 1.03400605717923932e+00
89 24 1.04101154724845468e+00
90 24 1.04783711241192079e+00
91 24 1.05448213920232581e+00
92 24 1.06094610720130911e+00
93 24 1.06722858851756941e+00
94 24 1.07332924715898592e+00
95 24 1.07924783830139082e+00
96 24 1.08498420745680813e+00
97 24 1.09053828954412801e+00
98 24 1.09591010786538745e+00
99 24 1.10109977299098150e+00
100 24 1.10610748155719407e+00
101 24 1.11093351497969350e+00
102 24 1.11557823808660705e+00
103 24 1.12004209767501317e+00
104 24 1.12432562099470235e+00
105 24 1.12842941416313347e+00
106 24 1.13235416051563242e+00
107 24 1.13610061889484082e+00
108 24 1.13966962188354826e+00
109 24 1.14306207398497994e+00
110 24 1.14627894975469791e+00
111 24 1.14932129188819632e+00
112 24 1.15219020926835136e+00
113 24 1.15488687497675802e+00
114 24 1.15741252427304797e+00
115 24 1.15976845254616645e+00
116 24 1.16195601324158759e+00
117 24 1.16397661576833511e+00
118 24 1.16583172338965690e+00
119 24 1.16752285110105958e+00
120 24 1.16905156349940254e+00
121 24 1.17041947264657575e+00
122 24 1.17162823593125398e+00
123 24 1.17267955393204959e+00
124 24 1.17357516828536057e+00
125 24 1.17431685956099963e+00
126 24 1.17490644514865439e+00
127 24 1.17534577715804400e+00
128 24 1.17563674033555321e+00
129 24 1.17578125000000000e+00
130 24 1.17578125000000044e+00
1 25 0.00000000000000000e+00
2 25 6.55348937024316080e-03
3 25 1.96893877183420447e-02
4 25 3.28820833178776889e-02
5 25 4.61294686217060684e-02
6 25 5.94293743172809377e-02
7 25 7.27795695358237210e-02
8 25 8.61777621350264672e-02
9 25 9.96215990571296534e-02
10 25 1.13108666764126731e-01
11 25 1.26636491751750624e-01
12 25 1.40202541143780501e-01
13 25 1.53804223368102788e-01
14 25 1.67438888915823536e-01
15 25 1.81103831184605574e-01
16 25 1.94796287407256380e-01
17 25 2.08513439666448641e-01
18 25 2.22252415996293085e-01
19 25 2.36010291571325637e-01
20 25 2.49784089983288660e-01
21 25 2.63570784605925590e-01
22 25 2.77367300047795418e-01
23 25 2.91170513692958766e-01
24 25 3.04977257329147822e-01
25 25 3.18784318862873783e-01
26 25 3.32588444120680171e-01
27 25 3.46386338735563459e-01
28 25 3.60174670117365092e-01
29 25 3.73950069505706528e-01
30 25 3.87709134103838393e-01
31 25 4.01448429291540843e-01
32 25 4.15164490915001905e-01
33 25 4.28853827651358654e-01
34 25 4.42512923445391504e-01
35 25 4.56138240015630858e-01
36 25 4.69726219426901237e-01
37 25 4.83273286726153717e-01
38 25 4.96775852638190962e-01
39 25 5.10230316317711430e-01
40 25 5.23633068153880332e-01
41 25 5.36980492623475025e-01
42 25 5.50268971188422773e-01
43 25 5.63494885233431053e-01
44 25 5.76654619039195682e-01
45 25 5.89744562786547410e-01
46 25 6.02761115586743834e-01
47 25 6.15700688532992646e-01
48 25 6.28559707768131859e-01
49 25 6.41334617563369624e-01
50 25 6.54021883402793658e-01
51 25 6.66617995068362168e-01
52 25 6.79119469719980828e-01
53 25 6.91522854965245015e-01
54 25 7.03824731913373802e-01
55 25 7.16021718207872526e-01
56 25 7.28110471032446527e-01
57 25 7.40087690084677785e-01
58 25 7.51950120512087206e-01
59 25 7.63694555805163322e-01
60 25 7.75317840642062217e-01
61 25 7.86816873679761941e-01
62 25 7.98188610286521327e-01
63 25 8.09430065210656857e-01
64 25 8.20538315180731059e-01
65 25 8.31510501432437321e-01
66 25 8.42343832157593564e-01
67 25 8.53035584870848296e-01
68 25 8.63583108689891854e-01
69 25 8.73983826525169261e-01
70 25 8.84235237175268085e-01
71 25 8.94334917324459022e-01
72 25 9.04280523439007777e-01
73 25 9.14069793559191046e-01
74 25 9.23700548984172087e-01
75 25 9.33170695847162390e-01
76 25 9.42478226578545963e-01
77 25 9.51621221254957850e-01
78 25 9.60597848832506540e-01
79 25 9.69406368262729301e-01
80 25 9.78045129490016762e-01
81 25 9.86512574329647562e-01
82 25 9.94807237225765473e-01
83 25 1.00292774588899269e+00
84 25 1.01087282181359051e+00
85 25 1.01864128067437743e+00
86 25 1.02623203260394202e+00
87 25 1.03364408235086236e+00
88 25 1.04087652931996510e+00
89 25 1.04792856749595287e+00
90 25 1.05479948525186717e+00
91 25 1.06148866504420170e+00
92 25 1.06799558299666653e+00
93 25 1.07431980837482910e+00
94 25 1.08046100295406222e+00
95 25 1.08641892028345999e+00
96 25 1.09219340484854754e+00
97 25 1.09778439113578341e+00
98 25 1.10319190260203448e+00
99 25 1.10841605055238324e+00
100 25 1.11345703292966713e+00
101 25 1.11831513301942564e+00
102 25 1.12299071807389339e+00
103 25 1.12748423785890028e+00
104 25 1.13179622312755734e+00
105 25 1.13592728402468257e+00
106 25 1.13987810842603521e+00
107 25 1.14364946021640113e+00
108 25 1.14724217751068158e+00
109 25 1.15065717082208940e+00
110 25 1.15389542118163946e+00
111 25 1.15695797821303481e+00
112 25 1.15984595816714431e+00
113 25 1.16256054192012503e+00
114 25 1.16510297293931409e+00
115 25 1.16747455522089183e+00
116 25 1.16967665120332565e+00
117 25 1.17171067966048348e+00
118 25 1.17357811357829256e+00
119 25 1.17528047801867452e+00
120 25 1.17681934797448151e+00
121 25 1.17819634621897840e+00
122 25 1.17941314115338858e+00
123 25 1.18047144465585063e+00
124 25 1.18137300993509742e+00
125 25 1.18211962939196980e+00
126 25 1.18271313249183474e+00
127 25 1.18315538365078865e+00
128 25 1.18344828013844738e+00
129 25 1.18359375000000000e+00
130 25 1.18359375000000044e+00
1 26 0.00000000000000000e+00
2 26 6.59674672582232380e-03
3 26 1.98193506735786229e-02
4 26 3.30991267721211097e-02
5 26 4.64339535631034736e-02
6 26 5.98216474150847707e-02
7 26 7.32599627340799753e-02
8 26 8.67465922481289592e-02
9 26 1.00279167367737759e-01
10 26 1.13855258623955957e-01
11 26 1.27472376185755576e-01
12 26 1.41127970458260893e-01
13 26 1.54819432763271758e-01
14 26 1.68544096103386720e-01
15 26 1.82299236010906585e-01
16 26 1.96082071482551801e-01
17 26 2.09889766000880634e-01
18 26 2.23719428643133295e-01
19 26 2.37568115278067066e-01
20 26 2.51432829851165163e-01
21 26 2.65310525758439941e-01
22 26 2.79198107308836985e-01
23 26 2.93092431275090548e-01
24 26 3.06990308532640532e-01
25 26 3.20888505786061096e-01
26 26 3.34783747382202845e-01
27 26 3.48672717209065508e-01
28 26 3.62552060679195876e-01
29 26 3.76418386796173232e-01
30 26 3.90268270302543629e-01
31 26 4.04098253907326621e-01
32 26 4.17904850591008514e-01
33 26 4.31684545985691115e-01
34 26 4.45433800827869320e-01
35 26 4.59149053481080538e-01
36 26 4.72826722525428678e-01
37 26 4.86463209410814834e-01
38 26 5.00054901170456256e-01
39 26 5.13598173191095686e-01
40 26 5.27089392036084181e-01
41 26 5.40524918317359382e-01
42 26 5.53901109612108811e-01
43 26 5.67214323419790278e-01
44 26 5.80460920154965976e-01
45 26 5.93637266171277100e-01
46 26 6.06739736811738872e-01
47 26 6.19764719480405124e-01
48 26 6.32708616730297768e-01
49 26 6.45567849362467805e-01
50 26 6.58338859530864906e-01
51 26 6.71018113847691278e-01
52 26 6.83602106483809036e-01
53 26 6.96087362258744902e-01
54 26 7.08470439714782074e-01
55 26 7.20747934169640669e-01
56 26 7.32916480742231591e-01
57 26 7.44972757345962688e-01
58 26 7.56913487644180205e-01
59 26 7.68735443962293097e-01
60 26 7.80435450151250820e-01
61 26 7.92010384397120126e-01
62 26 8.03457181971580892e-01
63 26 8.14772837918318005e-01
64 26 8.25954409670372813e-01
65 26 8.36999019593707483e-01
66 26 8.47903857452363074e-01
67 26 8.58666182790787769e-01
68 26 8.69283327229099068e-01
69 26 8.79752696667249645e-01
70 26 8.90071773394246812e-01
71 26 9.00238118098877882e-01
72 26 9.10249371778539151e-01
73 26 9.20103257543080089e-01
74 26 9.29797582310800230e-01
75 26 9.39330238394008310e-01
76 26 9.48699204971803711e-01
77 26 9.57902549448059859e-01
78 26 9.66938428692787122e-01
79 26 9.75805090165453581e-01
80 26 9.84500872918993797e-01
81 26 9.93024208483638704e-01
82 26 1.00137362162989607e+00
83 26 1.00954773101037221e+00
84 26 1.01754524968034699e+00
85 26 1.02536498549731059e+00
86 26 1.03300584140000762e+00
87 26 1.04046681556769971e+00
88 26 1.04774700146069111e+00
89 26 1.05484558774345083e+00
90 26 1.06176185809181356e+00
91 26 1.06849519088607758e+00
92 26 1.07504505879202394e+00
93 26 1.08141102823208879e+00
94 26 1.08759275874913852e+00
95 26 1.09359000226552894e+00
96 26 1.09940260224028719e+00
97 26 1.10503049272743881e+00
98 26 1.11047369733868173e+00
99 26 1.11573232811378498e+00
100 26 1.12080658430213997e+00
101 26 1.12569675105915756e+00
102 26 1.13040319806117973e+00
103 26 1.13492637804278718e+00
104 26 1.13926682526041256e+00
105 26 1.14342515388623167e+00
106 26 1.14740205633643799e+00
107 26 1.15119830153796165e+00
108 26 1.15481473313781491e+00
109 26 1.15825226765919886e+00
110 26 1.16151189260858101e+00
111 26 1.16459466453787353e+00
112 26 1.16750170706593726e+00
113 26 1.17023420886349228e+00
114 26 1.17279342160558020e+00
115 26 1.17518065789561699e+00
116 26 1.17739728916506370e+00
117 26 1.17944474355263185e+00
118 26 1.18132450376692799e+00
119 26 1.18303810493628947e+00
120 26 1.18458713244956027e+00
121 26 1.18597321979138104e+00
122 26 1.18719804637552317e+00
123 26 1.18826333537965168e+00
124 26 1.18917085158483404e+00
125 26 1.18992239922293974e+00
126 26 1.19051981983501531e+00
127 26 1.19096499014353308e+00
128 26 1.19125981994134156e+00
129 26 1.19140625000000000e+00
130 26 1.19140625000000044e+00
1 27 0.00000000000000000e+00
2 27 6.64000408140148681e-03
3 27 1.99493136288152045e-02
4 27 3.33161702263645235e-02
5 27 4.67384385045008718e-02
6 27 6.02139205128886038e-02
7 27 7.37403559323362434e-02
8 27 8.73154223612314512e-02
9 27 1.00936735678345879e-01
10 27 1.14601850483785170e-01
11 27 1.28308260619760528e-01
12 27 1.42053399772741284e-01
13 27 1.55834642158440756e-01
14 27 1.69649303290949932e-01
15 27 1.83494640837207623e-01
16 27 1.97367855557847222e-01
17 27 2.11266092335312627e-01
18 27 2.25186441289973505e-01
19 27 2.39125938984808467e-01
20 27 2.53081569719041666e-01
21 27 2.67050266910954348e-01
22 27 2.81028914569878552e-01
23 27 2.95014348857222275e-01
24 27 3.09003359736133298e-01
25 27 3.22992692709248352e-01
26 27 3.36979050643725464e-01
27 27 3.50959095682567557e-01
28 27 3.64929451241026603e-01
29 27 3.78886704086639936e-01
30 27 3.92827406501248810e-01
31 27 4.06748078523112344e-01
32 27 4.20645210267015124e-01
33 27 4.34515264320023520e-01
34 27 4.48354678210347135e-01
35 27 4.62159866946530218e-01
36 27 4.75927225623956063e-01
37 27 4.89653132095475896e-01
38 27 5.03333949702721606e-01
39 27 5.16966030064479942e-01
40 27 5.30545715918287919e-01
41 27 5.44069344011243738e-01
42 27 5.57533248035794737e-01
43 27 5.70933761606149504e-01
44 27 5.84267221270736159e-01
45 27 5.97529969556006679e-01
46 27 6.10718358036733910e-01
47 27 6.23828750427817713e-01
48 27 6.36857525692463677e-01
49 27 6.49801081161565874e-01
50 27 6.62655835658936154e-01
51 27 6.75418232627020387e-01
52 27 6.88084743247637243e-01
53 27 7.00651869552244899e-01
54 27 7.13116147516190457e-01
55 27 7.25474150131408702e-01
56 27 7.37722490452016766e-01
57 27 7.49857824607247703e-01
58 27 7.61876854776273094e-01
59 27 7.73776332119422872e-01
60 27 7.85553059660439312e-01
61 27 7.97203895114478200e-01
62 27 8.08725753656640345e-01
63 27 8.20115610625979041e-01
64 27 8.31370504160014678e-01
65 27 8.42487537754977756e-01
66 27 8.53463882747132585e-01
67 27 8.64296780710727464e-01
68 27 8.74983545768306281e-01
69 27 8.85521566809329919e-01
70 27 8.95908309613225318e-01
71 27 9.06141318873296631e-01
72 27 9.16218220118070525e-01
73 27 9.26136721526969020e-01
74 27 9.35894615637428373e-01
75 27 9.45489780940854341e-01
76 27 9.54920183365061459e-01
77 27 9.64183877641161868e-01
78 27 9.73279008553067593e-01
79 27 9.82203812068177973e-01
80 27 9.90956616347970831e-01
81 27 9.99535842637629846e-01
82 27 1.00794000603402645e+00
83 27 1.01616771613175150e+00
84 27 1.02421767754710324e+00
85 27 1.03208869032024375e+00
86 27 1.03977965019607321e+00
87 27 1.04728954878453706e+00
88 27 1.05461747360141711e+00
89 27 1.06176260799094879e+00
90 27 1.06872423093175994e+00
91 27 1.07550171672795347e+00
92 27 1.08209453458738158e+00
93 27 1.08850224808934848e+00
94 27 1.09472451454421482e+00
95 27 1.10076108424759811e+00
96 27 1.10661179963202660e+00
97 27 1.11227659431909420e+00
98 27 1.11775549207532876e+00
99 27 1.12304860567518672e+00
100 27 1.12815613567461304e+00
101 27 1.13307836909888970e+00
102 27 1.13781567804846584e+00
103 27 1.14236851822667429e+00
104 27 1.14673742739326778e+00
105 27 1.15092302374778077e+00
106 27 1.15492600424684078e+00
107 27 1.15874714285952196e+00
108 27 1.16238728876494823e+00
109 27 1.16584736449630832e+00
110 27 1.16912836403552256e+00
111 27 1.17223135086271180e+00
112 27 1.17515745596473042e+00
113 27 1.17790787580685952e+00
114 27 1.18048387027184631e+00
115 27 1.18288676057034237e+00
116 27 1.18511792712680175e+00
117 27 1.18717880744478022e+00
118 27 1.18907089395556365e+00
119 27 1.19079573185390442e+00
120 27 1.19235491692463924e+00
121 27 1.19375009336378346e+00
122 27 1.19498295159765777e+00
123 27 1.19605522610345272e+00
124 27 1.19696869323457089e+00
125 27 1.19772516905390969e+00
126 27 1.19832650717819544e+00
127 27 1.19877459663627772e+00
128 27 1.19907135974423573e+00
129 27 1.19921875000000000e+00
130 27 1.19921875000000022e+00
1 28 0.00000000000000000e+00
2 28 6.68326143698064895e-03
3 28 2.00792765840517862e-02
4 28 3.35332136806079373e-02
5 28 4.70429234458982631e-02
6 28 6.06061936106924437e-02
7 28 7.42207491305925116e-02
8 28 8.78842524743339432e-02
9 28 1.01594303988953999e-01
10 28 1.15348442343614382e-01
11 28 1.29144145053765480e-01
12 28 1.42978829087221648e-01
13 28 1.56849851553609726e-01
14 28 1.70754510478513116e-01
15 28 1.84690045663508662e-01
16 28 1.98653639633142642e-01
17 28 2.12642418669744621e-01
18 28 2.26653453936813715e-01
19 28 2.40683762691549868e-01
20 28 2.54730309586918169e-01
21 28 2.68790008063468699e-01
22 28 2.82859721830920119e-01
23 28 2.96936266439354002e-01
24 28 3.11016410939626009e-01
25 28 3.25096879632435665e-01
26 28 3.39174353905248138e-01
27 28 3.53245474156069661e-01
28 28 3.67306841802857387e-01
29 28 3.81355021377106640e-01
30 28 3.95386542699953991e-01
31 28 4.09397903138898067e-01
32 28 4.23385569943021789e-01
33 28 4.37345982654355925e-01
34 28 4.51275555592824951e-01
35 28 4.65170680411979953e-01
36 28 4.79027728722483448e-01
37 28 4.92843054780136958e-01
38 28 5.06612998234986955e-01
39 28 5.20333886937864198e-01
40 28 5.34002039800491657e-01
41 28 5.47613769705128206e-01
42 28 5.61165386459480664e-01
43 28 5.74653199792508729e-01
44 28 5.88073522386506453e-01
45 28 6.01422672940736369e-01
46 28 6.14696979261728949e-01
47 28 6.27892781375230191e-01
48 28 6.41006434654629587e-01
49 28 6.54034312960664055e-01
50 28 6.66972811787007402e-01
51 28 6.79818351406349608e-01
52 28 6.92567380011465561e-01
53 28 7.05216376845744786e-01
54 28 7.17761855317598951e-01
55 28 7.30200366093176845e-01
56 28 7.42528500161801941e-01
57 28 7.54742891868532606e-01
58 28 7.66840221908365982e-01
59 28 7.78817220276552757e-01
60 28 7.90670669169627804e-01
61 28 8.02397405831836386e-01
62 28 8.13994325341700020e-01
63 28 8.25458383333640189e-01
64 28 8.36786598649656432e-01
65 28 8.47976055916248028e-01
66 28 8.59023908041902207e-01
67 28 8.69927378630667048e-01
68 28 8.80683764307513606e-01
69 28 8.91290436951410303e-01
70 28 9.01744845832204045e-01
71 28 9.12044519647715379e-01
72 28 9.22187068457602011e-01
73 28 9.32170185510858063e-01
74 28 9.41991648964056627e-01
75 28 9.51649323487700260e-01
76 28 9.61141161758319207e-01
77 28 9.70465205834263878e-01
78 28 9.79619588413348175e-01
79 28 9.88602533970902253e-01
80 28 9.97412359776947866e-01
81 28 1.00604747679162099e+00
82 28 1.01450639043815705e+00
83 28 1.02278770125313101e+00
84 28 1.03089010541385950e+00
85 28 1.03881239514317691e+00
86 28 1.04655345899213859e+00
87 28 1.05411228200137441e+00
88 28 1.06148794574214311e+00
89 28 1.06867962823844698e+00
90 28 1.07568660377170633e+00
91 28 1.08250824256982936e+00
92 28 1.08914401038273922e+00
93 28 1.09559346794660817e+00
94 28 1.10185627033929090e+00
95 28 1.10793216622966706e+00
96 28 1.11382099702376625e+00
97 28 1.11952269591074960e+00
98 28 1.12503728681197579e+00
99 28 1.13036488323658846e+00
100 28 1.13550568704708610e+00
101 28 1.14045998713862207e+00
102 28 1.14522815803575218e+00
103 28 1.14981065841056140e+00
104 28 1.15420802952612300e+00
105 28 1.15842089360932987e+00
106 28 1.16244995215724378e+00
107 28 1.16629598418108249e+00
108 28 1.16995984439208156e+00
109 28 1.17344246133341801e+00
110 28 1.17674483546246389e+00
111 28 1.17986803718755029e+00
112 28 1.18281320486352315e+00
113 28 1.18558154275022676e+00
114 28 1.18817431893811243e+00
115 28 1.19059286324506775e+00
116 28 1.19283856508853980e+00
117 28 1.19491287133692881e+00
118 28 1.19681728414419930e+00
119 28 1.19855335877151936e+00
120 28 1.20012270139971844e+00
121 28 1.20152696693618610e+00
122 28 1.20276785681979215e+00
123 28 1.20384711682725376e+00
124 28 1.20476653488430752e+00
125 28 1.20552793888487986e+00
126 28 1.20613319452137580e+00
127 28 1.20658420312902215e+00
128 28 1.20688289954712991e+00
129 28 1.20703125000000000e+00
130 28 1.20703125000000022e+00
1 29 0.00000000000000000e+00
2 29 6.72651879255981196e-03
3 29 2.02092395392883713e-02
4 29 3.37502571348513511e-02
5 29 4.73474083872956614e-02
6 29 6.09984667084962698e-02
7 29 7.47011423288487797e-02
8 29 8.84530825874364213e-02
9 29 1.02251872299562133e-01
10 29 1.16095034203443609e-01
11 29 1.29980029487770432e-01
12 29 1.43904258401702068e-01
13 29 1.57865060948778724e-01
14 29 1.71859717666076328e-01
15 29 1.85885450489809700e-01
16 29 1.99939423708438091e-01
17 29 2.14018745004176614e-01
18 29 2.28120466583653925e-01
19 29 2.42241586398291298e-01
20 29 2.56379049454794672e-01
21 29 2.70529749215983051e-01
22 29 2.84690529091961686e-01
23 29 2.98858184021485729e-01
24 29 3.13029462143118720e-01
25 29 3.27201066555622977e-01
26 29 3.41369657166770757e-01
27 29 3.55531852629571765e-01
28 29 3.69684232364688170e-01
29 29 3.83823338667573344e-01
30 29 3.97945678898659227e-01
31 29 4.12047727754683790e-01
32 29 4.26125929619028398e-01
33 29 4.40176700988688330e-01
34 29 4.54196432975302766e-01
35 29 4.68181493877429578e-01
36 29 4.82128231821010889e-01
37 29 4.96032977464798019e-01
38 29 5.09892046767252305e-01
39 29 5.23701743811248455e-01
40 29 5.37458363682695395e-01
41 29 5.51158195399012563e-01
42 29 5.64797524883166591e-01
43 29 5.78372637978868065e-01
44 29 5.91879823502276858e-01
45 29 6.05315376325466059e-01
46 29 6.18675600486723987e-01
47 29 6.31956812322642780e-01
48 29 6.45155343616795385e-01
49 29 6.58267544759762235e-01
50 29 6.71289787915078651e-01
51 29 6.84218470185678718e-01
52 29 6.97050016775293879e-01
53 29 7.09780884139244783e-01
54 29 7.22407563119007334e-01
55 29 7.34926582054944877e-01
56 29 7.47334509871587005e-01
57 29 7.59627959129817620e-01
58 29 7.71803589040458982e-01
59 29 7.83858108433682532e-01
60 29 7.95788278678816297e-01
61 29 8.07590916549194571e-01
62 29 8.19262897026759584e-01
63 29 8.30801156041301225e-01
64 29 8.42202693139298186e-01
65 29 8.53464574077518412e-01
66 29 8.64583933336671939e-01
67 29 8.75557976550606742e-01
68 29 8.86383982846720930e-01
69 29 8.97059307093490466e-01
70 29 9.07581382051182772e-01
71 29 9.17947720422134350e-01
72 29 9.28155916797133496e-01
73 29 9.38203649494747105e-01
74 29 9.48088682290684770e-01
75 29 9.57808866034546180e-01
76 29 9.67362140151576955e-01
77 29 9.76746534027365887e-01
78 29 9.85960168273628645e-01
79 29 9.95001255873626644e-01
80 29 1.00386810320592468e+00
81 29 1.01255911094561224e+00
82 29 1.02107277484228764e+00
83 29 1.02940768637451052e+00
84 29 1.03756253328061598e+00
85 29 1.04553609996611008e+00
86 29 1.05332726778820440e+00
87 29 1.06093501521821176e+00
88 29 1.06835841788286912e+00
89 29 1.07559664848594516e+00
90 29 1.08264897661165249e+00
91 29 1.08951476841170525e+00
92 29 1.09619348617809664e+00
93 29 1.10268468780386764e+00
94 29 1.10898802613436720e+00
95 29 1.11510324821173601e+00
96 29 1.12103019441550567e+00
97 29 1.12676879750240500e+00
98 29 1.13231908154862304e+00
99 29 1.13768116079799042e+00
100 29 1.14285523841955916e+00
101 29 1.14784160517835421e+00
102 29 1.15264063802303851e+00
103 29 1.15725279859444874e+00
104 29 1.16167863165897822e+00
105 29 1.16591876347087875e+00
106 29 1.16997390006764657e+00
107 29 1.17384482550264302e+00
108 29 1.17753240001921489e+00
109 29 1.18103755817052747e+00
110 29 1.18436130688940544e+00
111 29 1.18750472351238878e+00
112 29 1.19046895376231610e+00
113 29 1.19325520969359400e+00
114 29 1.19586476760437832e+00
115 29 1.19829896591979290e+00
116 29 1.20055920305027808e+00
117 29 1.20264693522907740e+00
118 29 1.20456367433283495e+00
119 29 1.20631098568913453e+00
120 29 1.20789048587479741e+00
121 29 1.20930384050858852e+00
122 29 1.21055276204192674e+00
123 29 1.21163900755105480e+00
124 29 1.21256437653404414e+00
125 29 1.21333070871584980e+00
126 29 1.21393988186455637e+00
127 29 1.21439380962176657e+00
128 29 1.21469443935002408e+00
129 29 1.21484375000000000e+00
130 29 1.21484375000000022e+00
1 30 0.00000000000000000e+00
2 30 6.76977614813897496e-03
3 30 2.03392024945249564e-02
4 30 3.39673005890947649e-02
5 30 4.76518933286930665e-02
6 30 6.13907398063001097e-02
7 30 7.51815355271050340e-02
8 30 8.90219127005388994e-02
9 30 1.02909440610170239e-01
10 30 1.16841626063272822e-01
11 30 1.30815913921775412e-01
12 30 1.44829687716182487e-01
13 30 1.58880270343947722e-01
14 30 1.72964924853639512e-01
15 30 1.87080855316110711e-01
16 30 2.01225207783733540e-01
17 30 2.15395071338608607e-01
18 30 2.29587479230494107e-01
19 30 2.43799410105032699e-01
20 30 2.58027789322671175e-01
21 30 2.72269490368497347e-01
22 30 2.86521336353003253e-01
23 30 3.00780101603617456e-01
24 30 3.15042513346611430e-01
25 30 3.29305253478810289e-01
26 30 3.43564960428293376e-01
27 30 3.57818231103073814e-01
28 30 3.72061622926519009e-01
29 30 3.86291655958040048e-01
30 30 4.00504815097364408e-01
31 30 4.14697552370469569e-01
32 30 4.28866289295035064e-01
33 30 4.43007419323020735e-01
34 30 4.57117310357780582e-01
35 30 4.71192307342879313e-01
36 30 4.85228734919538329e-01
37 30 4.99222900149459081e-01
38 30 5.13171095299517543e-01
39 30 5.27069600684632711e-01
40 30 5.40914687564899244e-01
41 30 5.54702621092896919e-01
42 30 5.68429663306852628e-01
43 30 5.82092076165227401e-01
44 30 5.95686124618047153e-01
45 30 6.09208079710195749e-01
46 30 6.22654221711718914e-01
47 30 6.36020843270055147e-01
48 30 6.49304252578961294e-01
49 30 6.62500776558860416e-01
50 30 6.75606764043149899e-01
51 30 6.88618588965007716e-01
52 30 7.01532653539122086e-01
53 30 7.14345391432744670e-01
54 30 7.27053270920415717e-01
55 30 7.39652798016712909e-01
56 30 7.52140519581372180e-01
57 30 7.64513026391102635e-01
58 30 7.76766956172551759e-01
59 30 7.88898996590812307e-01
60 30 8.00905888188004900e-01
61 30 8.12784427266552756e-01
62 30 8.24531468711819260e-01
63 30 8.36143928748962262e-01
64 30 8.47618787628939940e-01
65 30 8.58953092238788574e-01
66 30 8.70143958631441561e-01
67 30 8.81188574470546437e-01
68 30 8.92084201385928144e-01
69 30 9.02828177235570628e-01
70 30 9.13417918270161389e-01
71 30 9.23850921196553321e-01
72 30 9.34124765136664870e-01
73 30 9.44237113478636148e-01
74 30 9.54185715617312802e-01
75 30 9.63968408581392211e-01
76 30 9.73583118544834591e-01
77 30 9.83027862220467896e-01
78 30 9.92300748133909227e-01
79 30 1.00139997777635092e+00
80 30 1.01032384663490182e+00
81 30 1.01907074509960327e+00
82 30 1.02763915924641824e+00
83 30 1.03602767149589003e+00
84 30 1.04423496114737224e+00
85 30 1.05225980478904324e+00
86 30 1.06010107658427022e+00
87 30 1.06775774843504911e+00
88 30 1.07522889002359490e+00
89 30 1.08251366873344312e+00
90 30 1.08961134945159888e+00
91 30 1.09652129425358114e+00
92 30 1.10324296197345428e+00
93 30 1.10977590766112710e+00
94 30 1.11611978192944350e+00
95 30 1.12227433019380518e+00
96 30 1.12823939180724531e+00
97 30 1.13401489909406039e+00
98 30 1.13960087628527007e+00
99 30 1.14499743835939238e+00
100 30 1.15020478979203222e+00
101 30 1.15522322321808635e+00
102 30 1.16005311801032485e+00
103 30 1.16469493877833608e+00
104 30 1.16914923379183344e+00
105 30 1.17341663333242785e+00
106 30 1.17749784797804935e+00
107 30 1.18139366682420333e+00
108 30 1.18510495564634821e+00
109 30 1.18863265500763693e+00
110 30 1.19197777831634677e+00
111 30 1.19514140983722705e+00
112 30 1.19812470266110926e+00
113 30 1.20092887663696124e+00
114 30 1.20355521627064466e+00
115 30 1.20600506859451828e+00
116 30 1.20827984101201613e+00
117 30 1.21038099912122599e+00
118 30 1.21231006452147039e+00
119 30 1.21406861260674948e+00
120 30 1.21565827034987661e+00
121 30 1.21708071408099094e+00
122 30 1.21833766726406112e+00
123 30 1.21943089827485562e+00
124 30 1.22036221818378077e+00
125 30 1.22113347854681975e+00
126 30 1.22174656920773694e+00
127 30 1.22220341611451100e+00
128 30 1.22250597915291825e+00
129 30 1.22265625000000022e+00
130 30 1.22265625000000022e+00
1 31 0.00000000000000000e+00
2 31 6.81303350371813797e-03
3 31 2.04691654497615380e-02
4 31 3.41843440433381787e-02
5 31 4.79563782700904648e-02
6 31 6.17830129041039428e-02
7 31 7.56619287253613021e-02
8 31 8.95907428136413775e-02
9 31 1.03567008920778345e-01
10 31 1.17588217923102048e-01
11 31 1.31651798355780364e-01
12 31 1.45755117030662878e-01
13 31 1.59895479739116692e-01
14 31 1.74070132041202696e-01
15 31 1.88276260142411722e-01
16 31 2.02510991859028960e-01
17 31 2.16771397673040600e-01
18 31 2.31054491877334345e-01
19 31 2.45357233811774128e-01
20 31 2.59676529190547678e-01
21 31 2.74009231521011754e-01
22 31 2.88352143614044765e-01
23 31 3.02702019185749183e-01
24 31 3.17055564550104141e-01
25 31 3.31409440401997601e-01
26 31 3.45760263689815994e-01
27 31 3.60104609576575863e-01
28 31 3.74439013488349792e-01
29 31 3.88759973248506696e-01
30 31 4.03063951296069645e-01
31 31 4.17347376986255347e-01
32 31 4.31606648971041673e-01
33 31 4.45838137657353140e-01
34 31 4.60038187740258397e-01
35 31 4.74203120808329048e-01
36 31 4.88329238018065714e-01
37 31 5.02412822834120143e-01
38 31 5.16450143831782782e-01
39 31 5.30437457558016967e-01
40 31 5.44371011447103093e-01
41 31 5.58247046786781276e-01
42 31 5.72061801730538555e-01
43 31 5.85811514351586737e-01
44 31 5.99492425733817447e-01
45 31 6.13100783094925328e-01
46 31 6.26632842936713952e-01
47 31 6.40084874217467625e-01
48 31 6.53453161541127203e-01
49 31 6.66734008357958596e-01
50 31 6.79923740171221258e-01
51 31 6.93018707744336715e-01
52 31 7.06015290302950294e-01
53 31 7.18909898726244778e-01
54 31 7.31698978721824100e-01
55 31 7.44379013978481052e-01
56 31 7.56946529291157355e-01
57 31 7.69398093652387649e-01
58 31 7.81730323304644648e-01
59 31 7.93939884747942082e-01
60 31 8.06023497697193392e-01
61 31 8.17977937983910830e-01
62 31 8.29800040396878713e-01
63 31 8.41486701456623298e-01
64 31 8.53034882118581694e-01
65 31 8.64441610400058735e-01
66 31 8.75703983926211182e-01
67 31 8.86819172390486021e-01
68 31 8.97784419925135357e-01
69 31 9.08597047377650902e-01
70 31 9.19254454489140116e-01
71 31 9.29754121970972180e-01
72 31 9.40093613476196244e-01
73 31 9.50270577462525079e-01
74 31 9.60282748943940945e-01
75 31 9.70127951128238020e-01
76 31 9.79804096938092450e-01
77 31 9.89309190413569906e-01
78 31 9.98641327994189809e-01
79 31 1.00779869967907509e+00
80 31 1.01677959006387875e+00
81 31 1.02558237925359452e+00
82 31 1.03420554365054862e+00
83 31 1.04264765661726955e+00
84 31 1.05090738901412850e+00
85 31 1.05898350961197640e+00
86 31 1.06687488538033581e+00
87 31 1.07458048165188647e+00
88 31 1.08209936216432068e+00
89 31 1.08943068898094131e+00
90 31 1.09657372229154526e+00
91 31 1.10352782009545702e+00
92 31 1.11029243776881170e+00
93 31 1.11686712751838657e+00
94 31 1.12325153772452002e+00
95 31 1.12944541217587413e+00
96 31 1.13544858919898495e+00
97 31 1.14126100068571579e+00
98 31 1.14688267102191732e+00
99 31 1.15231371592079435e+00
100 31 1.15755434116450551e+00
101 31 1.16260484125781849e+00
102 31 1.16746559799761140e+00
103 31 1.17213707896222319e+00
104 31 1.17661983592468844e+00
105 31 1.18091450319397673e+00
106 31 1.18502179588845213e+00
107 31 1.18894250814576363e+00
108 31 1.19267751127348132e+00
109 31 1.19622775184474661e+00
110 31 1.19959424974328810e+00
111 31 1.20277809616206555e+00
112 31 1.20578045155990243e+00
113 31 1.20860254358032826e+00
114 31 1.21124566493691077e+00
115 31 1.21371117126924344e+00
116 31 1.21600047897375418e+00
117 31 1.21811506301337436e+00
118 31 1.22005645471010604e+00
119 31 1.22182623952436464e+00
120 31 1.22342605482495559e+00
121 31 1.22485758765339336e+00
122 31 1.22612257248619572e+00
123 31 1.22722278899865667e+00
124 31 1.22816005983351739e+00
125 31 1.22893624837778992e+00
126 31 1.22955325655091752e+00
127 31 1.23001302260725542e+00
128 31 1.23031751895581221e+00
129 31 1.23046875000000000e+00
130 31 1.23046875000000022e+00
1 32 0.00000000000000000e+00
2 32 6.85629085929730011e-03
3 32 2.05991284049981196e-02
4 32 3.44013874975815995e-02
5 32 4.82608632114878700e-02
6 32 6.21752860019077758e-02
7 32 7.61423219236175564e-02
8 32 9.01595729267438695e-02
9 32 1.04224577231386464e-01
10 32 1.18334809782931275e-01
11 32 1.32487682789785316e-01
12 32 1.46680546345143270e-01
13 32 1.60910689134285689e-01
14 32 1.75175339228765908e-01
15 32 1.89471664968712733e-01
16 32 2.03796775934324353e-01
17 32 2.18147724007472593e-01
18 32 2.32521504524174583e-01
19 32 2.46915057518515557e-01
20 32 2.61325269058424181e-01
21 32 2.75748972673526105e-01
22 32 2.90182950875086332e-01
23 32 3.04623936767880965e-01
24 32 3.19068615753596851e-01
25 32 3.33513627325184858e-01
26 32 3.47955566951338613e-01
27 32 3.62390988050077911e-01
28 32 3.76816404050180631e-01
29 32 3.91228290538973400e-01
30 32 4.05623087494774826e-01
31 32 4.19997201602041070e-01
32 32 4.34347008647048338e-01
33 32 4.48668855991685600e-01
34 32 4.62959065122736213e-01
35 32 4.77213934273778784e-01
36 32 4.91429741116593100e-01
37 32 5.05602745518781149e-01
38 32 5.19729192364048020e-01
39 32 5.33805314431401223e-01
40 32 5.47827335329306941e-01
41 32 5.61791472480665632e-01
42 32 5.75693940154224593e-01
43 32 5.89530952537945963e-01
44 32 6.03298726849587741e-01
45 32 6.16993486479654907e-01
46 32 6.30611464161708990e-01
47 32 6.44148905164880103e-01
48 32 6.57602070503293112e-01
49 32 6.70967240157056666e-01
50 32 6.84240716299292506e-01
51 32 6.97418826523665936e-01
52 32 7.10497927066778390e-01
53 32 7.23474406019744776e-01
54 32 7.36344686523232483e-01
55 32 7.49105229940249306e-01
56 32 7.61752539000942530e-01
57 32 7.74283160913672774e-01
58 32 7.86693690436737647e-01
59 32 7.98980772905071968e-01
60 32 8.11141107206381995e-01
61 32 8.23171448701268904e-01
62 32 8.35068612081938277e-01
63 32 8.46829474164284335e-01
64 32 8.58450976608223448e-01
65 32 8.69930128561329008e-01
66 32 8.81264009220980804e-01
67 32 8.92449770310425605e-01
68 32 9.03484638464342460e-01
69 32 9.14365917519731175e-01
70 32 9.25090990708118843e-01
71 32 9.35657322745391151e-01
72 32 9.46062461815727729e-01
73 32 9.56304041446414232e-01
74 32 9.66379782270569199e-01
75 32 9.76287493675083828e-01
76 32 9.86025075331350309e-01
77 32 9.95590518606671915e-01
78 32 1.00498190785447039e+00
79 32 1.01419742158179949e+00
80 32 1.02323533349285567e+00
81 32 1.03209401340758578e+00
82 32 1.04077192805467900e+00
83 32 1.04926764173864906e+00
84 32 1.05757981688088498e+00
85 32 1.06570721443490957e+00
86 32 1.07364869417640163e+00
87 32 1.08140321486872382e+00
88 32 1.08896983430504646e+00
89 32 1.09634770922843927e+00
90 32 1.10353609513149165e+00
91 32 1.11053434593733313e+00
92 32 1.11734191356416912e+00
93 32 1.12395834737564604e+00
94 32 1.13038329351959610e+00
95 32 1.13661649415794308e+00
96 32 1.14265778659072459e+00
97 32 1.14850710227737118e+00
98 32 1.15416446575856435e+00
99 32 1.15962999348219631e+00
100 32 1.16490389253697857e+00
101 32 1.16998645929755063e+00
102 32 1.17487807798489796e+00
103 32 1.17957921914611030e+00
104 32 1.18409043805754388e+00
105 32 1.18841237305552583e+00
106 32 1.19254574379885514e+00
107 32 1.19649134946732416e+00
108 32 1.20025006690061464e+00
109 32 1.20382284868185629e+00
110 32 1.20721072117022965e+00
111 32 1.21041478248690426e+00
112 32 1.21343620045869560e+00
113 32 1.21627621052369550e+00
114 32 1.21893611360317689e+00
115 32 1.22141727394396882e+00
116 32 1.22372111693549246e+00
117 32 1.22584912690552295e+00
118 32 1.22780284489874170e+00
119 32 1.22958386644197959e+00
120 32 1.23119383930003479e+00
121 32 1.23263446122579601e+00
122 32 1.23390747770833031e+00
123 32 1.23501467972245771e+00
124 32 1.23595790148325402e+00
125 32 1.23673901820876009e+00
126 32 1.23735994389409809e+00
127 32 1.23782262909999985e+00
128 32 1.23812905875870638e+00
129 32 1.23828125000000000e+00
130 32 1.23828125000000022e+00
1 33 0.00000000000000000e+00
2 33 6.89954821487646398e-03
3 33 2.07290913602346978e-02
4 33 3.46184309518250202e-02
5 33 4.85653481528852682e-02
6 33 6.25675590997116088e-02
7 33 7.66227151218738245e-02
8 33 9.07284030398463476e-02
9 33 1.04882145541994570e-01
10 33 1.19081401642760487e-01
11 33 1.33323567223790268e-01
12 33 1.47605975659623662e-01
13 33 1.61925898529454687e-01
14 33 1.76280546416329120e-01
15 33 1.90667069795013772e-01
16 33 2.05082560009619802e-01
17 33 2.19524050341904586e-01
18 33 2.33988517171014793e-01
19 33 2.48472881225256959e-01
20 33 2.62974008926300629e-01
21 33 2.77488713826040512e-01
22 33 2.92013758136127899e-01
23 33 3.06545854350012748e-01
24 33 3.21081666957089562e-01
25 33 3.35617814248372170e-01
26 33 3.50150870212861232e-01
27 33 3.64677366523579960e-01
28 33 3.79193794612011359e-01
29 33 3.93696607829440159e-01
30 33 4.08182223693480006e-01
31 33 4.22647026217826793e-01
32 33 4.37087368323055003e-01
33 33 4.51499574326018061e-01
34 33 4.65879942505213973e-01
35 33 4.80224747739228519e-01
36 33 4.94530244215120540e-01
37 33 5.08792668203442267e-01
38 33 5.23008240896313259e-01
39 33 5.37173171304785479e-01
40 33 5.51283659211510679e-01
41 33 5.65335898174549989e-01
42 33 5.79326078577910630e-01
43 33 5.93250390724305299e-01
44 33 6.07105027965357924e-01
45 33 6.20886189864384597e-01
46 33 6.34590085386704028e-01
47 33 6.48212936112292581e-01
48 33 6.61750979465459022e-01
49 33 6.75200471956154846e-01
50 33 6.88557692427363754e-01
51 33 7.01818945302995156e-01
52 33 7.14980563830606708e-01
53 33 7.28038913313244884e-01
54 33 7.40990394324640977e-01
55 33 7.53831445902017450e-01
56 33 7.66558548710727594e-01
57 33 7.79168228174957900e-01
58 33 7.91657057568830758e-01
59 33 8.04021661062201742e-01
60 33 8.16258716715570598e-01
61 33 8.28364959418627089e-01
62 33 8.40337183766997731e-01
63 33 8.52172246871945260e-01
64 33 8.63867071097865202e-01
65 33 8.75418646722599170e-01
66 33 8.86824034515750426e-01
67 33 8.98080368230365189e-01
68 33 9.09184857003549562e-01
69 33 9.20134787661811560e-01
70 33 9.30927526927097460e-01
71 33 9.41560523519810011e-01
72 33 9.52031310155259103e-01
73 33 9.62337505430303386e-01
74 33 9.72476815597197564e-01
75 33 9.82447036221929748e-01
76 33 9.92246053724607946e-01
77 33 1.00187184679977404e+00
78 33 1.01132248771475108e+00
79 33 1.02059614348452388e+00
80 33 1.02969107692183282e+00
81 33 1.03860564756157681e+00
82 33 1.04733831245880959e+00
83 33 1.05588762686002857e+00
84 33 1.06425224474764124e+00
85 33 1.07243091925784273e+00
86 33 1.08042250297246722e+00
87 33 1.08822594808556117e+00
88 33 1.09584030644577246e+00
89 33 1.10326472947593746e+00
90 33 1.11049846797143803e+00
91 33 1.11754087177920902e+00
92 33 1.12439138935952654e+00
93 33 1.13104956723290551e+00
94 33 1.13751504931467240e+00
95 33 1.14378757614001203e+00
96 33 1.14986698398246445e+00
97 33 1.15575320386902658e+00
98 33 1.16144626049521160e+00
99 33 1.16694627104359827e+00
100 33 1.17225344390945141e+00
101 33 1.17736807733728277e+00
102 33 1.18229055797218452e+00
103 33 1.18702135932999719e+00
104 33 1.19156104019039910e+00
105 33 1.19591024291707493e+00
106 33 1.20006969170925815e+00
107 33 1.20404019078888469e+00
108 33 1.20782262252774775e+00
109 33 1.21141794551896576e+00
110 33 1.21482719259717120e+00
111 33 1.21805146881174275e+00
112 33 1.22109194935748855e+00
113 33 1.22394987746706252e+00
114 33 1.22662656226944300e+00
115 33 1.22912337661869420e+00
116 33 1.23144175489723051e+00
117 33 1.23358319079767131e+00
118 33 1.23554923508737735e+00
119 33 1.23734149335959454e+00
120 33 1.23896162377511376e+00
121 33 1.24041133479819865e+00
122 33 1.24169238293046491e+00
123 33 1.24280657044625853e+00
124 33 1.24375574313299064e+00
125 33 1.24454178803973003e+00
126 33 1.24516663123727844e+00
127 33 1.24563223559274427e+00
128 33 1.24594059856160033e+00
129 33 1.24609375000000000e+00
130 33 1.24609375000000022e+00
1 34 0.00000000000000000e+00
2 34 6.94280557045562612e-03
3 34 2.08590543154712794e-02
4 34 3.48354744060684340e-02
5 34 4.88698330942826734e-02
6 34 6.29598321975154418e-02
7 34 7.71031083201300926e-02
8 34 9.12972331529488396e-02
9 34 1.05539713852602704e-01
10 34 1.19827993502589700e-01
11 34 1.34159451657795220e-01
12 34 1.48531404974104053e-01
13 34 1.62941107924623685e-01
14 34 1.77385753603892332e-01
15 34 1.91862474621314782e-01
16 34 2.06368344084915195e-01
17 34 2.20900376676336579e-01
18 34 2.35455529817854975e-01
19 34 2.50030704931998360e-01
20 34 2.64622748794177132e-01
21 34 2.79228454978554863e-01
22 34 2.93844565397169410e-01
23 34 3.08467771932144530e-01
24 34 3.23094718160582273e-01
25 34 3.37722001171559483e-01
26 34 3.52346173474383850e-01
27 34 3.66963744997082009e-01
28 34 3.81571185173842087e-01
29 34 3.96164925119906863e-01
30 34 4.10741359892185187e-01
31 34 4.25296850833612572e-01
32 34 4.39827727999061613e-01
33 34 4.54330292660350465e-01
34 34 4.68800819887691844e-01
35 34 4.83235561204678199e-01
36 34 4.97630747313647925e-01
37 34 5.11982590888103384e-01
38 34 5.26287289428578609e-01
39 34 5.40541028178169736e-01
40 34 5.54739983093714528e-01
41 34 5.68880323868434346e-01
42 34 5.82958217001596668e-01
43 34 5.96969828910664635e-01
44 34 6.10911329081128218e-01
45 34 6.24778893249114287e-01
46 34 6.38568706611699066e-01
47 34 6.52276967059705060e-01
48 34 6.65899888427625042e-01
49 34 6.79433703755253027e-01
50 34 6.92874668555434892e-01
51 34 7.06219064082324266e-01
52 34 7.19463200594435026e-01
53 34 7.32603420606744882e-01
54 34 7.45636102126049471e-01
55 34 7.58557661863785593e-01
56 34 7.71364558420512769e-01
57 34 7.84053295436242803e-01
58 34 7.96620424700923757e-01
59 34 8.09062549219331517e-01
60 34 8.21376326224759201e-01
61 34 8.33558470135985163e-01
62 34 8.45605755452057295e-01
63 34 8.57515019579606297e-01
64 34 8.69283165587506956e-01
65 34 8.80907164883869331e-01
66 34 8.92384059810520047e-01
67 34 9.03710966150304773e-01
68 34 9.14885075542756776e-01
69 34 9.25903657803891833e-01
70 34 9.36764063146076187e-01
71 34 9.47463724294228982e-01
72 34 9.58000158494790588e-01
73 34 9.68370969414192317e-01
74 34 9.78573848923825707e-01
75 34 9.88606578768775668e-01
76 34 9.98467032117865694e-01
77 34 1.00815317499287604e+00
78 34 1.01766306757503155e+00
79 34 1.02699486538724827e+00
80 34 1.03614682035080996e+00
81 34 1.04511728171556784e+00
82 34 1.05390469686293997e+00
83 34 1.06250761198140808e+00
84 34 1.07092467261439772e+00
85 34 1.07915462408077611e+00
86 34 1.08719631176853304e+00
87 34 1.09504868130239852e+00
88 34 1.10271077858649846e+00
89 34 1.11018174972343564e+00
90 34 1.11746084081138441e+00
91 34 1.12454739762108491e+00
92 34 1.13144086515488396e+00
93 34 1.13814078709016520e+00
94 34 1.14464680510974870e+00
95 34 1.15095865812208098e+00
96 34 1.15707618137420409e+00
97 34 1.16299930546068220e+00
98 34 1.16872805523185863e+00
99 34 1.17426254860500023e+00
100 34 1.17960299528192447e+00
101 34 1.18474969537701513e+00
102 34 1.18970303795947108e+00
103 34 1.19446349951388453e+00
104 34 1.19903164232325410e+00
105 34 1.20340811277862403e+00
106 34 1.20759363961966115e+00
107 34 1.21158903211044500e+00
108 34 1.21539517815488085e+00
109 34 1.21901304235607522e+00
110 34 1.22244366402411253e+00
111 34 1.22568815513658147e+00
112 34 1.22874769825628150e+00
113 34 1.23162354441042954e+00
114 34 1.23431701093570889e+00
115 34 1.23682947929341980e+00
116 34 1.23916239285896879e+00
117 34 1.24131725468981968e+00
118 34 1.24329562527601301e+00
119 34 1.24509912027720970e+00
120 34 1.24672940825019274e+00
121 34 1.24818820837060107e+00
122 34 1.24947728815259951e+00
123 34 1.25059846117005957e+00
124 34 1.25155358478272749e+00
125 34 1.25234455787070020e+00
126 34 1.25297331858045879e+00
127 34 1.25344184208548848e+00
128 34 1.25375213836449451e+00
129 34 1.25390625000000022e+00
130 34 1.25390625000000022e+00
1 35 0.00000000000000000e+00
2 35 6.98606292603478826e-03
3 35 2.09890172707078611e-02
4 35 3.50525178603118479e-02
5 35 4.91743180356800855e-02
6 35 6.33521052953192748e-02
7 35 7.75835015183863608e-02
8 35 9.18660632660513177e-02
9 35 1.06197282163210824e-01
10 35 1.20574585362418940e-01
11 35 1.34995336091800172e-01
12 35 1.49456834288584445e-01
13 35 1.63956317319792683e-01
14 35 1.78490960791455516e-01
15 35 1.93057879447615821e-01
16 35 2.07654128160210616e-01
17 35 2.22276703010768573e-01
18 35 2.36922542464695185e-01
19 35 2.51588528638739817e-01
20 35 2.66271488662053579e-01
21 35 2.80968196131069214e-01
22 35 2.95675372658210978e-01
23 35 3.10389689514276257e-01
24 35 3.25107769364074983e-01
25 35 3.39826188094746739e-01
26 35 3.54541476735906469e-01
27 35 3.69250123470584057e-01
28 35 3.83948575735672870e-01
29 35 3.98633242410373623e-01
30 35 4.13300496090890368e-01
31 35 4.27946675449398350e-01
32 35 4.42568087675068278e-01
33 35 4.57161010994682870e-01
34 35 4.71721697270169660e-01
35 35 4.86246374670127879e-01
36 35 5.00731250412175255e-01
37 35 5.15172513572764501e-01
38 35 5.29566337960843958e-01
39 35 5.43908885051553992e-01
40 35 5.58196306975918377e-01
41 35 5.72424749562318702e-01
42 35 5.86590355425282595e-01
43 35 6.00689267097023971e-01
44 35 6.14717630196898512e-01
45 35 6.28671596633843976e-01
46 35 6.42547327836694104e-01
47 35 6.56340998007117538e-01
48 35 6.70048797389790951e-01
49 35 6.83666935554351207e-01
50 35 6.97191644683506140e-01
51 35 7.10619182861653376e-01
52 35 7.23945837358263344e-01
53 35 7.37167927900244879e-01
54 35 7.50281809927457966e-01
55 35 7.63283877825553625e-01
56 35 7.76170568130297944e-01
57 35 7.88938362697527817e-01
58 35 8.01583791833016868e-01
59 35 8.14103437376461181e-01
60 35 8.26493935733947915e-01
61 35 8.38751980853343237e-01
62 35 8.50874327137116748e-01
63 35 8.62857792287267333e-01
64 35 8.74699260077148821e-01
65 35 8.86395683045139604e-01
66 35 8.97944085105289669e-01
67 35 9.09341564070244468e-01
68 35 9.20585294081963990e-01
69 35 9.31672527945972107e-01
70 35 9.42600599365054914e-01
71 35 9.53366925068647841e-01
72 35 9.63969006834321962e-01
73 35 9.74404433398081471e-01
74 35 9.84670882250453738e-01
75 35 9.94766121315621699e-01
76 35 1.00468801051112333e+00
77 35 1.01443450318597805e+00
78 35 1.02400364743531225e+00
79 35 1.03339358728997266e+00
80 35 1.04260256377978688e+00
81 35 1.05162891586955887e+00
82 35 1.06047108126707035e+00
83 35 1.06912759710278760e+00
84 35 1.07759710048115420e+00
85 35 1.08587832890370928e+00
86 35 1.09397012056459864e+00
87 35 1.10187141451923587e+00
88 35 1.10958125072722424e+00
89 35 1.11709876997093360e+00
90 35 1.12442321365133080e+00
91 35 1.13155392346296080e+00
92 35 1.13849034095024160e+00
93 35 1.14523200694742489e+00
94 35 1.15177856090482522e+00
95 35 1.15812974010415015e+00
96 35 1.16428537876594396e+00
97 35 1.17024540705233759e+00
98 35 1.17600984996850566e+00
99 35 1.18157882616640220e+00
100 35 1.18695254665439753e+00
101 35 1.19213131341674750e+00
102 35 1.19711551794675741e+00
103 35 1.20190563969777164e+00
104 35 1.20650224445610910e+00
105 35 1.21090598264017313e+00
106 35 1.21511758753006394e+00
107 35 1.21913787343200508e+00
108 35 1.22296773378201395e+00
109 35 1.22660813919318490e+00
110 35 1.23006013545105408e+00
111 35 1.23332484146141996e+00
112 35 1.23640344715507466e+00
113 35 1.23929721135379700e+00
114 35 1.24200745960197501e+00
115 35 1.24453558196814518e+00
116 35 1.24688303082070706e+00
117 35 1.24905131858196805e+00
118 35 1.25104201546464866e+00
119 35 1.25285674719482465e+00
120 35 1.25449719272527149e+00
121 35 1.25596508194300371e+00
122 35 1.25726219337473410e+00
123 35 1.25839035189386061e+00
124 35 1.25935142643246412e+00
125 35 1.26014732770167037e+00
126 35 1.26078000592363937e+00
127 35 1.26125144857823313e+00
128 35 1.26156367816738868e+00
129 35 1.26171875000000000e+00
130 35 1.26171875000000022e+00
1 36 0.00000000000000000e+00
2 36 7.02932028161395127e-03
3 36 2.11189802259444427e-02
4 36 3.52695613145552686e-02
5 36 4.94788029770774837e-02
6 36 6.37443783931231078e-02
7 36 7.80638947166426150e-02
8 36 9.24348933791538097e-02
9 36 1.06854850473818944e-01
10 36 1.21321177222248167e-01
11 36 1.35831220525805152e-01
12 36 1.50382263603064864e-01
13 36 1.64971526714961680e-01
14 36 1.79596167979018673e-01
15 36 1.94253284273916860e-01
16 36 2.08939912235506065e-01
17 36 2.23653029345200594e-01
18 36 2.38389555111535395e-01
19 36 2.53146352345481218e-01
20 36 2.67920228529930082e-01
21 36 2.82707937283583510e-01
22 36 2.97506179919252545e-01
23 36 3.12311607096407984e-01
24 36 3.27120820567567749e-01
25 36 3.41930375017934052e-01
26 36 3.56736779997429143e-01
27 36 3.71536501944086162e-01
28 36 3.86325966297503653e-01
29 36 4.01101559700840327e-01
30 36 4.15859632289595604e-01
31 36 4.30596500065184074e-01
32 36 4.45308447351074888e-01
33 36 4.59991729329015331e-01
34 36 4.74642574652647586e-01
35 36 4.89257188135577614e-01
36 36 5.03831753510702640e-01
37 36 5.18362436257425618e-01
38 36 5.32845386493109197e-01
39 36 5.47276741924938248e-01
40 36 5.61652630858122226e-01
41 36 5.75969175256203059e-01
42 36 5.90222493848968521e-01
43 36 6.04408705283383196e-01
44 36 6.18523931312668807e-01
45 36 6.32564300018573777e-01
46 36 6.46525949061689142e-01
47 36 6.60405028954530016e-01
48 36 6.74197706351956860e-01
49 36 6.87900167353449277e-01
50 36 7.01508620811577388e-01
51 36 7.15019301640982485e-01
52 36 7.28428474122091552e-01
53 36 7.41732435193744766e-01
54 36 7.54927517728866349e-01
55 36 7.68010093787321657e-01
56 36 7.80976577840083119e-01
57 36 7.93823429958812832e-01
58 36 8.06547158965109756e-01
59 36 8.19144325533590845e-01
60 36 8.31611545243136518e-01
61 36 8.43945491570701423e-01
62 36 8.56142898822176202e-01
63 36 8.68200564994928481e-01
64 36 8.80115354566790464e-01
65 36 8.91884201206409877e-01
66 36 9.03504110400059179e-01
67 36 9.14972161990184163e-01
68 36 9.26285512621171203e-01
69 36 9.37441398088052380e-01
70 36 9.48437135584033641e-01
71 36 9.59270125843066701e-01
72 36 9.69937855173853447e-01
73 36 9.80437897381970402e-01
74 36 9.90767915577081881e-01
75 36 1.00092566386246773e+00
76 36 1.01090898890438097e+00
77 36 1.02071583137908006e+00
78 36 1.03034422729559272e+00
79 36 1.03979230919269705e+00
80 36 1.04905830720876381e+00
81 36 1.05814055002354990e+00
82 36 1.06703746567120072e+00
83 36 1.07574758222416711e+00
84 36 1.08426952834791068e+00
85 36 1.09260203372664244e+00
86 36 1.10074392936066445e+00
87 36 1.10869414773607322e+00
88 36 1.11645172286795002e+00
89 36 1.12401579021843179e+00
90 36 1.13138558649127718e+00
91 36 1.13856044930483669e+00
92 36 1.14553981674559902e+00
93 36 1.15232322680468435e+00
94 36 1.15891031669990152e+00
95 36 1.16530082208621910e+00
96 36 1.17149457615768382e+00
97 36 1.17749150864399299e+00
98 36 1.18329164470515269e+00
99 36 1.18889510372780416e+00
100 36 1.19430209802687082e+00
101 36 1.19951293145647941e+00
102 36 1.20452799793404397e+00
103 36 1.20934777988165876e+00
104 36 1.21397284658896432e+00
105 36 1.21840385250172223e+00
106 36 1.22264153544046694e+00
107 36 1.22668671475356561e+00
108 36 1.23054028940914750e+00
109 36 1.23420323603029458e+00
110 36 1.23767660687799541e+00
111 36 1.24096152778625846e+00
112 36 1.24405919605386783e+00
113 36 1.24697087829716424e+00
114 36 1.24969790826824112e+00
115 36 1.25224168464287056e+00
116 36 1.25460366878244534e+00
117 36 1.25678538247411664e+00
118 36 1.25878840565328431e+00
119 36 1.26061437411243960e+00
120 36 1.26226497720035069e+00
121 36 1.26374195551540613e+00
122 36 1.26504709859686870e+00
123 36 1.26618224261766166e+00
124 36 1.26714926808220074e+00
125 36 1.26795009753264032e+00
126 36 1.26858669326681972e+00
127 36 1.26906105507097777e+00
128 36 1.26937521797028285e+00
129 36 1.26953125000000000e+00
130 36 1.26953125000000022e+00
1 37 0.00000000000000000e+00
2 37 7.07257763719311341e-03
3 37 2.12489431811810209e-02
4 37 3.54866047687986824e-02
5 37 4.97832879184748819e-02
6 37 6.41366514909269408e-02
7 37 7.85442879148988693e-02
8 37 9.30037234922563016e-02
9 37 1.07512418784427050e-01
10 37 1.22067769082077393e-01
11 37 1.36667104959810104e-01
12 37 1.51307692917545283e-01
13 37 1.65986736110130678e-01
14 37 1.80701375166581857e-01
15 37 1.95448689100217898e-01
16 37 2.10225696310801458e-01
17 37 2.25029355679632587e-01
18 37 2.39856567758375605e-01
19 37 2.54704176052222675e-01
20 37 2.69568968397806585e-01
21 37 2.84447678436097862e-01
22 37 2.99336987180294112e-01
23 37 3.14233524678539711e-01
24 37 3.29133871771060516e-01
25 37 3.44034561941121364e-01
26 37 3.58932083258951762e-01
27 37 3.73822880417588266e-01
28 37 3.88703356859334437e-01
29 37 4.03569876991307031e-01
30 37 4.18418768488300785e-01
31 37 4.33246324680969908e-01
32 37 4.48048807027081497e-01
33 37 4.62822447663347736e-01
34 37 4.77563452035125457e-01
35 37 4.92268001601027350e-01
36 37 5.06932256609230025e-01
37 37 5.21552358942086736e-01
38 37 5.36124435025374435e-01
39 37 5.50644598798322393e-01
40 37 5.65108954740325964e-01
41 37 5.79513600950087415e-01
42 37 5.93854632272654559e-01
43 37 6.08128143469742422e-01
44 37 6.22330232428438990e-01
45 37 6.36457003403303467e-01
46 37 6.50504570286684181e-01
47 37 6.64469059901942605e-01
48 37 6.78346615314122880e-01
49 37 6.92133399152547457e-01
50 37 7.05825596939648747e-01
51 37 7.19419420420311595e-01
52 37 7.32911110885919870e-01
53 37 7.46296942487244763e-01
54 37 7.59573225530274732e-01
55 37 7.72736309749089800e-01
56 37 7.85782587549868183e-01
57 37 7.98708497220097735e-01
58 37 8.11510526097202756e-01
59 37 8.24185213690720730e-01
60 37 8.36729154752325011e-01
61 37 8.49139002288059608e-01
62 37 8.61411470507235766e-01
63 37 8.73543337702589628e-01
64 37 8.85531449056432218e-01
65 37 8.97372719367680038e-01
66 37 9.09064135694828690e-01
67 37 9.20602759910123747e-01
68 37 9.31985731160378528e-01
69 37 9.43210268230132765e-01
70 37 9.54273671803012258e-01
71 37 9.65173326617485450e-01
72 37 9.75906703513384821e-01
73 37 9.86471361365859445e-01
74 37 9.96864948903710135e-01
75 37 1.00708520640931365e+00
76 37 1.01712996729763883e+00
77 37 1.02699715957218207e+00
78 37 1.03668480715587319e+00
79 37 1.04619103109542144e+00
80 37 1.05551405063774095e+00
81 37 1.06465218417754093e+00
82 37 1.07360385007533110e+00
83 37 1.08236756734554662e+00
84 37 1.09094195621466694e+00
85 37 1.09932573854957560e+00
86 37 1.10751773815673005e+00
87 37 1.11551688095291057e+00
88 37 1.12332219500867581e+00
89 37 1.13093281046592975e+00
90 37 1.13834795933122357e+00
91 37 1.14556697514671235e+00
92 37 1.15258929254095666e+00
93 37 1.15941444666194404e+00
94 37 1.16604207249497782e+00
95 37 1.17247190406828827e+00
96 37 1.17870377354942346e+00
97 37 1.18473761023564839e+00
98 37 1.19057343944179994e+00
99 37 1.19621138128920612e+00
100 37 1.20165164939934388e+00
101 37 1.20689454949621155e+00
102 37 1.21194047792133053e+00
103 37 1.21678992006554587e+00
104 37 1.22144344872181954e+00
105 37 1.22590172236327111e+00
106 37 1.23016548335086995e+00
107 37 1.23423555607512614e+00
108 37 1.23811284503628083e+00
109 37 1.24179833286740426e+00
110 37 1.24529307830493696e+00
111 37 1.24859821411109695e+00
112 37 1.25171494495266078e+00
113 37 1.25464454524053126e+00
114 37 1.25738835693450701e+00
115 37 1.25994778731759594e+00
116 37 1.26232430674418361e+00
117 37 1.26451944636626479e+00
118 37 1.26653479584191975e+00
119 37 1.26837200103005454e+00
120 37 1.27003276167542944e+00
121 37 1.27151882908780856e+00
122 37 1.27283200381900330e+00
123 37 1.27397413334146248e+00
124 37 1.27494710973193737e+00
125 37 1.27575286736361027e+00
126 37 1.27639338061000007e+00
127 37 1.27687066156372242e+00
128 37 1.27718675777317703e+00
129 37 1.27734374999999978e+00
130 37 1.27734375000000022e+00
1 38 0.00000000000000000e+00
2 38 7.11583499277227641e-03
3 38 2.13789061364176025e-02
4 38 3.57036482230420962e-02
5 38 5.00877728598722802e-02
6 38 6.45289245887307739e-02
7 38 7.90246811131551374e-02
8 38 9.35725536053587797e-02
9 38 1.08169987095035169e-01
10 38 1.22814360941906620e-01
11 38 1.37502989393815056e-01
12 38 1.52233122232025675e-01
13 38 1.67001945505299676e-01
14 38 1.81806582354145041e-01
15 38 1.96644093926518909e-01
16 38 2.11511480386096906e-01
17 38 2.26405682014064580e-01
18 38 2.41323580405215815e-01
19 38 2.56261999758964132e-01
20 38 2.71217708265683088e-01
21 38 2.86187419588612213e-01
22 38 3.01167794441335679e-01
23 38 3.16155442260671438e-01
24 38 3.31146922974553282e-01
25 38 3.46138748864308676e-01
26 38 3.61127386520474436e-01
27 38 3.76109258891090315e-01
28 38 3.91080747421165276e-01
29 38 4.06038194281773790e-01
30 38 4.20977904687006022e-01
31 38 4.35896149296755631e-01
32 38 4.50789166703088107e-01
33 38 4.65653165997680141e-01
34 38 4.80484329417603329e-01
35 38 4.95278815066477140e-01
36 38 5.10032759707757410e-01
37 38 5.24742281626747742e-01
38 38 5.39403483557639785e-01
39 38 5.54012455671706650e-01
40 38 5.68565278622529702e-01
41 38 5.83058026643971772e-01
42 38 5.97486770696340597e-01
43 38 6.11847581656101647e-01
44 38 6.26136533544209284e-01
45 38 6.40349706788033157e-01
46 38 6.54483191511679219e-01
47 38 6.68533090849355083e-01
48 38 6.82495524276288790e-01
49 38 6.96366630951645638e-01
50 38 7.10142573067719995e-01
51 38 7.23819539199640705e-01
52 38 7.37393747649748077e-01
53 38 7.50861449780744761e-01
54 38 7.64218933331683115e-01
55 38 7.77462525710857832e-01
56 38 7.90588597259653247e-01
57 38 8.03593564481382860e-01
58 38 8.16473893229295755e-01
59 38 8.29226101847850505e-01
60 38 8.41846764261513614e-01
61 38 8.54332513005417682e-01
62 38 8.66680042192295219e-01
63 38 8.78886110410250776e-01
64 38 8.90947543546074083e-01
65 38 9.02861237528950089e-01
66 38 9.14624160989598312e-01
67 38 9.26233357830063442e-01
68 38 9.37685949699585852e-01
69 38 9.48979138372213038e-01
70 38 9.60110208021990985e-01
71 38 9.71076527391904309e-01
72 38 9.81875551852916306e-01
73 38 9.92504825349748487e-01
74 38 1.00296198223033839e+00
75 38 1.01324474895615957e+00
76 38 1.02335094569089646e+00
77 38 1.03327848776528430e+00
78 38 1.04302538701615388e+00
79 38 1.05258975299814561e+00
80 38 1.06196979406671788e+00
81 38 1.07116381833153196e+00
82 38 1.08017023447946148e+00
83 38 1.08898755246692613e+00
84 38 1.09761438408142320e+00
85 38 1.10604944337250877e+00
86 38 1.11429154695279564e+00
87 38 1.12233961416974792e+00
88 38 1.13019266714940136e+00
89 38 1.13784983071342793e+00
90 38 1.14531033217116973e+00
91 38 1.15257350098858824e+00
92 38 1.15963876833631430e+00
93 38 1.16650566651920373e+00
94 38 1.17317382829005412e+00
95 38 1.17964298605035744e+00
96 38 1.18591297094116288e+00
97 38 1.19198371182730400e+00
98 38 1.19785523417844697e+00
99 38 1.20352765885060786e+00
100 38 1.20900120077181672e+00
101 38 1.21427616753594370e+00
102 38 1.21935295790861686e+00
103 38 1.22423206024943299e+00
104 38 1.22891405085467476e+00
105 38 1.23339959222481999e+00
106 38 1.23768943126127295e+00
107 38 1.24178439739668645e+00
108 38 1.24568540066341416e+00
109 38 1.24939342970451372e+00
110 38 1.25290954973187851e+00
111 38 1.25623490043593522e+00
112 38 1.25937069385145373e+00
113 38 1.26231821218389828e+00
114 38 1.26507880560077313e+00
115 38 1.26765388999232131e+00
116 38 1.27004494470592166e+00
117 38 1.27225351025841316e+00
118 38 1.27428118603055562e+00
119 38 1.27612962794766971e+00
120 38 1.27780054615050842e+00
121 38 1.27929570266021120e+00
122 38 1.28061690904113790e+00
123 38 1.28176602406526352e+00
124 38 1.28274495138167377e+00
125 38 1.28355563719458043e+00
126 38 1.28420006795318042e+00
127 38 1.28468026805646685e+00
128 38 1.28499829757607120e+00
129 38 1.28515624999999978e+00
130 38 1.28515625000000022e+00
1 39 0.00000000000000000e+00
2 39 7.15909234835143942e-03
3 39 2.15088690916541841e-02
4 39 3.59206916772855100e-02
5 39 5.03922578012696784e-02
6 39 6.49211976865346069e-02
7 39 7.95050743114113917e-02
8 39 9.41413837184612717e-02
9 39 1.08827555405643289e-01
10 39 1.23560952801735846e-01
11 39 1.38338873827820008e-01
12 39 1.53158551546506094e-01
13 39 1.68017154900468674e-01
14 39 1.82911789541708197e-01
15 39 1.97839498752819948e-01
16 39 2.12797264461392299e-01
17 39 2.27782008348496573e-01
18 39 2.42790593052056053e-01
19 39 2.57819823465705589e-01
20 39 2.72866448133559591e-01
21 39 2.87927160741126509e-01
22 39 3.02998601702377246e-01
23 39 3.18077359842803220e-01
24 39 3.33159974178045992e-01
25 39 3.48242935787495933e-01
26 39 3.63322689781997055e-01
27 39 3.78395637364592419e-01
28 39 3.93458137982996059e-01
29 39 4.08506511572240494e-01
30 39 4.23537040885711258e-01
31 39 4.38545973912541354e-01
32 39 4.53529526379094716e-01
33 39 4.68483884332012546e-01
34 39 4.83405206800081200e-01
35 39 4.98289628531926876e-01
36 39 5.13133262806284907e-01
37 39 5.27932204311408859e-01
38 39 5.42682532089905023e-01
39 39 5.57380312545090906e-01
40 39 5.72021602504733551e-01
41 39 5.86602452337856128e-01
42 39 6.01118909120026523e-01
43 39 6.15567019842460983e-01
44 39 6.29942834659979467e-01
45 39 6.44242410172762736e-01
46 39 6.58461812736674257e-01
47 39 6.72597121796767561e-01
48 39 6.86644433238454699e-01
49 39 7.00599862750743818e-01
50 39 7.14459549195791355e-01
51 39 7.28219657978969814e-01
52 39 7.41876384413576284e-01
53 39 7.55425957074244758e-01
54 39 7.68864641133091387e-01
55 39 7.82188741672625976e-01
56 39 7.95394606969438422e-01
57 39 8.08478631742667875e-01
58 39 8.21437260361388866e-01
59 39 8.34266990004980391e-01
60 39 8.46964373770702106e-01
61 39 8.59526023722775756e-01
62 39 8.71948613877354783e-01
63 39 8.84228883117911812e-01
64 39 8.96363638035715837e-01
65 39 9.08349755690220251e-01
66 39 9.20184186284367822e-01
67 39 9.31863955750002915e-01
68 39 9.43386168238793066e-01
69 39 9.54748008514293311e-01
70 39 9.65946744240969712e-01
71 39 9.76979728166323280e-01
72 39 9.87844400192447791e-01
73 39 9.98538289333637530e-01
74 39 1.00905901555696653e+00
75 39 1.01940429150300527e+00
76 39 1.02957192408415410e+00
77 39 1.03955981595838631e+00
78 39 1.04936596687643435e+00
79 39 1.05898847490086978e+00
80 39 1.06842553749569502e+00
81 39 1.07767545248552299e+00
82 39 1.08673661888359185e+00
83 39 1.09560753758830565e+00
84 39 1.10428681194817968e+00
85 39 1.11277314819544193e+00
86 39 1.12106535574886124e+00
87 39 1.12916234738658527e+00
88 39 1.13706313929012715e+00
89 39 1.14476685096092590e+00
90 39 1.15227270501111589e+00
91 39 1.15958002683046413e+00
92 39 1.16668824413167194e+00
93 39 1.17359688637646320e+00
94 39 1.18030558408513020e+00
95 39 1.18681406803242639e+00
96 39 1.19312216833290252e+00
97 39 1.19922981341895940e+00
98 39 1.20513702891509400e+00
99 39 1.21084393641200960e+00
100 39 1.21635075214428978e+00
101 39 1.22165778557567584e+00
102 39 1.22676543789590342e+00
103 39 1.23167420043332010e+00
104 39 1.23638465298752998e+00
105 39 1.24089746208636886e+00
106 39 1.24521337917167596e+00
107 39 1.24933323871824675e+00
108 39 1.25325795629054726e+00
109 39 1.25698852654162341e+00
110 39 1.26052602115882006e+00
111 39 1.26387158676077371e+00
112 39 1.26702644275024667e+00
113 39 1.26999187912726552e+00
114 39 1.27276925426703902e+00
115 39 1.27535999266704669e+00
116 39 1.27776558266765972e+00
117 39 1.27998757415056152e+00
118 39 1.28202757621919128e+00
119 39 1.28388725486528488e+00
120 39 1.28556833062558762e+00
121 39 1.28707257623261384e+00
122 39 1.28840181426327249e+00
123 39 1.28955791478906456e+00
124 39 1.29054279303141040e+00
125 39 1.29135840702555060e+00
126 39 1.29200675529636100e+00
127 39 1.29248987454921127e+00
128 39 1.29280983737896538e+00
129 39 1.29296874999999978e+00
130 39 1.29296875000000000e+00
1 40 0.00000000000000000e+00
2 40 7.20234970393060243e-03
3 40 2.16388320468907658e-02
4 40 3.61377351315289239e-02
5 40 5.06967427426670766e-02
6 40 6.53134707843384399e-02
7 40 7.99854675096676598e-02
8 40 9.47102138315637637e-02
9 40 1.09485123716251409e-01
10 40 1.24307544661565059e-01
11 40 1.39174758261824960e-01
12 40 1.54083980860986514e-01
13 40 1.69032364295637672e-01
14 40 1.84016996729271382e-01
15 40 1.99034903579120959e-01
16 40 2.14083048536687692e-01
17 40 2.29158334682928538e-01
18 40 2.44257605698896263e-01
19 40 2.59377647172446990e-01
20 40 2.74515188001436039e-01
21 40 2.89666901893640805e-01
22 40 3.04829408963418758e-01
23 40 3.19999277424934947e-01
24 40 3.35173025381538703e-01
25 40 3.50347122710683245e-01
26 40 3.65517993043519673e-01
27 40 3.80682015838094467e-01
28 40 3.95835528544826842e-01
29 40 4.10974828862707142e-01
30 40 4.26096177084416494e-01
31 40 4.41195798528327132e-01
32 40 4.56269886055101381e-01
33 40 4.71314602666345006e-01
34 40 4.86326084182558960e-01
35 40 5.01300441997376667e-01
36 40 5.16233765904812292e-01
37 40 5.31122126996069865e-01
38 40 5.45961580622170262e-01
39 40 5.60748169418475162e-01
40 40 5.75477926386937400e-01
41 40 5.90146878031740485e-01
42 40 6.04751047543712561e-01
43 40 6.19286458028820208e-01
44 40 6.33749135775749761e-01
45 40 6.48135113557492426e-01
46 40 6.62440433961669184e-01
47 40 6.76661152744180039e-01
48 40 6.90793342200620608e-01
49 40 7.04833094549841888e-01
50 40 7.18776525323862603e-01
51 40 7.32619776758298924e-01
52 40 7.46359021177404491e-01
53 40 7.59990464367744867e-01
54 40 7.73510348934499881e-01
55 40 7.86914957634394119e-01
56 40 8.00200616679223486e-01
57 40 8.13363699003952889e-01
58 40 8.26400627493481754e-01
59 40 8.39307878162110277e-01
60 40 8.52081983279890709e-01
61 40 8.64719534440133941e-01
62 40 8.77217185562414348e-01
63 40 8.89571655825572960e-01
64 40 9.01779732525357591e-01
65 40 9.13838273851490412e-01
66 40 9.25744211579137333e-01
67 40 9.37494553669942388e-01
68 40 9.49086386778000279e-01
69 40 9.60516878656373585e-01
70 40 9.71783280459948329e-01
71 40 9.82882928940742251e-01
72 40 9.93813248531979276e-01
73 40 1.00457175331752646e+00
74 40 1.01515604888359467e+00
75 40 1.02556383404985119e+00
76 40 1.03579290247741174e+00
77 40 1.04584114415148832e+00
78 40 1.05570654673671482e+00
79 40 1.06538719680359417e+00
80 40 1.07488128092467194e+00
81 40 1.08418708663951402e+00
82 40 1.09330300328772223e+00
83 40 1.10222752270968516e+00
84 40 1.11095923981493594e+00
85 40 1.11949685301837509e+00
86 40 1.12783916454492683e+00
87 40 1.13598508060342263e+00
88 40 1.14393361143085315e+00
89 40 1.15168387120842386e+00
90 40 1.15923507785106206e+00
91 40 1.16658655267234002e+00
92 40 1.17373771992702935e+00
93 40 1.18068810623372289e+00
94 40 1.18743733988020650e+00
95 40 1.19398515001449534e+00
96 40 1.20033136572464216e+00
97 40 1.20647591501061480e+00
98 40 1.21241882365174103e+00
99 40 1.21816021397341157e+00
100 40 1.22370030351676284e+00
101 40 1.22903940361540820e+00
102 40 1.23417791788318976e+00
103 40 1.23911634061720721e+00
104 40 1.24385525512038519e+00
105 40 1.24839533194791796e+00
106 40 1.25273732708207897e+00
107 40 1.25688208003980728e+00
108 40 1.26083051191768036e+00
109 40 1.26458362337873287e+00
110 40 1.26814249258576162e+00
111 40 1.27150827308561198e+00
112 40 1.27468219164903962e+00
113 40 1.27766554607063298e+00
114 40 1.28045970293330513e+00
115 40 1.28306609534177207e+00
116 40 1.28548622062939799e+00
117 40 1.28772163804271012e+00
118 40 1.28977396640782671e+00
119 40 1.29164488178289982e+00
120 40 1.29333611510066659e+00
121 40 1.29484944980501648e+00
122 40 1.29618671948540709e+00
123 40 1.29734980551286561e+00
124 40 1.29834063468114702e+00
125 40 1.29916117685652033e+00
126 40 1.29981344263954135e+00
127 40 1.30029948104195570e+00
128 40 1.30062137718185933e+00
129 40 1.30078125000000000e+00
130 40 1.30078125000000000e+00
1 41 0.00000000000000000e+00
2 41 7.24560705950976543e-03
3 41 2.17687950021273474e-02
4 41 3.63547785857723446e-02
5 41 5.10012276840644749e-02
6 41 6.57057438821422729e-02
7 41 8.04658607079239280e-02
8 41 9.52790439446662557e-02
9 41 1.10142692026859529e-01
10 41 1.25054136521394271e-01
11 41 1.40010642695829884e-01
12 41 1.55009410175466933e-01
13 41 1.70047573690806669e-01
14 41 1.85122203916834593e-01
15 41 2.00230308405421997e-01
16 41 2.15368832611983113e-01
17 41 2.30534661017360532e-01
18 41 2.45724618345736445e-01
19 41 2.60935470879188391e-01
20 41 2.76163927869312542e-01
21 41 2.91406643046155156e-01
22 41 3.06660216224460325e-01
23 41 3.21921195007066729e-01
24 41 3.37186076585031413e-01
25 41 3.52451309633870558e-01
26 41 3.67713296305042348e-01
27 41 3.82968394311596516e-01
28 41 3.98212919106657626e-01
29 41 4.13443146153173846e-01
30 41 4.28655313283121675e-01
31 41 4.43845623144112855e-01
32 41 4.59010245731107935e-01
33 41 4.74145321000677356e-01
34 41 4.89246961565036831e-01
35 41 5.04311255462826402e-01
36 41 5.19334269003339677e-01
37 41 5.34312049680730872e-01
38 41 5.49240629154435500e-01
39 41 5.64116026291859418e-01
40 41 5.78934250269141248e-01
41 41 5.93691303725624842e-01
42 41 6.08383185967398488e-01
43 41 6.23005896215179433e-01
44 41 6.37555436891520055e-01
45 41 6.52027816942222227e-01
46 41 6.66419055186664222e-01
47 41 6.80725183691592406e-01
48 41 6.94942251162786517e-01
49 41 7.09066326348940068e-01
50 41 7.23093501451933851e-01
51 41 7.37019895537628034e-01
52 41 7.50841657941232699e-01
53 41 7.64554971661244975e-01
54 41 7.78156056735908264e-01
55 41 7.91641173596162262e-01
56 41 8.05006626389008551e-01
57 41 8.18248766265237903e-01
58 41 8.31363994625574754e-01
59 41 8.44348766319240052e-01
60 41 8.57199592789079090e-01
61 41 8.69913045157492126e-01
62 41 8.82485757247473912e-01
63 41 8.94914428533234108e-01
64 41 9.07195827014999234e-01
65 41 9.19326792012760685e-01
66 41 9.31304236873906954e-01
67 41 9.43125151589881972e-01
68 41 9.54786605317207382e-01
69 41 9.66285748798453858e-01
70 41 9.77619816678927056e-01
71 41 9.88786129715161111e-01
72 41 9.99782096871510650e-01
73 41 1.01060521730141550e+00
74 41 1.02125308221022304e+00
75 41 1.03172337659669711e+00
76 41 1.04201388087066960e+00
77 41 1.05212247234459033e+00
78 41 1.06204712659699552e+00
79 41 1.07178591870631856e+00
80 41 1.08133702435364887e+00
81 41 1.09069872079350505e+00
82 41 1.09986938769185261e+00
83 41 1.10884750783106445e+00
84 41 1.11763166768169220e+00
85 41 1.12622055784130826e+00
86 41 1.13461297334099265e+00
87 41 1.14280781382025998e+00
88 41 1.15080408357157893e+00
89 41 1.15860089145592204e+00
90 41 1.16619745069100822e+00
91 41 1.17359307851421568e+00
92 41 1.18078719572238700e+00
93 41 1.18777932609098280e+00
94 41 1.19456909567528258e+00
95 41 1.20115623199656429e+00
96 41 1.20754056311638180e+00
97 41 1.21372201660227019e+00
98 41 1.21970061838838806e+00
99 41 1.22547649153481331e+00
100 41 1.23104985488923613e+00
101 41 1.23642102165514034e+00
102 41 1.24159039787047609e+00
103 41 1.24655848080109433e+00
104 41 1.25132585725324041e+00
105 41 1.25589320180946706e+00
106 41 1.26026127499248197e+00
107 41 1.26443092136136759e+00
108 41 1.26840306754481347e+00
109 41 1.27217872021584255e+00
110 41 1.27575896401270317e+00
111 41 1.27914495941045048e+00
112 41 1.28233794054783257e+00
113 41 1.28533921301400000e+00
114 41 1.28815015159957147e+00
115 41 1.29077219801649767e+00
116 41 1.29320685859113604e+00
117 41 1.29545570193485848e+00
118 41 1.29752035659646237e+00
119 41 1.29940250870051477e+00
120 41 1.30110389957574579e+00
121 41 1.30262632337741913e+00
122 41 1.30397162470754169e+00
123 41 1.30514169623666665e+00
124 41 1.30613847633088365e+00
125 41 1.30696394668749027e+00
126 41 1.30762012998272170e+00
127 41 1.30810908753469990e+00
128 41 1.30843291698475328e+00
129 41 1.30859374999999978e+00
130 41 1.30859375000000000e+00
1 42 0.00000000000000000e+00
2 42 7.28886441508892844e-03
3 42 2.18987579573639290e-02
4 42 3.65718220400157654e-02
5 42 5.13057126254618731e-02
6 42 6.60980169799461198e-02
7 42 8.09462539061801961e-02
8 42 9.58478740577687477e-02
9 42 1.10800260337467649e-01
10 42 1.25800728381223498e-01
11 42 1.40846527129834836e-01
12 42 1.55934839489947297e-01
13 42 1.71062783085975667e-01
14 42 1.86227411104397778e-01
15 42 2.01425713231723036e-01
16 42 2.16654616687278506e-01
17 42 2.31910987351792525e-01
18 42 2.47191630992576683e-01
19 42 2.62493294585929793e-01
20 42 2.77812667737189045e-01
21 42 2.93146384198669563e-01
22 42 3.08491023485501892e-01
23 42 3.23843112589198456e-01
24 42 3.39199127788524124e-01
25 42 3.54555496557057870e-01
26 42 3.69908599566564966e-01
27 42 3.85254772785098565e-01
28 42 4.00590309668488354e-01
29 42 4.15911463443640550e-01
30 42 4.31214449481826911e-01
31 42 4.46495447759898634e-01
32 42 4.61750605407114545e-01
33 42 4.76976039335009760e-01
34 42 4.92167838947514646e-01
35 42 5.07322068928276138e-01
36 42 5.22434772101867062e-01
37 42 5.37501972365391989e-01
38 42 5.52519677686700739e-01
39 42 5.67483883165243674e-01
40 42 5.82390574151344986e-01
41 42 5.97235729419509198e-01
42 42 6.12015324391084414e-01
43 42 6.26725334401538658e-01
44 42 6.41361738007290350e-01
45 42 6.55920520326951917e-01
46 42 6.70397676411659149e-01
47 42 6.84789214639004884e-01
48 42 6.99091160124952427e-01
49 42 7.13299558148038249e-01
50 42 7.27410477580005099e-01
51 42 7.41420014316957143e-01
52 42 7.55324294705060906e-01
53 42 7.69119478954744973e-01
54 42 7.82801764537316647e-01
55 42 7.96367389557930516e-01
56 42 8.09812636098793615e-01
57 42 8.23133833526523029e-01
58 42 8.36327361757667864e-01
59 42 8.49389654476369826e-01
60 42 8.62317202298267582e-01
61 42 8.75106555874850311e-01
62 42 8.87754328932533365e-01
63 42 9.00257201240895255e-01
64 42 9.12611921504641099e-01
65 42 9.24815310174030847e-01
66 42 9.36864262168676465e-01
67 42 9.48755749509821555e-01
68 42 9.60486823856414484e-01
69 42 9.72054618940534243e-01
70 42 9.83456352897905783e-01
71 42 9.94689330489579970e-01
72 42 1.00575094521104202e+00
73 42 1.01663868128530477e+00
74 42 1.02735011553685140e+00
75 42 1.03788291914354303e+00
76 42 1.04823485926392745e+00
77 42 1.05840380053769234e+00
78 42 1.06838770645727599e+00
79 42 1.07818464060904273e+00
80 42 1.08779276778262601e+00
81 42 1.09721035494749608e+00
82 42 1.10643577209598321e+00
83 42 1.11546749295244396e+00
84 42 1.12430409554844868e+00
85 42 1.13294426266424142e+00
86 42 1.14138678213705824e+00
87 42 1.14963054703709733e+00
88 42 1.15767455571230493e+00
89 42 1.16551791170342001e+00
90 42 1.17315982353095460e+00
91 42 1.18059960435609157e+00
92 42 1.18783667151774464e+00
93 42 1.19487054594824249e+00
94 42 1.20170085147035888e+00
95 42 1.20832731397863324e+00
96 42 1.21474976050812145e+00
97 42 1.22096811819392559e+00
98 42 1.22698241312503509e+00
99 42 1.23279276909621527e+00
100 42 1.23839940626170919e+00
101 42 1.24380263969487248e+00
102 42 1.24900287785776243e+00
103 42 1.25400062098498144e+00
104 42 1.25879645938609563e+00
105 42 1.26339107167101616e+00
106 42 1.26778522290288476e+00
107 42 1.27197976268292812e+00
108 42 1.27597562317194657e+00
109 42 1.27977381705295201e+00
110 42 1.28337543543964472e+00
111 42 1.28678164573528897e+00
112 42 1.28999368944662529e+00
113 42 1.29301287995736724e+00
114 42 1.29584060026583758e+00
115 42 1.29847830069122305e+00
116 42 1.30092749655287432e+00
117 42 1.30318976582700685e+00
118 42 1.30526674678509802e+00
119 42 1.30716013561812994e+00
120 42 1.30887168405082477e+00
121 42 1.31040319694982155e+00
122 42 1.31175652992967628e+00
123 42 1.31293358696046791e+00
124 42 1.31393631798062027e+00
125 42 1.31476671651846044e+00
126 42 1.31542681732590205e+00
127 42 1.31591869402744432e+00
128 42 1.31624445678764723e+00
129 42 1.31640624999999978e+00
130 42 1.31640625000000000e+00
1 43 0.00000000000000000e+00
2 43 7.33212177066809231e-03
3 43 2.20287209126005072e-02
4 43 3.67888654942591792e-02
5 43 5.16101975668592644e-02
6 43 6.64902900777499528e-02
7 43 8.14266471044364504e-02
8 43 9.64167041708712258e-02
9 43 1.11457828648075769e-01
10 43 1.26547320241052724e-01
11 43 1.41682411563839789e-01
12 43 1.56860268804427688e-01
13 43 1.72077992481144693e-01
14 43 1.87332618291960962e-01
15 43 2.02621118058024047e-01
16 43 2.17940400762573927e-01
17 43 2.33287313686224546e-01
18 43 2.48658643639416921e-01
19 43 2.64051118292671194e-01
20 43 2.79461407605065548e-01
21 43 2.94886125351183914e-01
22 43 3.10321830746543403e-01
23 43 3.25765030171330239e-01
24 43 3.41212178992016835e-01
25 43 3.56659683480245182e-01
26 43 3.72103902828087640e-01
27 43 3.87541151258600614e-01
28 43 4.02967700230319137e-01
29 43 4.18379780734107254e-01
30 43 4.33773585680532037e-01
31 43 4.49145272375684357e-01
32 43 4.64490965083121154e-01
33 43 4.79806757669342165e-01
34 43 4.95088716329992462e-01
35 43 5.10332882393725873e-01
36 43 5.25535275200394447e-01
37 43 5.40691895050053106e-01
38 43 5.55798726218965977e-01
39 43 5.70851740038627931e-01
40 43 5.85846898033548835e-01
41 43 6.00780155113393555e-01
42 43 6.15647462814770341e-01
43 43 6.30444772587897884e-01
44 43 6.45168039123060644e-01
45 43 6.59813223711681496e-01
46 43 6.74376297636654298e-01
47 43 6.88853245586417362e-01
48 43 7.03240069087118225e-01
49 43 7.17532789947136429e-01
50 43 7.31727453708076236e-01
51 43 7.45820133096286253e-01
52 43 7.59806931468889113e-01
53 43 7.73683986248244970e-01
54 43 7.87447472338725141e-01
55 43 8.01093605519698770e-01
56 43 8.14618645808578790e-01
57 43 8.28018900787807932e-01
58 43 8.41290728889760753e-01
59 43 8.54430542633499601e-01
60 43 8.67434811807456185e-01
61 43 8.80300066592208497e-01
62 43 8.93022900617592930e-01
63 43 9.05599973948556403e-01
64 43 9.18028015994282964e-01
65 43 9.30303828335301009e-01
66 43 9.42424287463446086e-01
67 43 9.54386347429761250e-01
68 43 9.66187042395621698e-01
69 43 9.77823489082614516e-01
70 43 9.89292889116884289e-01
71 43 1.00059253126399894e+00
72 43 1.01171979355057351e+00
73 43 1.02267214526919381e+00
74 43 1.03344714886347977e+00
75 43 1.04404246169038917e+00
76 43 1.05445583765718509e+00
77 43 1.06468512873079435e+00
78 43 1.07472828631755646e+00
79 43 1.08458336251176712e+00
80 43 1.09424851121160316e+00
81 43 1.10372198910148711e+00
82 43 1.11300215650011380e+00
83 43 1.12208747807382347e+00
84 43 1.13097652341520494e+00
85 43 1.13966796748717480e+00
86 43 1.14816059093312384e+00
87 43 1.15645328025393446e+00
88 43 1.16454502785303071e+00
89 43 1.17243493195091819e+00
90 43 1.18012219637090099e+00
91 43 1.18760613019796768e+00
92 43 1.19488614731310228e+00
93 43 1.20196176580550196e+00
94 43 1.20883260726543518e+00
95 43 1.21549839596070242e+00
96 43 1.22195895789986086e+00
97 43 1.22821421978558099e+00
98 43 1.23426420786168212e+00
99 43 1.24010904665761701e+00
100 43 1.24574895763418225e+00
101 43 1.25118425773460462e+00
102 43 1.25641535784504876e+00
103 43 1.26144276116886855e+00
104 43 1.26626706151895085e+00
105 43 1.27088894153256526e+00
106 43 1.27530917081328754e+00
107 43 1.27952860400448842e+00
108 43 1.28354817879907968e+00
109 43 1.28736891389006169e+00
110 43 1.29099190686658627e+00
111 43 1.29441833206012746e+00
112 43 1.29764943834541846e+00
113 43 1.30068654690073449e+00
114 43 1.30353104893210348e+00
115 43 1.30618440336594821e+00
116 43 1.30864813451461237e+00
117 43 1.31092382971915522e+00
118 43 1.31301313697373367e+00
119 43 1.31491776253574488e+00
120 43 1.31663946852590397e+00
121 43 1.31818007052222419e+00
122 43 1.31954143515181110e+00
123 43 1.32072547768426896e+00
124 43 1.32173415963035690e+00
125 43 1.32256948634943039e+00
126 43 1.32323350466908241e+00
127 43 1.32372830052018897e+00
128 43 1.32405599659054118e+00
129 43 1.32421874999999978e+00
130 43 1.32421875000000022e+00
1 44 0.00000000000000000e+00
2 44 7.37537912624725619e-03
3 44 2.21586838678370888e-02
4 44 3.70059089485025930e-02
5 44 5.19146825082566696e-02
6 44 6.68825631755537858e-02
7 44 8.19070403026927185e-02
8 44 9.69855342839737178e-02
9 44 1.12115396958683888e-01
10 44 1.27293912100881923e-01
11 44 1.42518295997844768e-01
12 44 1.57785698118908080e-01
13 44 1.73093201876313690e-01
14 44 1.88437825479524146e-01
15 44 2.03816522884325085e-01
16 44 2.19226184837869348e-01
17 44 2.34663640020656566e-01
18 44 2.50125656286257103e-01
19 44 2.65608941999412596e-01
20 44 2.81110147472942051e-01
21 44 2.96625866503698266e-01
22 44 3.12152638007584915e-01
23 44 3.27686947753462021e-01
24 44 3.43225230195509545e-01
25 44 3.58763870403432439e-01
26 44 3.74299206089610259e-01
27 44 3.89827529732102662e-01
28 44 4.05345090792149865e-01
29 44 4.20848098024573958e-01
30 44 4.36332721879237218e-01
31 44 4.51795096991470135e-01
32 44 4.67231324759127764e-01
33 44 4.82637476003674515e-01
34 44 4.98009593712470278e-01
35 44 5.13343695859175608e-01
36 44 5.28635778298921832e-01
37 44 5.43881817734714224e-01
38 44 5.59077774751231327e-01
39 44 5.74219596912012076e-01
40 44 5.89303221915752684e-01
41 44 6.04324580807277911e-01
42 44 6.19279601238456379e-01
43 44 6.34164210774257109e-01
44 44 6.48974340238830827e-01
45 44 6.63705927096411186e-01
46 44 6.78354918861649336e-01
47 44 6.92917276533829840e-01
48 44 7.07388978049284023e-01
49 44 7.21766021746234610e-01
50 44 7.36044429836147485e-01
51 44 7.50220251875615363e-01
52 44 7.64289568232717209e-01
53 44 7.78248493541744968e-01
54 44 7.92093180140133524e-01
55 44 8.05819821481466914e-01
56 44 8.19424655518363854e-01
57 44 8.32903968049092835e-01
58 44 8.46254096021853752e-01
59 44 8.59471430790629487e-01
60 44 8.72552421316644677e-01
61 44 8.85493577309566682e-01
62 44 8.98291472302652383e-01
63 44 9.10942746656217439e-01
64 44 9.23444110483924718e-01
65 44 9.35792346496571281e-01
66 44 9.47984312758215597e-01
67 44 9.60016945349700723e-01
68 44 9.71887260934828912e-01
69 44 9.83592359224694790e-01
70 44 9.95129425335863016e-01
71 44 1.00649573203841780e+00
72 44 1.01768864189010477e+00
73 44 1.02870560925308285e+00
74 44 1.03954418219010791e+00
75 44 1.05020200423723509e+00
76 44 1.06067681605044273e+00
77 44 1.07096645692389636e+00
78 44 1.08106886617783693e+00
79 44 1.09098208441449129e+00
80 44 1.10070425464058030e+00
81 44 1.11023362325547814e+00
82 44 1.11956854090424418e+00
83 44 1.12870746319520299e+00
84 44 1.13764895128196120e+00
85 44 1.14639167231010797e+00
86 44 1.15493439972918943e+00
87 44 1.16327601347077181e+00
88 44 1.17141549999375671e+00
89 44 1.17935195219841638e+00
90 44 1.18708456921084737e+00
91 44 1.19461265603984379e+00
92 44 1.20193562310845969e+00
93 44 1.20905298566276143e+00
94 44 1.21596436306051170e+00
95 44 1.22266947794277159e+00
96 44 1.22916815529160051e+00
97 44 1.23546032137723638e+00
98 44 1.24154600259832915e+00
99 44 1.24742532421901875e+00
100 44 1.25309850900665531e+00
101 44 1.25856587577433676e+00
102 44 1.26382783783233532e+00
103 44 1.26888490135275567e+00
104 44 1.27373766365180585e+00
105 44 1.27838681139411436e+00
106 44 1.28283311872369055e+00
107 44 1.28707744532604895e+00
108 44 1.29112073442621300e+00
109 44 1.29496401072717116e+00
110 44 1.29860837829352782e+00
111 44 1.30205501838496573e+00
112 44 1.30530518724421141e+00
113 44 1.30836021384410173e+00
114 44 1.31122149759836959e+00
115 44 1.31389050604067381e+00
116 44 1.31636877247635042e+00
117 44 1.31865789361130381e+00
118 44 1.32075952716236911e+00
119 44 1.32267538945336005e+00
120 44 1.32440725300098316e+00
121 44 1.32595694409462661e+00
122 44 1.32732634037394570e+00
123 44 1.32851736840806978e+00
124 44 1.32953200128009374e+00
125 44 1.33037225618040056e+00
126 44 1.33104019201226298e+00
127 44 1.33153790701293340e+00
128 44 1.33186753639343514e+00
129 44 1.33203125000000000e+00
130 44 1.33203125000000022e+00
1 45 0.00000000000000000e+00
2 45 7.41863648182642006e-03
3 45 2.22886468230736705e-02
4 45 3.72229524027460137e-02
5 45 5.22191674496540678e-02
6 45 6.72748362733576327e-02
7 45 8.23874335009489867e-02
8 45 9.75543643970761959e-02
9 45 1.12772965269292008e-01
10 45 1.28040503960711149e-01
11 45 1.43354180431849720e-01
12 45 1.58711127433388471e-01
13 45 1.74108411271482660e-01
14 45 1.89543032667087358e-01
15 45 2.05011927710626096e-01
16 45 2.20511968913164741e-01
17 45 2.36039966355088587e-01
18 45 2.51592668933097285e-01
19 45 2.67166765706154052e-01
20 45 2.82758887340818554e-01
21 45 2.98365607656212617e-01
22 45 3.13983445268626427e-01
23 45 3.29608865335593804e-01
24 45 3.45238281399002256e-01
25 45 3.60868057326619751e-01
26 45 3.76494509351132878e-01
27 45 3.92113908205604766e-01
28 45 4.07722481353980648e-01
29 45 4.23316415315040662e-01
30 45 4.38891858077942398e-01
31 45 4.54444921607255858e-01
32 45 4.69971684435134374e-01
33 45 4.85468194338006975e-01
34 45 5.00930471094948149e-01
35 45 5.16354509324625233e-01
36 45 5.31736281397449218e-01
37 45 5.47071740419375341e-01
38 45 5.62356823283496565e-01
39 45 5.77587453785396332e-01
40 45 5.92759545797956533e-01
41 45 6.07869006501162157e-01
42 45 6.22911739662142305e-01
43 45 6.37883648960616445e-01
44 45 6.52780641354601010e-01
45 45 6.67598630481140876e-01
46 45 6.82333540086644375e-01
47 45 6.96981307481242318e-01
48 45 7.11537887011449932e-01
49 45 7.25999253545332679e-01
50 45 7.40361405964218733e-01
51 45 7.54620370654944472e-01
52 45 7.68772204996545527e-01
53 45 7.82813000835244854e-01
54 45 7.96738887941541796e-01
55 45 8.10546037443235057e-01
56 45 8.24230665228149029e-01
57 45 8.37789035310377850e-01
58 45 8.51217463153946641e-01
59 45 8.64512318947759262e-01
60 45 8.77670030825833170e-01
61 45 8.90687088026924867e-01
62 45 9.03560043987711947e-01
63 45 9.16285519363878587e-01
64 45 9.28860204973566472e-01
65 45 9.41280864657841554e-01
66 45 9.53544338052985219e-01
67 45 9.65647543269640307e-01
68 45 9.77587479474036236e-01
69 45 9.89361229366775063e-01
70 45 1.00096596155484163e+00
71 45 1.01239893281283666e+00
72 45 1.02365749022963626e+00
73 45 1.03473907323697190e+00
74 45 1.04564121551673606e+00
75 45 1.05636154678408078e+00
76 45 1.06689779444370036e+00
77 45 1.07724778511699837e+00
78 45 1.08740944603811762e+00
79 45 1.09738080631721546e+00
80 45 1.10715999806955745e+00
81 45 1.11674525740946917e+00
82 45 1.12613492530837456e+00
83 45 1.13532744831658250e+00
84 45 1.14432137914871768e+00
85 45 1.15311537713304113e+00
86 45 1.16170820852525503e+00
87 45 1.17009874668760916e+00
88 45 1.17828597213448250e+00
89 45 1.18626897244591434e+00
90 45 1.19404694205079376e+00
91 45 1.20161918188171990e+00
92 45 1.20898509890381711e+00
93 45 1.21614420552002112e+00
94 45 1.22309611885558800e+00
95 45 1.22984055992484076e+00
96 45 1.23637735268333993e+00
97 45 1.24270642296889178e+00
98 45 1.24882779733497618e+00
99 45 1.25474160178042049e+00
100 45 1.26044806037912838e+00
101 45 1.26594749381406890e+00
102 45 1.27124031781962188e+00
103 45 1.27632704153664278e+00
104 45 1.28120826578466107e+00
105 45 1.28588468125566324e+00
106 45 1.29035706663409333e+00
107 45 1.29462628664760926e+00
108 45 1.29869329005334633e+00
109 45 1.30255910756428062e+00
110 45 1.30622484972046937e+00
111 45 1.30969170470980423e+00
112 45 1.31296093614300435e+00
113 45 1.31603388078746875e+00
114 45 1.31891194626463570e+00
115 45 1.32159660871539919e+00
116 45 1.32408941043808870e+00
117 45 1.32639195750345240e+00
118 45 1.32850591735100498e+00
119 45 1.33043301637097500e+00
120 45 1.33217503747606236e+00
121 45 1.33373381766702903e+00
122 45 1.33511124559608008e+00
123 45 1.33630925913187082e+00
124 45 1.33732984292983037e+00
125 45 1.33817502601137073e+00
126 45 1.33884687935544333e+00
127 45 1.33934751350567782e+00
128 45 1.33967907619632909e+00
129 45 1.33984375000000000e+00
130 45 1.33984375000000022e+00
1 46 0.00000000000000000e+00
2 46 7.46189383740558307e-03
3 46 2.24186097783102521e-02
4 46 3.74399958569894345e-02
5 46 5.25236523910514730e-02
6 46 6.76671093711614657e-02
7 46 8.28678266992052548e-02
8 46 9.81231945101786601e-02
9 46 1.13430533579900128e-01
10 46 1.28787095820540376e-01
11 46 1.44190064865854672e-01
12 46 1.59636556747868863e-01
13 46 1.75123620666651658e-01
14 46 1.90648239854650570e-01
15 46 2.06207332536927107e-01
16 46 2.21797752988460162e-01
17 46 2.37416292689520608e-01
18 46 2.53059681579937523e-01
19 46 2.68724589412895454e-01
20 46 2.84407627208695002e-01
21 46 3.00105348808727024e-01
22 46 3.15814252529667994e-01
23 46 3.31530782917725531e-01
24 46 3.47251332602494966e-01
25 46 3.62972244249807063e-01
26 46 3.78689812612655496e-01
27 46 3.94400286679106815e-01
28 46 4.10099871915811487e-01
29 46 4.25784732605507366e-01
30 46 4.41450994276647579e-01
31 46 4.57094746223041581e-01
32 46 4.72712044111140983e-01
33 46 4.88298912672339380e-01
34 46 5.03851348477425964e-01
35 46 5.19365322790074857e-01
36 46 5.34836784495976603e-01
37 46 5.50261663104036347e-01
38 46 5.65635871815761804e-01
39 46 5.80955310658780588e-01
40 46 5.96215869680160382e-01
41 46 6.11413432195046402e-01
42 46 6.26543878085828232e-01
43 46 6.41603087146975781e-01
44 46 6.56586942470371304e-01
45 46 6.71491333865870677e-01
46 46 6.86312161311639302e-01
47 46 7.01045338428654796e-01
48 46 7.15686795973615841e-01
49 46 7.30232485344430748e-01
50 46 7.44678382092289981e-01
51 46 7.59020489434273693e-01
52 46 7.73254841760373846e-01
53 46 7.87377508128744741e-01
54 46 8.01384595742950179e-01
55 46 8.15272253405003200e-01
56 46 8.29036674937934093e-01
57 46 8.42674102571662753e-01
58 46 8.56180830286039640e-01
59 46 8.69553207104889037e-01
60 46 8.82787640335021662e-01
61 46 8.95880598744282941e-01
62 46 9.08828615672771511e-01
63 46 9.21628292071539734e-01
64 46 9.34276299463208115e-01
65 46 9.46769382819111716e-01
66 46 9.59104363347754729e-01
67 46 9.71278141189579780e-01
68 46 9.83287698013243450e-01
69 46 9.95130099508855337e-01
70 46 1.00680249777382036e+00
71 46 1.01830213358725552e+00
72 46 1.02962633856916774e+00
73 46 1.04077253722086094e+00
74 46 1.05173824884336420e+00
75 46 1.06252108933092670e+00
76 46 1.07311877283695822e+00
77 46 1.08352911331010038e+00
78 46 1.09375002589839831e+00
79 46 1.10377952821993963e+00
80 46 1.11361574149853437e+00
81 46 1.12325689156346020e+00
82 46 1.13270130971250493e+00
83 46 1.14194743343796201e+00
84 46 1.15099380701547416e+00
85 46 1.15983908195597407e+00
86 46 1.16848201732132084e+00
87 46 1.17692147990444651e+00
88 46 1.18515644427520828e+00
89 46 1.19318599269341230e+00
90 46 1.20100931489073970e+00
91 46 1.20862570772359557e+00
92 46 1.21603457469917453e+00
93 46 1.22323542537728081e+00
94 46 1.23022787465066430e+00
95 46 1.23701164190690971e+00
96 46 1.24358655007507957e+00
97 46 1.24995252456054717e+00
98 46 1.25610959207162320e+00
99 46 1.26205787934182223e+00
100 46 1.26779761175160144e+00
101 46 1.27332911185380127e+00
102 46 1.27865279780690844e+00
103 46 1.28376918172053012e+00
104 46 1.28867886791751607e+00
105 46 1.29338255111721234e+00
106 46 1.29788101454449634e+00
107 46 1.30217512796916957e+00
108 46 1.30626584568047965e+00
109 46 1.31015420440139008e+00
110 46 1.31384132114741092e+00
111 46 1.31732839103464272e+00
112 46 1.32061668504179752e+00
113 46 1.32370754773083599e+00
114 46 1.32660239493090182e+00
115 46 1.32930271139012435e+00
116 46 1.33181004839982675e+00
117 46 1.33412602139560077e+00
118 46 1.33625230753964064e+00
119 46 1.33819064328859016e+00
120 46 1.33994282195114134e+00
121 46 1.34151069123943145e+00
122 46 1.34289615081821445e+00
123 46 1.34410114985567186e+00
124 46 1.34512768457956677e+00
125 46 1.34597779584234090e+00
126 46 1.34665356669862368e+00
127 46 1.34715711999842225e+00
128 46 1.34749061599922304e+00
129 46 1.34765625000000022e+00
130 46 1.34765625000000022e+00
1 47 0.00000000000000000e+00
2 47 7.50515119298474608e-03
3 47 2.25485727335468372e-02
4 47 3.76570393112328552e-02
5 47 5.28281373324488782e-02
6 47 6.80593824689653126e-02
7 47 8.33482198974615229e-02
8 47 9.86920246232811382e-02
9 47 1.14088101890508234e-01
10 47 1.29533687680369602e-01
11 47 1.45025949299859624e-01
12 47 1.60561986062349282e-01
13 47 1.76138830061820656e-01
14 47 1.91753447042213754e-01
15 47 2.07402737363228118e-01
16 47 2.23083537063755555e-01
17 47 2.38792619023952657e-01
18 47 2.54526694226777761e-01
19 47 2.70282413119636855e-01
20 47 2.86056367076571505e-01
21 47 3.01845089961241375e-01
22 47 3.17645059790709561e-01
23 47 3.33452700499857202e-01
24 47 3.49264383805987677e-01
25 47 3.65076431172994376e-01
26 47 3.80885115874178171e-01
27 47 3.96686665152608864e-01
28 47 4.12477262477642270e-01
29 47 4.28253049895974125e-01
30 47 4.44010130475352705e-01
31 47 4.59744570838827304e-01
32 47 4.75452403787147593e-01
33 47 4.91129631006671785e-01
34 47 5.06772225859903780e-01
35 47 5.22376136255524592e-01
36 47 5.37937287594503988e-01
37 47 5.53451585788697464e-01
38 47 5.68914920348027153e-01
39 47 5.84323167532164733e-01
40 47 5.99672193562364231e-01
41 47 6.14957857888930759e-01
42 47 6.30176016509514159e-01
43 47 6.45322525333335117e-01
44 47 6.60393243586141598e-01
45 47 6.75384037250600366e-01
46 47 6.90290782536634229e-01
47 47 7.05109369376067274e-01
48 47 7.19835704935781862e-01
49 47 7.34465717143528929e-01
50 47 7.48995358220361229e-01
51 47 7.63420608213602803e-01
52 47 7.77737478524202053e-01
53 47 7.91942015422244627e-01
54 47 8.06030303544358673e-01
55 47 8.19998469366771343e-01
56 47 8.33842684647719268e-01
57 47 8.47559169832947767e-01
58 47 8.61144197418132751e-01
59 47 8.74594095262018811e-01
60 47 8.87905249844210154e-01
61 47 9.01074109461641237e-01
62 47 9.14097187357830965e-01
63 47 9.26971064779200882e-01
64 47 9.39692393952849869e-01
65 47 9.52257900980381877e-01
66 47 9.64664388642524240e-01
67 47 9.76908739109519475e-01
68 47 9.88987916552450663e-01
69 47 1.00089896965093561e+00
70 47 1.01263903399279886e+00
71 47 1.02420533436167438e+00
72 47 1.03559518690869923e+00
73 47 1.04680600120474998e+00
74 47 1.05783528216999256e+00
75 47 1.06868063187777262e+00
76 47 1.07933975123021586e+00
77 47 1.08981044150320261e+00
78 47 1.10009060575867901e+00
79 47 1.11017825012266380e+00
80 47 1.12007148492751130e+00
81 47 1.12976852571745123e+00
82 47 1.13926769411663531e+00
83 47 1.14856741855934152e+00
84 47 1.15766623488223042e+00
85 47 1.16656278677890723e+00
86 47 1.17525582611738644e+00
87 47 1.18374421312128364e+00
88 47 1.19202691641593406e+00
89 47 1.20010301294091026e+00
90 47 1.20797168773068608e+00
91 47 1.21563223356547168e+00
92 47 1.22308405049453195e+00
93 47 1.23032664523454049e+00
94 47 1.23735963044574060e+00
95 47 1.24418272388897888e+00
96 47 1.25079574746681921e+00
97 47 1.25719862615220235e+00
98 47 1.26339138680827023e+00
99 47 1.26937415690322397e+00
100 47 1.27514716312407450e+00
101 47 1.28071072989353341e+00
102 47 1.28606527779419477e+00
103 47 1.29121132190441723e+00
104 47 1.29614947005037129e+00
105 47 1.30088042097876144e+00
106 47 1.30540496245489934e+00
107 47 1.30972396929073009e+00
108 47 1.31383840130761276e+00
109 47 1.31774930123849976e+00
110 47 1.32145779257435247e+00
111 47 1.32496507735948121e+00
112 47 1.32827243394059069e+00
113 47 1.33138121467420323e+00
114 47 1.33429284359716793e+00
115 47 1.33700881406484950e+00
116 47 1.33953068636156480e+00
117 47 1.34186008528774892e+00
118 47 1.34399869772827629e+00
119 47 1.34594827020620533e+00
120 47 1.34771060642622054e+00
121 47 1.34928756481183387e+00
122 47 1.35068105604034905e+00
123 47 1.35189304057947290e+00
124 47 1.35292552622930362e+00
125 47 1.35378056567331106e+00
126 47 1.35446025404180426e+00
127 47 1.35496672649116667e+00
128 47 1.35530215580211699e+00
129 47 1.35546875000000022e+00
130 47 1.35546875000000022e+00
1 48 0.00000000000000000e+00
2 48 7.54840854856390908e-03
3 48 2.26785356887834189e-02
4 48 3.78740827654762760e-02
5 48 5.31326222738462764e-02
6 48 6.84516555667691595e-02
7 48 8.38286130957177772e-02
8 48 9.92608547363836163e-02
9 48 1.14745670201116354e-01
10 48 1.30280279540198829e-01
11 48 1.45861833733864577e-01
12 48 1.61487415376829674e-01
13 48 1.77154039456989626e-01
14 48 1.92858654229776966e-01
15 48 2.08598142189529129e-01
16 48 2.24369321139050976e-01
17 48 2.40168945358384678e-01
18 48 2.55993706873617999e-01
19 48 2.71840236826378256e-01
20 48 2.87705106944448008e-01
21 48 3.03584831113755726e-01
22 48 3.19475867051751128e-01
23 48 3.35374618081988929e-01
24 48 3.51277435009480388e-01
25 48 3.67180618096181688e-01
26 48 3.83080419135700845e-01
27 48 3.98973043626110913e-01
28 48 4.14854653039472998e-01
29 48 4.30721367186440829e-01
30 48 4.46569266674057885e-01
31 48 4.62394395454613083e-01
32 48 4.78192763463154202e-01
33 48 4.93960349341004246e-01
34 48 5.09693103242381595e-01
35 48 5.25386949720974217e-01
36 48 5.41037790693031373e-01
37 48 5.56641508473358471e-01
38 48 5.72193968880292503e-01
39 48 5.87691024405548990e-01
40 48 6.03128517444568080e-01
41 48 6.18502283582815005e-01
42 48 6.33808154933200196e-01
43 48 6.49041963519694343e-01
44 48 6.64199544701911782e-01
45 48 6.79276740635330056e-01
46 48 6.94269403761629378e-01
47 48 7.09173400323479641e-01
48 48 7.23984613897947771e-01
49 48 7.38698948942627109e-01
50 48 7.53312334348432477e-01
51 48 7.67820726992931912e-01
52 48 7.82220115288030371e-01
53 48 7.96506522715744625e-01
54 48 8.10676011345767056e-01
55 48 8.24724685328539375e-01
56 48 8.38648694357504443e-01
57 48 8.52444237094232671e-01
58 48 8.66107564550225639e-01
59 48 8.79634983419148586e-01
60 48 8.93022859353398757e-01
61 48 9.06267620178999422e-01
62 48 9.19365759042890529e-01
63 48 9.32313837486862029e-01
64 48 9.45108488442491623e-01
65 48 9.57746419141652039e-01
66 48 9.70224413937293861e-01
67 48 9.82539337029458948e-01
68 48 9.94688135091657877e-01
69 48 1.00666783979301599e+00
70 48 1.01847557021177759e+00
71 48 1.03010853513609324e+00
72 48 1.04156403524823049e+00
73 48 1.05283946518863902e+00
74 48 1.06393231549662071e+00
75 48 1.07484017442461854e+00
76 48 1.08556072962347350e+00
77 48 1.09609176969630462e+00
78 48 1.10643118561895948e+00
79 48 1.11657697202538819e+00
80 48 1.12652722835648844e+00
81 48 1.13628015987144226e+00
82 48 1.14583407852076569e+00
83 48 1.15518740368072104e+00
84 48 1.16433866274898645e+00
85 48 1.17328649160184062e+00
86 48 1.18202963491345203e+00
87 48 1.19056694633812099e+00
88 48 1.19889738855666006e+00
89 48 1.20702003318840823e+00
90 48 1.21493406057063269e+00
91 48 1.22263875940734756e+00
92 48 1.23013352628988959e+00
93 48 1.23741786509179996e+00
94 48 1.24449138624081668e+00
95 48 1.25135380587104805e+00
96 48 1.25800494485855863e+00
97 48 1.26444472774385752e+00
98 48 1.27067318154491748e+00
99 48 1.27669043446462593e+00
100 48 1.28249671449654756e+00
101 48 1.28809234793326577e+00
102 48 1.29347775778148111e+00
103 48 1.29865346208830412e+00
104 48 1.30362007218322629e+00
105 48 1.30837829084031032e+00
106 48 1.31292891036530235e+00
107 48 1.31727281061229040e+00
108 48 1.32141095693474608e+00
109 48 1.32534439807560922e+00
110 48 1.32907426400129403e+00
111 48 1.33260176368431971e+00
112 48 1.33592818283938386e+00
113 48 1.33905488161757025e+00
114 48 1.34198329226343405e+00
115 48 1.34471491673957488e+00
116 48 1.34725132432330308e+00
117 48 1.34959414917989751e+00
118 48 1.35174508791691195e+00
119 48 1.35370589712382006e+00
120 48 1.35547839090129951e+00
121 48 1.35706443838423607e+00
122 48 1.35846596126248365e+00
123 48 1.35968493130327395e+00
124 48 1.36072336787904025e+00
125 48 1.36158333550428123e+00
126 48 1.36226694138498461e+00
127 48 1.36277633298391110e+00
128 48 1.36311369560501117e+00
129 48 1.36328125000000000e+00
130 48 1.36328125000000022e+00
1 49 0.00000000000000000e+00
2 49 7.59166590414307122e-03
3 49 2.28084986440200040e-02
4 49 3.80911262197196968e-02
5 49 5.34371072152436816e-02
6 49 6.88439286645729925e-02
7 49 8.43090062939740315e-02
8 49 9.98296848494861083e-02
9 49 1.15403238511724474e-01
10 49 1.31026871400028055e-01
11 49 1.46697718167869556e-01
12 49 1.62412844691310093e-01
13 49 1.78169248852158651e-01
14 49 1.93963861417340178e-01
15 49 2.09793547015830140e-01
16 49 2.25655105214346369e-01
17 49 2.41545271692816643e-01
18 49 2.57460719520458237e-01
19 49 2.73398060533119713e-01
20 49 2.89353846812324456e-01
21 49 3.05324572266270133e-01
22 49 3.21306674312792695e-01
23 49 3.37296535664120711e-01
24 49 3.53290486212973098e-01
25 49 3.69284805019369000e-01
26 49 3.85275722397223519e-01
27 49 4.01259422099612961e-01
28 49 4.17232043601303781e-01
29 49 4.33189684476907477e-01
30 49 4.49128402872763066e-01
31 49 4.65044220070398862e-01
32 49 4.80933123139160867e-01
33 49 4.96791067675336651e-01
34 49 5.12613980624859411e-01
35 49 5.28397763186423952e-01
36 49 5.44138293791558758e-01
37 49 5.59831431158019588e-01
38 49 5.75473017412557741e-01
39 49 5.91058881278933246e-01
40 49 6.06584841326771818e-01
41 49 6.22046709276699250e-01
42 49 6.37440293356886123e-01
43 49 6.52761401706053679e-01
44 49 6.68005845817682076e-01
45 49 6.83169444020059746e-01
46 49 6.98248024986624416e-01
47 49 7.13237431270892119e-01
48 49 7.28133522860113680e-01
49 49 7.42932180741725290e-01
50 49 7.57629310476503726e-01
51 49 7.72220845772261022e-01
52 49 7.86702752051858689e-01
53 49 8.01071030009244511e-01
54 49 8.15321719147175550e-01
55 49 8.29450901290307518e-01
56 49 8.43454704067289507e-01
57 49 8.57329304355517796e-01
58 49 8.71070931682318528e-01
59 49 8.84675871576278472e-01
60 49 8.98140468862587249e-01
61 49 9.11461130896357608e-01
62 49 9.24634330727949982e-01
63 49 9.37656610194523177e-01
64 49 9.50524582932133377e-01
65 49 9.63234937302922312e-01
66 49 9.75784439232063372e-01
67 49 9.88169934949398532e-01
68 49 1.00038835363086509e+00
69 49 1.01243670993509638e+00
70 49 1.02431210643075632e+00
71 49 1.03601173591051210e+00
72 49 1.04753288358776198e+00
73 49 1.05887292917252807e+00
74 49 1.07002934882324885e+00
75 49 1.08099971697146446e+00
76 49 1.09178170801673136e+00
77 49 1.10237309788940685e+00
78 49 1.11277176547924017e+00
79 49 1.12297569392811258e+00
80 49 1.13298297178546536e+00
81 49 1.14279179402543329e+00
82 49 1.15240046292489606e+00
83 49 1.16180738880210033e+00
84 49 1.17101109061574271e+00
85 49 1.18001019642477378e+00
86 49 1.18880344370951763e+00
87 49 1.19738967955495834e+00
88 49 1.20576786069738584e+00
89 49 1.21393705343590641e+00
90 49 1.22189643341057885e+00
91 49 1.22964528524922367e+00
92 49 1.23718300208524723e+00
93 49 1.24450908494905965e+00
94 49 1.25162314203589320e+00
95 49 1.25852488785311678e+00
96 49 1.26521414225029827e+00
97 49 1.27169082933551270e+00
98 49 1.27795497628156474e+00
99 49 1.28400671202602767e+00
100 49 1.28984626586902063e+00
101 49 1.29547396597299813e+00
102 49 1.30089023776876767e+00
103 49 1.30609560227219124e+00
104 49 1.31109067431608151e+00
105 49 1.31587616070185964e+00
106 49 1.32045285827570513e+00
107 49 1.32482165193385071e+00
108 49 1.32898351256187941e+00
109 49 1.33293949491271868e+00
110 49 1.33669073542823558e+00
111 49 1.34023845000915820e+00
112 49 1.34358393173817681e+00
113 49 1.34672854856093749e+00
114 49 1.34967374092969994e+00
115 49 1.35242101941430026e+00
116 49 1.35497196228504135e+00
117 49 1.35732821307204587e+00
118 49 1.35949147810554738e+00
119 49 1.36146352404143500e+00
120 49 1.36324617537637871e+00
121 49 1.36484131195663871e+00
122 49 1.36625086648461846e+00
123 49 1.36747682202707499e+00
124 49 1.36852120952877665e+00
125 49 1.36938610533525118e+00
126 49 1.37007362872816496e+00
127 49 1.37058593947665552e+00
128 49 1.37092523540790512e+00
129 49 1.37109375000000000e+00
130 49 1.37109375000000022e+00
1 50 0.00000000000000000e+00
2 50 7.63492325972223423e-03
3 50 2.29384615992565821e-02
4 50 3.83081696739631175e-02
5 50 5.37415921566410867e-02
6 50 6.92362017623768117e-02
7 50 8.47893994922302996e-02
8 50 1.00398514962588586e-01
9 50 1.16060806822332593e-01
10 50 1.31773463259857282e-01
11 50 1.47533602601874508e-01
12 50 1.63338274005790485e-01
13 50 1.79184458247327649e-01
14 50 1.95069068604903362e-01
15 50 2.10988951842131151e-01
16 50 2.26940889289641790e-01
17 50 2.42921598027248636e-01
18 50 2.58927732167298474e-01
19 50 2.74955884239861170e-01
20 50 2.91002586680200959e-01
21 50 3.07064313418784485e-01
22 50 3.23137481573834262e-01
23 50 3.39218453246252438e-01
24 50 3.55303537416465809e-01
25 50 3.71388991942556257e-01
26 50 3.87471025658746193e-01
27 50 4.03545800573115010e-01
28 50 4.19609434163134565e-01
29 50 4.35658001767374181e-01
30 50 4.51687539071468247e-01
31 50 4.67694044686184640e-01
32 50 4.83673482815167477e-01
33 50 4.99621786009669000e-01
34 50 5.15534858007337116e-01
35 50 5.31408576651873577e-01
36 50 5.47238796890086143e-01
37 50 5.63021353842680594e-01
38 50 5.78752065944822980e-01
39 50 5.94426738152317391e-01
40 50 6.10041165208975666e-01
41 50 6.25591134970583607e-01
42 50 6.41072431780572050e-01
43 50 6.56480839892413015e-01
44 50 6.71812146933452259e-01
45 50 6.87062147404789436e-01
46 50 7.02226646211619565e-01
47 50 7.17301462218304708e-01
48 50 7.32282431822279700e-01
49 50 7.47165412540823359e-01
50 50 7.61946286604574974e-01
51 50 7.76620964551590132e-01
52 50 7.91185388815686896e-01
53 50 8.05635537302744509e-01
54 50 8.19967426948584044e-01
55 50 8.34177117252075773e-01
56 50 8.48260713777074571e-01
57 50 8.62214371616802810e-01
58 50 8.76034298814411527e-01
59 50 8.89716759733408247e-01
60 50 9.03258078371775963e-01
61 50 9.16654641613715682e-01
62 50 9.29902902413009547e-01
63 50 9.42999382902184324e-01
64 50 9.55940677421775131e-01
65 50 9.68723455464192473e-01
66 50 9.81344464526832994e-01
67 50 9.93800532869338005e-01
68 50 1.00608857217007230e+00
69 50 1.01820558007717676e+00
70 50 1.03014864264973482e+00
71 50 1.04191493668493096e+00
72 50 1.05350173192729346e+00
73 50 1.06490639315641711e+00
74 50 1.07612638214987699e+00
75 50 1.08715925951831038e+00
76 50 1.09800268640998921e+00
77 50 1.10865442608250886e+00
78 50 1.11911234533952086e+00
79 50 1.12937441583083675e+00
80 50 1.13943871521444229e+00
81 50 1.14930342817942432e+00
82 50 1.15896684732902644e+00
83 50 1.16842737392348006e+00
84 50 1.17768351848249919e+00
85 50 1.18673390124770695e+00
86 50 1.19557725250558344e+00
87 50 1.20421241277179569e+00
88 50 1.21263833283811162e+00
89 50 1.22085407368340437e+00
90 50 1.22885880625052502e+00
91 50 1.23665181109109956e+00
92 50 1.24423247788060465e+00
93 50 1.25160030480631912e+00
94 50 1.25875489783096950e+00
95 50 1.26569596983518595e+00
96 50 1.27242333964203791e+00
97 50 1.27893693092716787e+00
98 50 1.28523677101821177e+00
99 50 1.29132298958742942e+00
100 50 1.29719581724149369e+00
101 50 1.30285558401273027e+00
102 50 1.30830271775605400e+00
103 50 1.31353774245607813e+00
104 50 1.31856127644893673e+00
105 50 1.32337403056340852e+00
106 50 1.32797680618610792e+00
107 50 1.33237049325541124e+00
108 50 1.33655606818901251e+00
109 50 1.34053459174982814e+00
110 50 1.34430720685517691e+00
111 50 1.34787513633399691e+00
112 50 1.35123968063696998e+00
113 50 1.35440221550430451e+00
114 50 1.35736418959596605e+00
115 50 1.36012712208902586e+00
116 50 1.36269260024677941e+00
117 50 1.36506227696419424e+00
118 50 1.36723786829418303e+00
119 50 1.36922115095904995e+00
120 50 1.37101395985145769e+00
121 50 1.37261818552904113e+00
122 50 1.37403577170675306e+00
123 50 1.37526871275087603e+00
124 50 1.37631905117851305e+00
125 50 1.37718887516622113e+00
126 50 1.37788031607134531e+00
127 50 1.37839554596939995e+00
128 50 1.37873677521079907e+00
129 50 1.37890625000000000e+00
130 50 1.37890625000000022e+00
1 51 0.00000000000000000e+00
2 51 7.67818061530139723e-03
3 51 2.30684245544931603e-02
4 51 3.85252131282065313e-02
5 51 5.40460770980384850e-02
6 51 6.96284748601806586e-02
7 51 8.52697926904865816e-02
8 51 1.00967345075691065e-01
9 51 1.16718375132940713e-01
10 51 1.32520055119686508e-01
11 51 1.48369487035879460e-01
12 51 1.64263703320270876e-01
13 51 1.80199667642496619e-01
14 51 1.96174275792466546e-01
15 51 2.12184356668432189e-01
16 51 2.28226673364937210e-01
17 51 2.44297924361680602e-01
18 51 2.60394744814138712e-01
19 51 2.76513707946602572e-01
20 51 2.92651326548077517e-01
21 51 3.08804054571298892e-01
22 51 3.24968288834875829e-01
23 51 3.41140370828384221e-01
24 51 3.57316588619958520e-01
25 51 3.73493178865743569e-01
26 51 3.89666328920268812e-01
27 51 4.05832179046617114e-01
28 51 4.21986824724965404e-01
29 51 4.38126319057840885e-01
30 51 4.54246675270173483e-01
31 51 4.70343869301970419e-01
32 51 4.86413842491174087e-01
33 51 5.02452504344001349e-01
34 51 5.18455735389814931e-01
35 51 5.34419390117323312e-01
36 51 5.50339299988613639e-01
37 51 5.66211276527341711e-01
38 51 5.82031114477088329e-01
39 51 5.97794595025701758e-01
40 51 6.13497489091179515e-01
41 51 6.29135560664467741e-01
42 51 6.44704570204258087e-01
43 51 6.60200278078772240e-01
44 51 6.75618448049222553e-01
45 51 6.90954850789519126e-01
46 51 7.06205267436614603e-01
47 51 7.21365493165717186e-01
48 51 7.36431340784445498e-01
49 51 7.51398644339921540e-01
50 51 7.66263262732646111e-01
51 51 7.81021083330919130e-01
52 51 7.95668025579515104e-01
53 51 8.10200044596244506e-01
54 51 8.24613134749992649e-01
55 51 8.38903333213844027e-01
56 51 8.53066723486859635e-01
57 51 8.67099438878087936e-01
58 51 8.80997665946504416e-01
59 51 8.94757647890538022e-01
60 51 9.08375687880964566e-01
61 51 9.21848152331073867e-01
62 51 9.35171474098069000e-01
63 51 9.48342155609845472e-01
64 51 9.61356771911416996e-01
65 51 9.74211973625462746e-01
66 51 9.86904489821602615e-01
67 51 9.99431130789277589e-01
68 51 1.01178879070927952e+00
69 51 1.02397445021925715e+00
70 51 1.03598517886871355e+00
71 51 1.04781813745934982e+00
72 51 1.05947058026682495e+00
73 51 1.07093985714030615e+00
74 51 1.08222341547650514e+00
75 51 1.09331880206515630e+00
76 51 1.10422366480324685e+00
77 51 1.11493575427561087e+00
78 51 1.12545292519980134e+00
79 51 1.13577313773356092e+00
80 51 1.14589445864341921e+00
81 51 1.15581506233341558e+00
82 51 1.16553323173315682e+00
83 51 1.17504735904485935e+00
84 51 1.18435594634925545e+00
85 51 1.19345760607064011e+00
86 51 1.20235106130164904e+00
87 51 1.21103514598863304e+00
88 51 1.21950880497883762e+00
89 51 1.22777109393090234e+00
90 51 1.23582117909047118e+00
91 51 1.24365833693297523e+00
92 51 1.25128195367596229e+00
93 51 1.25869152466357881e+00
94 51 1.26588665362604580e+00
95 51 1.27286705181725490e+00
96 51 1.27963253703377777e+00
97 51 1.28618303251882304e+00
98 51 1.29251856575485879e+00
99 51 1.29863926714883138e+00
100 51 1.30454536861396675e+00
101 51 1.31023720205246241e+00
102 51 1.31571519774334056e+00
103 51 1.32097988263996524e+00
104 51 1.32603187858179195e+00
105 51 1.33087190042495762e+00
106 51 1.33550075409651070e+00
107 51 1.33991933457697177e+00
108 51 1.34412862381614584e+00
109 51 1.34812968858693760e+00
110 51 1.35192367828211846e+00
111 51 1.35551182265883563e+00
112 51 1.35889542953576314e+00
113 51 1.36207588244767175e+00
114 51 1.36505463826223217e+00
115 51 1.36783322476375124e+00
116 51 1.37041323820851768e+00
117 51 1.37279634085634261e+00
118 51 1.37498425848281869e+00
119 51 1.37697877787666489e+00
120 51 1.37878174432653688e+00
121 51 1.38039505910144356e+00
122 51 1.38182067692888766e+00
123 51 1.38306060347467707e+00
124 51 1.38411689282824990e+00
125 51 1.38499164499719107e+00
126 51 1.38568700341452589e+00
127 51 1.38620515246214437e+00
128 51 1.38654831501369302e+00
129 51 1.38671875000000022e+00
130 51 1.38671875000000044e+00
1 52 0.00000000000000000e+00
2 52 7.72143797088056024e-03
3 52 2.31983875097297419e-02
4 52 3.87422565824499521e-02
5 52 5.43505620394358763e-02
6 52 7.00207479579844916e-02
7 52 8.57501858887428497e-02
8 52 1.01536175188793543e-01
9 52 1.17375943443548833e-01
10 52 1.33266646979515735e-01
11 52 1.49205371469884412e-01
12 52 1.65189132634751268e-01
13 52 1.81214877037665645e-01
14 52 1.97279482980029730e-01
15 52 2.13379761494733200e-01
16 52 2.29512457440232603e-01
17 52 2.45674250696112623e-01
18 52 2.61861757460978894e-01
19 52 2.78071531653344028e-01
20 52 2.94300066415954020e-01
21 52 3.10543795723813243e-01
22 52 3.26799096095917396e-01
23 52 3.43062288410515948e-01
24 52 3.59329639823451230e-01
25 52 3.75597365788930881e-01
26 52 3.91861632181791486e-01
27 52 4.08118557520119218e-01
28 52 4.24364215286796187e-01
29 52 4.40594636348307589e-01
30 52 4.56805811468878720e-01
31 52 4.72993693917756197e-01
32 52 4.89154202167180696e-01
33 52 5.05283222678333810e-01
34 52 5.21376612772292747e-01
35 52 5.37430203582773047e-01
36 52 5.53439803087141025e-01
37 52 5.69401199212002829e-01
38 52 5.85310163009353568e-01
39 52 6.01162451899085903e-01
40 52 6.16953812973383364e-01
41 52 6.32679986358352098e-01
42 52 6.48336708627944125e-01
43 52 6.63919716265131576e-01
44 52 6.79424749164992847e-01
45 52 6.94847554174248927e-01
46 52 7.10183888661609641e-01
47 52 7.25429524113129665e-01
48 52 7.40580249746611408e-01
49 52 7.55631876139019720e-01
50 52 7.70580238860717359e-01
51 52 7.85421202110248351e-01
52 52 8.00150662343343311e-01
53 52 8.14764551889744504e-01
54 52 8.29258842551401032e-01
55 52 8.43629549175612281e-01
56 52 8.57872733196644699e-01
57 52 8.71984506139372839e-01
58 52 8.85961033078597304e-01
59 52 8.99798536047667907e-01
60 52 9.13493297390153280e-01
61 52 9.27041663048431941e-01
62 52 9.40440045783128453e-01
63 52 9.53684928317506619e-01
64 52 9.66772866401058861e-01
65 52 9.79700491786732908e-01
66 52 9.92464515116372237e-01
67 52 1.00506172870921717e+00
68 52 1.01748900924848695e+00
69 52 1.02974332036133753e+00
70 52 1.04182171508769228e+00
71 52 1.05372133823376890e+00
72 52 1.06543942860635621e+00
73 52 1.07697332112419519e+00
74 52 1.08832044880313328e+00
75 52 1.09947834461200222e+00
76 52 1.11044464319650471e+00
77 52 1.12121708246871288e+00
78 52 1.13179350506008203e+00
79 52 1.14217185963628531e+00
80 52 1.15235020207239636e+00
81 52 1.16232669648740661e+00
82 52 1.17209961613728741e+00
83 52 1.18166734416623886e+00
84 52 1.19102837421601193e+00
85 52 1.20018131089357305e+00
86 52 1.20912487009771463e+00
87 52 1.21785787920547039e+00
88 52 1.22637927711956363e+00
89 52 1.23468811417840030e+00
90 52 1.24278355193041712e+00
91 52 1.25066486277485112e+00
92 52 1.25833142947131993e+00
93 52 1.26578274452083828e+00
94 52 1.27301840942112210e+00
95 52 1.28003813379932407e+00
96 52 1.28684173442551741e+00
97 52 1.29342913411047844e+00
98 52 1.29980036049150605e+00
99 52 1.30595554471023312e+00
100 52 1.31189491998643981e+00
101 52 1.31761882009219478e+00
102 52 1.32312767773062689e+00
103 52 1.32842202282385258e+00
104 52 1.33350248071464716e+00
105 52 1.33836977028650672e+00
106 52 1.34302470200691371e+00
107 52 1.34746817589853207e+00
108 52 1.35170117944327917e+00
109 52 1.35572478542404706e+00
110 52 1.35954014970906001e+00
111 52 1.36314850898367412e+00
112 52 1.36655117843455609e+00
113 52 1.36974954939103877e+00
114 52 1.37274508692849806e+00
115 52 1.37553932743847662e+00
116 52 1.37813387617025573e+00
117 52 1.38053040474849120e+00
118 52 1.38273064867145412e+00
119 52 1.38473640479428006e+00
120 52 1.38654952880161608e+00
121 52 1.38817193267384598e+00
122 52 1.38960558215102226e+00
123 52 1.39085249419847812e+00
124 52 1.39191473447798675e+00
125 52 1.39279441482816124e+00
126 52 1.39349369075770646e+00
127 52 1.39401475895488902e+00
128 52 1.39435985481658697e+00
129 52 1.39453125000000022e+00
130 52 1.39453125000000044e+00
1 53 0.00000000000000000e+00
2 53 7.76469532645972325e-03
3 53 2.33283504649663201e-02
4 53 3.89593000366933659e-02
5 53 5.46550469808332814e-02
6 53 7.04130210557883385e-02
7 53 8.62305790869991040e-02
8 53 1.02105005301896021e-01
9 53 1.18033511754156967e-01
10 53 1.34013238839344961e-01
11 53 1.50041255903889337e-01
12 53 1.66114561949231659e-01
13 53 1.82230086432834670e-01
14 53 1.98384690167592914e-01
15 53 2.14575166321034211e-01
16 53 2.30798241515528024e-01
17 53 2.47050577030544616e-01
18 53 2.63328770107819077e-01
19 53 2.79629355360085485e-01
20 53 2.95948806283830523e-01
21 53 3.12283536876327539e-01
22 53 3.28629903356958908e-01
23 53 3.44984205992647674e-01
24 53 3.61342691026943996e-01
25 53 3.77701552712118138e-01
26 53 3.94056935443314049e-01
27 53 4.10404935993621323e-01
28 53 4.26741605848626970e-01
29 53 4.43062953638774348e-01
30 53 4.59364947667583901e-01
31 53 4.75643518533541976e-01
32 53 4.91894561843187306e-01
33 53 5.08113941012666270e-01
34 53 5.24297490154770562e-01
35 53 5.40441017048222783e-01
36 53 5.56540306185668410e-01
37 53 5.72591121896663946e-01
38 53 5.88589211541618806e-01
39 53 6.04530308772470271e-01
40 53 6.20410136855587213e-01
41 53 6.36224412052236454e-01
42 53 6.51968847051630052e-01
43 53 6.67639154451490802e-01
44 53 6.83231050280763141e-01
45 53 6.98740257558978728e-01
46 53 7.14162509886604568e-01
47 53 7.29493555060542143e-01
48 53 7.44729158708777206e-01
49 53 7.59865107938117901e-01
50 53 7.74897214988788607e-01
51 53 7.89821320889577572e-01
52 53 8.04633299107171518e-01
53 53 8.19329059183244390e-01
54 53 8.33904550352809415e-01
55 53 8.48355765137380424e-01
56 53 8.62678742906429874e-01
57 53 8.76869573400657853e-01
58 53 8.90924400210690415e-01
59 53 9.04839424204797682e-01
60 53 9.18610906899341995e-01
61 53 9.32235173765790126e-01
62 53 9.45708617468187906e-01
63 53 9.59027701025167656e-01
64 53 9.72188960890700726e-01
65 53 9.85189009948002958e-01
66 53 9.98024540411141747e-01
67 53 1.01069232662915676e+00
68 53 1.02318922778769394e+00
69 53 1.03551219050341770e+00
70 53 1.04765825130667101e+00
71 53 1.05962453900818776e+00
72 53 1.07140827694588769e+00
73 53 1.08300678510808424e+00
74 53 1.09441748212976142e+00
75 53 1.10563788715884814e+00
76 53 1.11666562158976235e+00
77 53 1.12749841066181489e+00
78 53 1.13813408492036250e+00
79 53 1.14857058153900971e+00
80 53 1.15880594550137328e+00
81 53 1.16883833064139764e+00
82 53 1.17866600054141779e+00
83 53 1.18828732928761838e+00
84 53 1.19770080208276819e+00
85 53 1.20690501571650621e+00
86 53 1.21589867889378023e+00
87 53 1.22468061242230775e+00
88 53 1.23324974926028941e+00
89 53 1.24160513442589848e+00
90 53 1.24974592477036350e+00
91 53 1.25767138861672700e+00
92 53 1.26538090526667757e+00
93 53 1.27287396437809774e+00
94 53 1.28015016521619862e+00
95 53 1.28720921578139302e+00
96 53 1.29405093181725683e+00
97 53 1.30067523570213361e+00
98 53 1.30708215522815308e+00
99 53 1.31327182227163508e+00
100 53 1.31924447135891265e+00
101 53 1.32500043813192692e+00
102 53 1.33054015771791323e+00
103 53 1.33586416300773969e+00
104 53 1.34097308284750238e+00
105 53 1.34586764014805582e+00
106 53 1.35054864991731649e+00
107 53 1.35501701722009238e+00
108 53 1.35927373507041249e+00
109 53 1.36331988226115652e+00
110 53 1.36715662113600178e+00
111 53 1.37078519530851262e+00
112 53 1.37420692733334926e+00
113 53 1.37742321633440579e+00
114 53 1.38043553559476417e+00
115 53 1.38324543011320178e+00
116 53 1.38585451413199379e+00
117 53 1.38826446864063957e+00
118 53 1.39047703886008978e+00
119 53 1.39249403171189479e+00
120 53 1.39431731327669528e+00
121 53 1.39594880624624840e+00
122 53 1.39739048737315663e+00
123 53 1.39864438492227894e+00
124 53 1.39971257612772360e+00
125 53 1.40059718465913141e+00
126 53 1.40130037810088703e+00
127 53 1.40182436544763345e+00
128 53 1.40217139461948093e+00
129 53 1.40234375000000022e+00
130 53 1.40234375000000044e+00
1 54 0.00000000000000000e+00
2 54 7.80795268203888625e-03
3 54 2.34583134202029017e-02
4 54 3.91763434909367797e-02
5 54 5.49595319222306866e-02
6 54 7.08052941535921715e-02
7 54 8.67109722852553583e-02
8 54 1.02673835414998499e-01
9 54 1.18691080064765073e-01
10 54 1.34759830699174188e-01
11 54 1.50877140337894289e-01
12 54 1.67039991263712079e-01
13 54 1.83245295828003696e-01
14 54 1.99489897355156071e-01
15 54 2.15770571147335194e-01
16 54 2.32084025590823445e-01
17 54 2.48426903364976637e-01
18 54 2.64795782754659315e-01
19 54 2.81187179066826942e-01
20 54 2.97597546151707026e-01
21 54 3.14023278028841890e-01
22 54 3.30460710618000419e-01
23 54 3.46906123574779401e-01
24 54 3.63355742230436762e-01
25 54 3.79805739635305450e-01
26 54 3.96252238704836723e-01
27 54 4.12691314467123427e-01
28 54 4.29118996410457754e-01
29 54 4.45531270929241052e-01
30 54 4.61924083866289026e-01
31 54 4.78293343149327699e-01
32 54 4.94634921519193915e-01
33 54 5.10944659346998620e-01
34 54 5.27218367537248378e-01
35 54 5.43451830513672518e-01
36 54 5.59640809284195795e-01
37 54 5.75781044581324952e-01
38 54 5.91868260073884156e-01
39 54 6.07898165645854527e-01
40 54 6.23866460737791062e-01
41 54 6.39768837746120700e-01
42 54 6.55600985475315978e-01
43 54 6.71358592637850138e-01
44 54 6.87037351396533325e-01
45 54 7.02632960943708418e-01
46 54 7.18141131111599496e-01
47 54 7.33557586007954621e-01
48 54 7.48878067670943115e-01
49 54 7.64098339737215970e-01
50 54 7.79214191116859745e-01
51 54 7.94221439668906792e-01
52 54 8.09115935870999836e-01
53 54 8.23893566476744388e-01
54 54 8.38550258154217909e-01
55 54 8.53081981099148678e-01
56 54 8.67484752616214938e-01
57 54 8.81754640661942757e-01
58 54 8.95887767342783414e-01
59 54 9.09880312361927568e-01
60 54 9.23728516408530598e-01
61 54 9.37428684483148311e-01
62 54 9.50977189153247471e-01
63 54 9.64370473732828803e-01
64 54 9.77605055380342480e-01
65 54 9.90677528109273120e-01
66 54 1.00358456570591126e+00
67 54 1.01632292454909612e+00
68 54 1.02888944632690116e+00
69 54 1.04128106064549786e+00
70 54 1.05349478752564973e+00
71 54 1.06552773978260662e+00
72 54 1.07737712528541896e+00
73 54 1.08904024909197328e+00
74 54 1.10051451545638956e+00
75 54 1.11179742970569406e+00
76 54 1.12288659998302021e+00
77 54 1.13377973885491690e+00
78 54 1.14447466478064319e+00
79 54 1.15496930344173387e+00
80 54 1.16526168893035043e+00
81 54 1.17534996479538867e+00
82 54 1.18523238494554817e+00
83 54 1.19490731440899767e+00
84 54 1.20437322994952445e+00
85 54 1.21362872053943960e+00
86 54 1.22267248768984582e+00
87 54 1.23150334563914532e+00
88 54 1.24012022140101519e+00
89 54 1.24852215467339644e+00
90 54 1.25670829761031011e+00
91 54 1.26467791445860311e+00
92 54 1.27243038106203521e+00
93 54 1.27996518423535721e+00
94 54 1.28728192101127492e+00
95 54 1.29438029776346197e+00
96 54 1.30126012920899647e+00
97 54 1.30792133729378901e+00
98 54 1.31436394996480010e+00
99 54 1.32058809983303682e+00
100 54 1.32659402273138549e+00
101 54 1.33238205617165906e+00
102 54 1.33795263770519979e+00
103 54 1.34330630319162680e+00
104 54 1.34844368498035738e+00
105 54 1.35336551000960514e+00
106 54 1.35807259782771950e+00
107 54 1.36256585854165291e+00
108 54 1.36684629069754582e+00
109 54 1.37091497909826598e+00
110 54 1.37477309256294333e+00
111 54 1.37842188163335133e+00
112 54 1.38186267623214221e+00
113 54 1.38509688327777303e+00
114 54 1.38812598426103029e+00
115 54 1.39095153278792716e+00
116 54 1.39357515209373206e+00
117 54 1.39599853253278816e+00
118 54 1.39822342904872521e+00
119 54 1.40025165862950995e+00
120 54 1.40208509775177448e+00
121 54 1.40372567981865082e+00
122 54 1.40517539259529145e+00
123 54 1.40643627564607998e+00
124 54 1.40751041777746022e+00
125 54 1.40839995449010158e+00
126 54 1.40910706544406761e+00
127 54 1.40963397194037787e+00
128 54 1.40998293442237488e+00
129 54 1.41015625000000000e+00
130 54 1.41015625000000044e+00
1 55 0.00000000000000000e+00
2 55 7.85121003761805013e-03
3 55 2.35882763754394834e-02
4 55 3.93933869451802005e-02
5 55 5.52640168636280849e-02
6 55 7.11975672513960045e-02
7 55 8.71913654835116264e-02
8 55 1.03242665528100991e-01
9 55 1.19348648375373192e-01
10 55 1.35506422559003442e-01
11 55 1.51713024771899213e-01
12 55 1.67965420578192470e-01
13 55 1.84260505223172694e-01
14 55 2.00595104542719255e-01
15 55 2.16965975973636233e-01
16 55 2.33369809666118866e-01
17 55 2.49803229699408630e-01
18 55 2.66262795401499497e-01
19 55 2.82745002773568344e-01
20 55 2.99246286019583529e-01
21 55 3.15763019181356186e-01
22 55 3.32291517879041987e-01
23 55 3.48828041156911128e-01
24 55 3.65368793433929473e-01
25 55 3.81909926558492763e-01
26 55 3.98447541966359342e-01
27 55 4.14977692940625420e-01
28 55 4.31496386972288593e-01
29 55 4.47999588219707756e-01
30 55 4.64483220064994207e-01
31 55 4.80943167765113422e-01
32 55 4.97375281195200525e-01
33 55 5.13775377681331080e-01
34 55 5.30139244919726194e-01
35 55 5.46462643979122142e-01
36 55 5.62741312382723180e-01
37 55 5.78970967265986070e-01
38 55 5.95147308606149394e-01
39 55 6.11266022519238672e-01
40 55 6.27322784619994800e-01
41 55 6.43313263440004945e-01
42 55 6.59233123899001905e-01
43 55 6.75078030824209363e-01
44 55 6.90843652512303730e-01
45 55 7.06525664328438108e-01
46 55 7.22119752336594534e-01
47 55 7.37621616955367099e-01
48 55 7.53026976633109135e-01
49 55 7.68331571536314040e-01
50 55 7.83531167244930993e-01
51 55 7.98621558448235791e-01
52 55 8.13598572634828043e-01
53 55 8.28458073770244385e-01
54 55 8.43195965955626292e-01
55 55 8.57808197060916822e-01
56 55 8.72290762326000113e-01
57 55 8.86639707923227771e-01
58 55 9.00851134474876414e-01
59 55 9.14921200519057343e-01
60 55 9.28846125917719201e-01
61 55 9.42622195200506385e-01
62 55 9.56245760838307035e-01
63 55 9.69713246440489840e-01
64 55 9.83021149869984345e-01
65 55 9.96166046270543282e-01
66 55 1.00914459100068088e+00
67 55 1.02195352246903570e+00
68 55 1.03458966486610837e+00
69 55 1.04704993078757824e+00
70 55 1.05933132374462846e+00
71 55 1.07143094055702548e+00
72 55 1.08334597362495022e+00
73 55 1.09507371307586232e+00
74 55 1.10661154878301771e+00
75 55 1.11795697225253998e+00
76 55 1.12910757837627784e+00
77 55 1.14006106704801891e+00
78 55 1.15081524464092366e+00
79 55 1.16136802534445804e+00
80 55 1.17171743235932735e+00
81 55 1.18186159894937992e+00
82 55 1.19179876934967877e+00
83 55 1.20152729953037740e+00
84 55 1.21104565781628093e+00
85 55 1.22035242536237254e+00
86 55 1.22944629648591119e+00
87 55 1.23832607885598267e+00
88 55 1.24699069354174097e+00
89 55 1.25543917492089463e+00
90 55 1.26367067045025627e+00
91 55 1.27168444030047900e+00
92 55 1.27947985685739263e+00
93 55 1.28705640409261690e+00
94 55 1.29441367680635100e+00
95 55 1.30155137974553092e+00
96 55 1.30846932660073589e+00
97 55 1.31516743888544441e+00
98 55 1.32164574470144736e+00
99 55 1.32790437739443878e+00
100 55 1.33394357410385855e+00
101 55 1.33976367421139142e+00
102 55 1.34536511769248612e+00
103 55 1.35074844337551392e+00
104 55 1.35591428711321260e+00
105 55 1.36086337987115424e+00
106 55 1.36559654573812228e+00
107 55 1.37011469986321344e+00
108 55 1.37441884632467892e+00
109 55 1.37851007593537545e+00
110 55 1.38238956398988488e+00
111 55 1.38605856795818982e+00
112 55 1.38951842513093515e+00
113 55 1.39277055022114027e+00
114 55 1.39581643292729640e+00
115 55 1.39865763546265254e+00
116 55 1.40129579005547011e+00
117 55 1.40373259642493653e+00
118 55 1.40596981923736064e+00
119 55 1.40800928554712490e+00
120 55 1.40985288222685345e+00
121 55 1.41150255339105324e+00
122 55 1.41296029781742605e+00
123 55 1.41422816636988102e+00
124 55 1.41530825942719685e+00
125 55 1.41620272432107175e+00
126 55 1.41691375278724796e+00
127 55 1.41744357843312230e+00
128 55 1.41779447422526883e+00
129 55 1.41796875000000022e+00
130 55 1.41796875000000022e+00
1 56 0.00000000000000000e+00
2 56 7.89446739319721313e-03
3 56 2.37182393306760650e-02
4 56 3.96104303994236143e-02
5 56 5.55685018050254900e-02
6 56 7.15898403491998514e-02
7 56 8.76717586817678945e-02
8 56 1.03811495641203469e-01
9 56 1.20006216685981312e-01
10 56 1.36253014418832669e-01
11 56 1.52548909205904137e-01
12 56 1.68890849892672890e-01
13 56 1.85275714618341691e-01
14 56 2.01700311730282439e-01
15 56 2.18161380799937271e-01
16 56 2.34655593741414287e-01
17 56 2.51179556033840623e-01
18 56 2.67729808048339679e-01
19 56 2.84302826480309745e-01
20 56 3.00895025887460033e-01
21 56 3.17502760333870593e-01
22 56 3.34122325140083554e-01
23 56 3.50749958739042855e-01
24 56 3.67381844637422239e-01
25 56 3.84014113481680019e-01
26 56 4.00642845227882016e-01
27 56 4.17264071414127524e-01
28 56 4.33873777534119320e-01
29 56 4.50467905510174516e-01
30 56 4.67042356263699443e-01
31 56 4.83592992380899145e-01
32 56 5.00115640871207079e-01
33 56 5.16606096015663430e-01
34 56 5.33060122302204120e-01
35 56 5.49473457444571878e-01
36 56 5.65841815481250565e-01
37 56 5.82160889950647187e-01
38 56 5.98426357138414633e-01
39 56 6.14633879392622817e-01
40 56 6.30779108502198649e-01
41 56 6.46857689133889191e-01
42 56 6.62865262322687832e-01
43 56 6.78797469010568699e-01
44 56 6.94649953628074024e-01
45 56 7.10418367713167798e-01
46 56 7.26098373561589461e-01
47 56 7.41685647902779577e-01
48 56 7.57175885595275044e-01
49 56 7.72564803335412109e-01
50 56 7.87848143373002130e-01
51 56 8.03021677227564790e-01
52 56 8.18081209398656251e-01
53 56 8.33022581063744383e-01
54 56 8.47841673757034675e-01
55 56 8.62534413022685076e-01
56 56 8.77096772035785288e-01
57 56 8.91524775184512674e-01
58 56 9.05814501606969524e-01
59 56 9.19962088676187006e-01
60 56 9.33963735426907804e-01
61 56 9.47815705917864681e-01
62 56 9.61514332523366599e-01
63 56 9.75056019148150876e-01
64 56 9.88437244359626099e-01
65 56 1.00165456443181355e+00
66 56 1.01470461629545050e+00
67 56 1.02758412038897529e+00
68 56 1.04028988340531559e+00
69 56 1.05281880092965863e+00
70 56 1.06516785996360719e+00
71 56 1.07733414133144434e+00
72 56 1.08931482196448171e+00
73 56 1.10110717705975136e+00
74 56 1.11270858210964585e+00
75 56 1.12411651479938590e+00
76 56 1.13532855676953570e+00
77 56 1.14634239524112092e+00
78 56 1.15715582450120436e+00
79 56 1.16776674724718221e+00
80 56 1.17817317578830449e+00
81 56 1.18837323310337095e+00
82 56 1.19836515375380914e+00
83 56 1.20814728465175669e+00
84 56 1.21771808568303719e+00
85 56 1.22707613018530570e+00
86 56 1.23622010528197679e+00
87 56 1.24514881207282002e+00
88 56 1.25386116568246697e+00
89 56 1.26235619516839281e+00
90 56 1.27063304329020244e+00
91 56 1.27869096614235489e+00
92 56 1.28652933265275005e+00
93 56 1.29414762394987637e+00
94 56 1.30154543260142730e+00
95 56 1.30872246172759987e+00
96 56 1.31567852399247576e+00
97 56 1.32241354047709980e+00
98 56 1.32892753943809416e+00
99 56 1.33522065495584075e+00
100 56 1.34129312547633162e+00
101 56 1.34714529225112378e+00
102 56 1.35277759767977246e+00
103 56 1.35819058355940103e+00
104 56 1.36338488924606782e+00
105 56 1.36836124973270334e+00
106 56 1.37312049364852506e+00
107 56 1.37766354118477374e+00
108 56 1.38199140195181203e+00
109 56 1.38610517277248513e+00
110 56 1.39000603541682644e+00
111 56 1.39369525428302832e+00
112 56 1.39717417402972810e+00
113 56 1.40044421716450729e+00
114 56 1.40350688159356274e+00
115 56 1.40636373813737769e+00
116 56 1.40901642801720817e+00
117 56 1.41146666031708490e+00
118 56 1.41371620942599630e+00
119 56 1.41576691246473985e+00
120 56 1.41762066670193243e+00
121 56 1.41927942696345566e+00
122 56 1.42074520303956042e+00
123 56 1.42202005709368184e+00
124 56 1.42310610107693347e+00
125 56 1.42400549415204214e+00
126 56 1.42472044013042831e+00
127 56 1.42525318492586672e+00
128 56 1.42560601402816300e+00
129 56 1.42578125000000044e+00
130 56 1.42578125000000022e+00
1 57 0.00000000000000000e+00
2 57 7.93772474877637788e-03
3 57 2.38482022859126466e-02
4 57 3.98274738536670281e-02
5 57 5.58729867464228883e-02
6 57 7.19821134470036983e-02
7 57 8.81521518800241627e-02
8 57 1.04380325754305961e-01
9 57 1.20663784996589432e-01
10 57 1.36999606278661895e-01
11 57 1.53384793639909117e-01
12 57 1.69816279207153253e-01
13 57 1.86290924013510661e-01
14 57 2.02805518917845595e-01
15 57 2.19356785626238310e-01
16 57 2.35941377816709708e-01
17 57 2.52555882368272644e-01
18 57 2.69196820695179917e-01
19 57 2.85860650187051202e-01
20 57 3.02543765755336536e-01
21 57 3.19242501486384944e-01
22 57 3.35953132401125121e-01
23 57 3.52671876321174582e-01
24 57 3.69394895840914950e-01
25 57 3.86118300404867332e-01
26 57 4.02838148489404635e-01
27 57 4.19550449887629573e-01
28 57 4.36251168095950104e-01
29 57 4.52936222800641219e-01
30 57 4.69601492462404624e-01
31 57 4.86242816996684979e-01
32 57 5.02856000547213688e-01
33 57 5.19436814349995779e-01
34 57 5.35980999684682047e-01
35 57 5.52484270910021613e-01
36 57 5.68942318579777950e-01
37 57 5.85350812635308304e-01
38 57 6.01705405670679871e-01
39 57 6.18001736266006962e-01
40 57 6.34235432384402387e-01
41 57 6.50402114827773437e-01
42 57 6.66497400746373758e-01
43 57 6.82516907196928035e-01
44 57 6.98456254743844318e-01
45 57 7.14311071097897488e-01
46 57 7.30076994786584499e-01
47 57 7.45749678850192055e-01
48 57 7.61324794557440954e-01
49 57 7.76798035134510179e-01
50 57 7.92165119501073378e-01
51 57 8.07421796006893899e-01
52 57 8.22563846162484569e-01
53 57 8.37587088357244380e-01
54 57 8.52487381558443058e-01
55 57 8.67260628984453219e-01
56 57 8.81902781745570352e-01
57 57 8.96409842445797689e-01
58 57 9.10777868739062413e-01
59 57 9.25002976833316781e-01
60 57 9.39081344936096296e-01
61 57 9.53009216635222867e-01
62 57 9.66782904208426164e-01
63 57 9.80398791855812024e-01
64 57 9.93853338849267964e-01
65 57 1.00714308259308383e+00
66 57 1.02026464159022012e+00
67 57 1.03321471830891487e+00
68 57 1.04599010194452280e+00
69 57 1.05858767107173901e+00
70 57 1.07100439618258569e+00
71 57 1.08323734210586320e+00
72 57 1.09528367030401319e+00
73 57 1.10714064104364041e+00
74 57 1.11880561543627399e+00
75 57 1.13027605734623182e+00
76 57 1.14154953516279334e+00
77 57 1.15262372343422292e+00
78 57 1.16349640436148505e+00
79 57 1.17416546914990638e+00
80 57 1.18462891921728164e+00
81 57 1.19488486725736198e+00
82 57 1.20493153815793974e+00
83 57 1.21476726977313643e+00
84 57 1.22439051354979367e+00
85 57 1.23379983500823887e+00
86 57 1.24299391407804238e+00
87 57 1.25197154528965737e+00
88 57 1.26073163782319297e+00
89 57 1.26927321541589078e+00
90 57 1.27759541613014882e+00
91 57 1.28569749198423100e+00
92 57 1.29357880844810746e+00
93 57 1.30123884380713584e+00
94 57 1.30867718839650360e+00
95 57 1.31589354370966904e+00
96 57 1.32288772138421540e+00
97 57 1.32965964206875520e+00
98 57 1.33620933417474141e+00
99 57 1.34253693251724249e+00
100 57 1.34864267684880490e+00
101 57 1.35452691029085615e+00
102 57 1.36019007766705857e+00
103 57 1.36563272374328837e+00
104 57 1.37085549137892326e+00
105 57 1.37585911959425222e+00
106 57 1.38064444155892785e+00
107 57 1.38521238250633427e+00
108 57 1.38956395757894513e+00
109 57 1.39370026960959481e+00
110 57 1.39762250684376776e+00
111 57 1.40133194060786681e+00
112 57 1.40482992292852127e+00
113 57 1.40811788410787453e+00
114 57 1.41119733025982885e+00
115 57 1.41406984081210285e+00
116 57 1.41673706597894622e+00
117 57 1.41920072420923327e+00
118 57 1.42146259961463173e+00
119 57 1.42352453938235457e+00
120 57 1.42538845117701163e+00
121 57 1.42705630053585808e+00
122 57 1.42853010826169524e+00
123 57 1.42981194781748289e+00
124 57 1.43090394272666988e+00
125 57 1.43180826398301231e+00
126 57 1.43252712747360866e+00
127 57 1.43306279141861137e+00
128 57 1.43341755383105696e+00
129 57 1.43359375000000044e+00
130 57 1.43359375000000022e+00
1 58 0.00000000000000000e+00
2 58 7.98098210435554088e-03
3 58 2.39781652411492283e-02
4 58 4.00445173079104488e-02
5 58 5.61774716878202865e-02
6 58 7.23743865448075452e-02
7 58 8.86325450782804308e-02
8 58 1.04949155867408439e-01
9 58 1.21321353307197552e-01
10 58 1.37746198138491122e-01
11 58 1.54220678073914069e-01
12 58 1.70741708521633645e-01
13 58 1.87306133408679659e-01
14 58 2.03910726105408779e-01
15 58 2.20552190452539348e-01
16 58 2.37227161892005156e-01
17 58 2.53932208702704609e-01
18 58 2.70663833342020155e-01
19 58 2.87418473893792603e-01
20 58 3.04192505623212983e-01
21 58 3.20982242638899296e-01
22 58 3.37783939662166688e-01
23 58 3.54593793903306309e-01
24 58 3.71407947044407660e-01
25 58 3.88222487328054588e-01
26 58 4.05033451750927309e-01
27 58 4.21836828361131622e-01
28 58 4.38628558657780887e-01
29 58 4.55404540091107923e-01
30 58 4.72160628661109805e-01
31 58 4.88892641612470702e-01
32 58 5.05596360223220298e-01
33 58 5.22267532684328128e-01
34 58 5.38901877067159862e-01
35 58 5.55495084375471349e-01
36 58 5.72042821678305335e-01
37 58 5.88540735319969310e-01
38 58 6.04984454202945221e-01
39 58 6.21369593139391219e-01
40 58 6.37691756266606236e-01
41 58 6.53946540521657793e-01
42 58 6.70129539170059796e-01
43 58 6.86236345383287372e-01
44 58 7.02262555859614501e-01
45 58 7.18203774482627177e-01
46 58 7.34055616011579648e-01
47 58 7.49813709797604533e-01
48 58 7.65473703519606863e-01
49 58 7.81031266933608359e-01
50 58 7.96482095629144626e-01
51 58 8.11821914786223120e-01
52 58 8.27046482926312887e-01
53 58 8.42151595650744378e-01
54 58 8.57133089359851441e-01
55 58 8.71986844946221473e-01
56 58 8.86708791455355527e-01
57 58 9.01294909707082592e-01
58 58 9.15741235871155412e-01
59 58 9.30043864990446556e-01
60 58 9.44198954445284899e-01
61 58 9.58202727352580941e-01
62 58 9.72051475893485728e-01
63 58 9.85741564563473061e-01
64 58 9.99269433338909607e-01
65 58 1.01263160075435410e+00
66 58 1.02582466688498974e+00
67 58 1.03884531622885445e+00
68 58 1.05169032048373001e+00
69 58 1.06435654121381940e+00
70 58 1.07684093240156420e+00
71 58 1.08914054288028228e+00
72 58 1.10125251864354468e+00
73 58 1.11317410502752945e+00
74 58 1.12490264876290236e+00
75 58 1.13643559989307774e+00
76 58 1.14777051355605098e+00
77 58 1.15890505162732493e+00
78 58 1.16983698422176574e+00
79 58 1.18056419105263077e+00
80 58 1.19108466264625856e+00
81 58 1.20139650141135301e+00
82 58 1.21149792256207034e+00
83 58 1.22138725489451616e+00
84 58 1.23106294141654993e+00
85 58 1.24052353983117225e+00
86 58 1.24976772287410820e+00
87 58 1.25879427850649450e+00
88 58 1.26760210996391876e+00
89 58 1.27619023566338896e+00
90 58 1.28455778897009520e+00
91 58 1.29270401782610689e+00
92 58 1.30062828424346510e+00
93 58 1.30833006366439575e+00
94 58 1.31580894419157990e+00
95 58 1.32306462569173799e+00
96 58 1.33009691877595504e+00
97 58 1.33690574366041037e+00
98 58 1.34349112891138867e+00
99 58 1.34985321007864423e+00
100 58 1.35599222822127774e+00
101 58 1.36190852833058829e+00
102 58 1.36760255765434513e+00
103 58 1.37307486392717548e+00
104 58 1.37832609351177848e+00
105 58 1.38335698945580132e+00
106 58 1.38816838946933063e+00
107 58 1.39276122382789458e+00
108 58 1.39713651320607823e+00
109 58 1.40129536644670449e+00
110 58 1.40523897827070909e+00
111 58 1.40896862693270530e+00
112 58 1.41248567182731422e+00
113 58 1.41579155105124155e+00
114 58 1.41888777892609474e+00
115 58 1.42177594348682823e+00
116 58 1.42445770394068449e+00
117 58 1.42693478810138163e+00
118 58 1.42920898980326716e+00
119 58 1.43128216629996952e+00
120 58 1.43315623565209060e+00
121 58 1.43483317410826050e+00
122 58 1.43631501348382962e+00
123 58 1.43760383854128393e+00
124 58 1.43870178437640650e+00
125 58 1.43961103381398248e+00
126 58 1.44033381481678924e+00
127 58 1.44087239791135557e+00
128 58 1.44122909363395113e+00
129 58 1.44140625000000044e+00
130 58 1.44140625000000022e+00
1 59 0.00000000000000000e+00
2 59 8.02423945993470215e-03
3 59 2.41081281963858099e-02
4 59 4.02615607621538626e-02
5 59 5.64819566292176917e-02
6 59 7.27666596426113782e-02
7 59 8.91129382765366990e-02
8 59 1.05517985980510931e-01
9 59 1.21978921617805672e-01
10 59 1.38492789998320320e-01
11 59 1.55056562507919021e-01
12 59 1.71667137836114037e-01
13 59 1.88321342803848657e-01
14 59 2.05015933292971964e-01
15 59 2.21747595278840387e-01
16 59 2.38512945967300549e-01
17 59 2.55308535037136630e-01
18 59 2.72130845988860337e-01
19 59 2.88976297600534004e-01
20 59 3.05841245491089431e-01
21 59 3.22721983791413647e-01
22 59 3.39614746923208199e-01
23 59 3.56515711485438036e-01
24 59 3.73420998247900426e-01
25 59 3.90326674251241845e-01
26 59 4.07228755012449983e-01
27 59 4.24123206834633670e-01
28 59 4.41005949219611670e-01
29 59 4.57872857381574627e-01
30 59 4.74719764859814986e-01
31 59 4.91542466228256425e-01
32 59 5.08336719899226908e-01
33 59 5.25098251018660478e-01
34 59 5.41822754449637678e-01
35 59 5.58505897840920973e-01
36 59 5.75143324776832832e-01
37 59 5.91730658004630428e-01
38 59 6.08263502735210571e-01
39 59 6.24737450012775475e-01
40 59 6.41148080148810084e-01
41 59 6.57490966215542150e-01
42 59 6.73761677593745723e-01
43 59 6.89955783569646708e-01
44 59 7.06068856975384684e-01
45 59 7.22096477867356978e-01
46 59 7.38034237236574686e-01
47 59 7.53877740745016900e-01
48 59 7.69622612481772772e-01
49 59 7.85264498732706429e-01
50 59 8.00799071757215764e-01
51 59 8.16222033565552230e-01
52 59 8.31529119690141094e-01
53 59 8.46716102944244486e-01
54 59 8.61778797161259935e-01
55 59 8.76713060907989616e-01
56 59 8.91514801165140591e-01
57 59 9.06179976968367606e-01
58 59 9.20704603003248412e-01
59 59 9.35084753147576331e-01
60 59 9.49316563954473391e-01
61 59 9.63396238069939015e-01
62 59 9.77320047578545070e-01
63 59 9.91084337271134208e-01
64 59 1.00468552782855136e+00
65 59 1.01812011891562437e+00
66 59 1.03138469217975937e+00
67 59 1.04447591414879404e+00
68 59 1.05739053902293723e+00
69 59 1.07012541135589956e+00
70 59 1.08267746862054270e+00
71 59 1.09504374365470114e+00
72 59 1.10722136698307616e+00
73 59 1.11920756901141849e+00
74 59 1.13099968208953050e+00
75 59 1.14259514243992366e+00
76 59 1.15399149194930861e+00
77 59 1.16518637982042694e+00
78 59 1.17617756408204643e+00
79 59 1.18696291295535516e+00
80 59 1.19754040607523571e+00
81 59 1.20790813556534382e+00
82 59 1.21806430696620094e+00
83 59 1.22800724001589567e+00
84 59 1.23773536928330641e+00
85 59 1.24724724465410541e+00
86 59 1.25654153167017357e+00
87 59 1.26561701172333185e+00
88 59 1.27447258210464454e+00
89 59 1.28310725591088692e+00
90 59 1.29152016181004159e+00
91 59 1.29971054366798278e+00
92 59 1.30767776003882252e+00
93 59 1.31542128352165544e+00
94 59 1.32294069998665620e+00
95 59 1.33023570767380694e+00
96 59 1.33730611616769468e+00
97 59 1.34415184525206577e+00
98 59 1.35077292364803592e+00
99 59 1.35716948764004619e+00
100 59 1.36334177959375080e+00
101 59 1.36929014637032065e+00
102 59 1.37501503764163124e+00
103 59 1.38051700411106260e+00
104 59 1.38579669564463370e+00
105 59 1.39085485931735042e+00
106 59 1.39569233737973364e+00
107 59 1.40031006514945511e+00
108 59 1.40470906883321134e+00
109 59 1.40889046328381395e+00
110 59 1.41285544969765064e+00
111 59 1.41660531325754357e+00
112 59 1.42014142072610716e+00
113 59 1.42346521799460879e+00
114 59 1.42657822759236086e+00
115 59 1.42948204616155361e+00
116 59 1.43217834190242255e+00
117 59 1.43466885199353000e+00
118 59 1.43695537999190281e+00
119 59 1.43903979321758446e+00
120 59 1.44092402012716980e+00
121 59 1.44261004768066314e+00
122 59 1.44409991870596421e+00
123 59 1.44539572926508497e+00
124 59 1.44649962602614290e+00
125 59 1.44741380364495265e+00
126 59 1.44814050215996981e+00
127 59 1.44868200440410000e+00
128 59 1.44904063343684530e+00
129 59 1.44921875000000067e+00
130 59 1.44921875000000022e+00
1 60 0.00000000000000000e+00
2 60 8.06749681551386516e-03
3 60 2.42380911516223915e-02
4 60 4.04786042163972834e-02
5 60 5.67864415706150899e-02
6 60 7.31589327404152251e-02
7 60 8.95933314747929671e-02
8 60 1.06086816093613437e-01
9 60 1.22636489928413778e-01
10 60 1.39239381858149547e-01
11 60 1.55892446941924001e-01
12 60 1.72592567150594456e-01
13 60 1.89336552199017655e-01
14 60 2.06121140480535148e-01
15 60 2.22943000105141453e-01
16 60 2.39798730042595970e-01
17 60 2.56684861371568651e-01
18 60 2.73597858635700519e-01
19 60 2.90534121307275406e-01
20 60 3.07489985358965934e-01
21 60 3.24461724943927998e-01
22 60 3.41445554184249767e-01
23 60 3.58437629067569707e-01
24 60 3.75434049451393137e-01
25 60 3.92430861174429158e-01
26 60 4.09424058273972602e-01
27 60 4.26409585308135775e-01
28 60 4.43383339781442454e-01
29 60 4.60341174672041276e-01
30 60 4.77278901058520222e-01
31 60 4.94192290844042204e-01
32 60 5.11077079575233517e-01
33 60 5.27928969352992938e-01
34 60 5.44743631832115494e-01
35 60 5.61516711306370708e-01
36 60 5.78243827875360217e-01
37 60 5.94920580689291545e-01
38 60 6.11542551267475920e-01
39 60 6.28105306886159731e-01
40 60 6.44604404031013933e-01
41 60 6.61035391909426395e-01
42 60 6.77393816017431649e-01
43 60 6.93675221756006044e-01
44 60 7.09875158091154868e-01
45 60 7.25989181252086557e-01
46 60 7.42012858461569724e-01
47 60 7.57941771692429378e-01
48 60 7.73771521443938681e-01
49 60 7.89497730531804609e-01
50 60 8.05116047885287012e-01
51 60 8.20622152344881339e-01
52 60 8.36011756453969412e-01
53 60 8.51280610237744484e-01
54 60 8.66424504962668429e-01
55 60 8.81439276869757760e-01
56 60 8.96320810874925766e-01
57 60 9.11065044229652621e-01
58 60 9.25667970135341411e-01
59 60 9.40125641304706106e-01
60 60 9.54434173463661883e-01
61 60 9.68589748787297089e-01
62 60 9.82588619263604524e-01
63 60 9.96427109978795245e-01
64 60 1.01010162231819312e+00
65 60 1.02360863707689465e+00
66 60 1.03694471747452899e+00
67 60 1.05010651206873384e+00
68 60 1.06309075756214444e+00
69 60 1.07589428149797972e+00
70 60 1.08851400483952143e+00
71 60 1.10094694442912000e+00
72 60 1.11319021532260765e+00
73 60 1.12524103299530753e+00
74 60 1.13709671541615887e+00
75 60 1.14875468498676980e+00
76 60 1.16021247034256647e+00
77 60 1.17146770801352895e+00
78 60 1.18251814394232713e+00
79 60 1.19336163485807933e+00
80 60 1.20399614950421263e+00
81 60 1.21441976971933507e+00
82 60 1.22463069137033131e+00
83 60 1.23462722513727519e+00
84 60 1.24440779715006267e+00
85 60 1.25397094947703880e+00
86 60 1.26331534046623917e+00
87 60 1.27243974494016898e+00
88 60 1.28134305424537032e+00
89 60 1.29002427615838511e+00
90 60 1.29848253464998797e+00
91 60 1.30671706950985889e+00
92 60 1.31472723583417994e+00
93 60 1.32251250337891513e+00
94 60 1.33007245578173250e+00
95 60 1.33740678965587589e+00
96 60 1.34451531355943432e+00
97 60 1.35139794684372117e+00
98 60 1.35805471838468295e+00
99 60 1.36448576520144793e+00
100 60 1.37069133096622386e+00
101 60 1.37667176441005257e+00
102 60 1.38242751762891758e+00
103 60 1.38795914429494971e+00
104 60 1.39326729777748870e+00
105 60 1.39835272917889952e+00
106 60 1.40321628529013664e+00
107 60 1.40785890647101541e+00
108 60 1.41228162446034466e+00
109 60 1.41648556012092341e+00
110 60 1.42047192112459220e+00
111 60 1.42424199958238207e+00
112 60 1.42779716962490033e+00
113 60 1.43113888493797603e+00
114 60 1.43426867625862697e+00
115 60 1.43718814883627877e+00
116 60 1.43989897986416060e+00
117 60 1.44240291588567837e+00
118 60 1.44470177018053847e+00
119 60 1.44679742013519941e+00
120 60 1.44869180460224878e+00
121 60 1.45038692125306579e+00
122 60 1.45188482392809881e+00
123 60 1.45318761998888601e+00
124 60 1.45429746767587931e+00
125 60 1.45521657347592259e+00
126 60 1.45594718950315016e+00
127 60 1.45649161089684442e+00
128 60 1.45685217323973948e+00
129 60 1.45703125000000067e+00
130 60 1.45703125000000022e+00
1 61 0.00000000000000000e+00
2 61 8.11075417109302817e-03
3 61 2.43680541068589732e-02
4 61 4.06956476706406972e-02
5 61 5.70909265120124951e-02
6 61 7.35512058382190442e-02
7 61 9.00737246730492352e-02
8 61 1.06655646206715915e-01
9 61 1.23294058239021898e-01
10 61 1.39985973717978773e-01
11 61 1.56728331375928925e-01
12 61 1.73517996465074847e-01
13 61 1.90351761594186653e-01
14 61 2.07226347668098360e-01
15 61 2.24138404931442492e-01
16 61 2.41084514117891419e-01
17 61 2.58061187706000672e-01
18 61 2.75064871282540757e-01
19 61 2.92091945014016863e-01
20 61 3.09138725226842437e-01
21 61 3.26201466096442294e-01
22 61 3.43276361445291334e-01
23 61 3.60359546649701490e-01
24 61 3.77447100654885848e-01
25 61 3.94535048097616414e-01
26 61 4.11619361535495221e-01
27 61 4.28695963781637879e-01
28 61 4.45760730343273237e-01
29 61 4.62809491962507980e-01
30 61 4.79838037257225403e-01
31 61 4.96842115459827982e-01
32 61 5.13817439251240127e-01
33 61 5.30759687687325288e-01
34 61 5.47664509214593309e-01
35 61 5.64527524771820333e-01
36 61 5.81344330973887602e-01
37 61 5.98110503373952662e-01
38 61 6.14821599799741159e-01
39 61 6.31473163759543876e-01
40 61 6.48060727913217893e-01
41 61 6.64579817603310752e-01
42 61 6.81025954441117465e-01
43 61 6.97394659942365380e-01
44 61 7.13681459206925162e-01
45 61 7.29881884636816136e-01
46 61 7.45991479686564762e-01
47 61 7.62005802639841967e-01
48 61 7.77920430406104479e-01
49 61 7.93730962330902678e-01
50 61 8.09433024013358260e-01
51 61 8.25022271124210449e-01
52 61 8.40494393217797731e-01
53 61 8.55845117531244481e-01
54 61 8.71070212764076923e-01
55 61 8.86165492831525903e-01
56 61 9.01126820584710941e-01
57 61 9.15950111490937746e-01
58 61 9.30631337267434522e-01
59 61 9.45166529461835769e-01
60 61 9.59551782972850487e-01
61 61 9.73783259504655163e-01
62 61 9.87857190948664088e-01
63 61 1.00176988268645628e+00
64 61 1.01551771680783487e+00
65 61 1.02909715523816470e+00
66 61 1.04250474276929861e+00
67 61 1.05573710998867343e+00
68 61 1.06879097610135165e+00
69 61 1.08166315164005988e+00
70 61 1.09435054105850016e+00
71 61 1.10685014520353886e+00
72 61 1.11915906366213913e+00
73 61 1.13127449697919658e+00
74 61 1.14319374874278723e+00
75 61 1.15491422753361572e+00
76 61 1.16643344873582411e+00
77 61 1.17774903620663096e+00
78 61 1.18885872380260760e+00
79 61 1.19976035676080373e+00
80 61 1.21045189293318955e+00
81 61 1.22093140387332610e+00
82 61 1.23119707577446191e+00
83 61 1.24124721025865470e+00
84 61 1.25108022501681915e+00
85 61 1.26069465429997218e+00
86 61 1.27008914926230476e+00
87 61 1.27926247815700633e+00
88 61 1.28821352638609632e+00
89 61 1.29694129640588307e+00
90 61 1.30544490748993414e+00
91 61 1.31372359535173477e+00
92 61 1.32177671162953758e+00
93 61 1.32960372323617460e+00
94 61 1.33720421157680880e+00
95 61 1.34457787163794484e+00
96 61 1.35172451095117374e+00
97 61 1.35864404843537656e+00
98 61 1.36533651312132975e+00
99 61 1.37180204276284989e+00
100 61 1.37804088233869693e+00
101 61 1.38405338244978493e+00
102 61 1.38983999761620369e+00
103 61 1.39540128447883682e+00
104 61 1.40073789991034392e+00
105 61 1.40585059904044862e+00
106 61 1.41074023320053943e+00
107 61 1.41540774779257594e+00
108 61 1.41985418008747799e+00
109 61 1.42408065695803288e+00
110 61 1.42808839255153375e+00
111 61 1.43187868590722056e+00
112 61 1.43545291852369328e+00
113 61 1.43881255188134305e+00
114 61 1.44195912492489309e+00
115 61 1.44489425151100415e+00
116 61 1.44761961782589865e+00
117 61 1.45013697977782696e+00
118 61 1.45244816036917412e+00
119 61 1.45455504705281435e+00
120 61 1.45645958907732798e+00
121 61 1.45816379482546843e+00
122 61 1.45966972915023319e+00
123 61 1.46097951071268684e+00
124 61 1.46209530932561571e+00
125 61 1.46301934330689276e+00
126 61 1.46375387684633074e+00
127 61 1.46430121738958907e+00
128 61 1.46466371304263343e+00
129 61 1.46484375000000067e+00
130 61 1.46484375000000022e+00
1 62 0.00000000000000000e+00
2 62 8.15401152667219117e-03
3 62 2.44980170620955548e-02
4 62 4.09126911248841180e-02
5 62 5.73954114534098933e-02
6 62 7.39434789360228772e-02
7 62 9.05541178713054895e-02
8 62 1.07224476319818421e-01
9 62 1.23951626549630017e-01
10 62 1.40732565577807972e-01
11 62 1.57564215809933905e-01
12 62 1.74443425779555267e-01
13 62 1.91366970989355650e-01
14 62 2.08331554855661544e-01
15 62 2.25333809757743531e-01
16 62 2.42370298193186867e-01
17 62 2.59437514040432637e-01
18 62 2.76531883929380939e-01
19 62 2.93649768720758264e-01
20 62 3.10787465094718940e-01
21 62 3.27941207248956645e-01
22 62 3.45107168706332845e-01
23 62 3.62281464231833217e-01
24 62 3.79460151858378669e-01
25 62 3.96639235020803727e-01
26 62 4.13814664797017839e-01
27 62 4.30982342255139927e-01
28 62 4.48138120905104020e-01
29 62 4.65277809252974683e-01
30 62 4.82397173455930584e-01
31 62 4.99491940075613705e-01
32 62 5.16557798927246736e-01
33 62 5.33590406021657748e-01
34 62 5.50585386597071125e-01
35 62 5.67538338237270068e-01
36 62 5.84444834072414987e-01
37 62 6.01300426058613779e-01
38 62 6.18100648332006508e-01
39 62 6.34841020632928021e-01
40 62 6.51517051795421742e-01
41 62 6.68124243297195219e-01
42 62 6.84658092864803391e-01
43 62 7.01114098128724716e-01
44 62 7.17487760322695456e-01
45 62 7.33774588021545826e-01
46 62 7.49970100911559689e-01
47 62 7.66069833587254334e-01
48 62 7.82069339368270278e-01
49 62 7.97964194130000859e-01
50 62 8.13750000141429508e-01
51 62 8.29422389903539670e-01
52 62 8.44977029981626049e-01
53 62 8.60409624824744479e-01
54 62 8.75715920565485306e-01
55 62 8.90891708793293935e-01
56 62 9.05932830294496005e-01
57 62 9.20835178752222649e-01
58 62 9.35594704399527410e-01
59 62 9.50207417618965544e-01
60 62 9.64669392482039090e-01
61 62 9.78976770222013348e-01
62 62 9.93125762633723430e-01
63 62 1.00711265539411721e+00
64 62 1.02093381129747662e+00
65 62 1.03458567339943497e+00
66 62 1.04806476806406823e+00
67 62 1.06136770790861301e+00
68 62 1.07449119464055887e+00
69 62 1.08743202178214027e+00
70 62 1.10018707727747889e+00
71 62 1.11275334597795772e+00
72 62 1.12512791200167039e+00
73 62 1.13730796096308540e+00
74 62 1.14929078206941537e+00
75 62 1.16107377008046164e+00
76 62 1.17265442712908197e+00
77 62 1.18403036439973319e+00
78 62 1.19519930366288829e+00
79 62 1.20615907866352812e+00
80 62 1.21690763636216670e+00
81 62 1.22744303802731691e+00
82 62 1.23776346017859229e+00
83 62 1.24786719538003421e+00
84 62 1.25775265288357541e+00
85 62 1.26741835912290535e+00
86 62 1.27686295805837036e+00
87 62 1.28608521137384391e+00
88 62 1.29508399852682210e+00
89 62 1.30385831665338103e+00
90 62 1.31240728032988052e+00
91 62 1.32073012119361066e+00
92 62 1.32882618742489500e+00
93 62 1.33669494309343428e+00
94 62 1.34433596737188510e+00
95 62 1.35174895362001379e+00
96 62 1.35893370834291338e+00
97 62 1.36589015002703196e+00
98 62 1.37261830785797678e+00
99 62 1.37911832032425186e+00
100 62 1.38539043371116999e+00
101 62 1.39143500048951707e+00
102 62 1.39725247760349025e+00
103 62 1.40284342466272394e+00
104 62 1.40820850204319914e+00
105 62 1.41334846890199772e+00
106 62 1.41826418111094221e+00
107 62 1.42295658911413625e+00
108 62 1.42742673571461109e+00
109 62 1.43167575379514234e+00
110 62 1.43570486397847530e+00
111 62 1.43951537223205883e+00
112 62 1.44310866742248622e+00
113 62 1.44648621882471007e+00
114 62 1.44964957359115920e+00
115 62 1.45260035418572975e+00
116 62 1.45534025578763671e+00
117 62 1.45787104366997555e+00
118 62 1.46019455055780978e+00
119 62 1.46231267397042930e+00
120 62 1.46422737355240717e+00
121 62 1.46594066839787107e+00
122 62 1.46745463437236756e+00
123 62 1.46877140143648788e+00
124 62 1.46989315097535234e+00
125 62 1.47082211313786293e+00
126 62 1.47156056418951109e+00
127 62 1.47211082388233327e+00
128 62 1.47247525284552716e+00
129 62 1.47265625000000067e+00
130 62 1.47265625000000022e+00
1 63 0.00000000000000000e+00
2 63 8.19726888225135418e-03
3 63 2.46279800173321364e-02
4 63 4.11297345791275318e-02
5 63 5.76998963948072915e-02
6 63 7.43357520338267103e-02
7 63 9.10345110695617438e-02
8 63 1.07793306432920899e-01
9 63 1.24609194860238137e-01
10 63 1.41479157437637199e-01
11 63 1.58400100243938829e-01
12 63 1.75368855094035658e-01
13 63 1.92382180384524676e-01
14 63 2.09436762043224728e-01
15 63 2.26529214584044569e-01
16 63 2.43656082268482288e-01
17 63 2.60813840374864603e-01
18 63 2.77998896576221122e-01
19 63 2.95207592427499665e-01
20 63 3.12436204962595443e-01
21 63 3.29680948401471052e-01
22 63 3.46937975967374412e-01
23 63 3.64203381813964944e-01
24 63 3.81473203061871491e-01
25 63 3.98743421943990983e-01
26 63 4.16009968058540514e-01
27 63 4.33268720728641921e-01
28 63 4.50515511466934859e-01
29 63 4.67746126543441387e-01
30 63 4.84956309654635820e-01
31 63 5.02141764691399484e-01
32 63 5.19298158603253346e-01
33 63 5.36421124355990209e-01
34 63 5.53506263979548940e-01
35 63 5.70549151702719803e-01
36 63 5.87545337170942372e-01
37 63 6.04490348743274897e-01
38 63 6.21379696864271858e-01
39 63 6.38208877506312167e-01
40 63 6.54973375677625702e-01
41 63 6.71668668991079576e-01
42 63 6.88290231288489318e-01
43 63 7.04833536315083942e-01
44 63 7.21294061438465639e-01
45 63 7.37667291406275516e-01
46 63 7.53948722136554728e-01
47 63 7.70133864534666812e-01
48 63 7.86218248330436076e-01
49 63 8.02197425929099039e-01
50 63 8.18066976269500867e-01
51 63 8.33822508682868779e-01
52 63 8.49459666745454256e-01
53 63 8.64974132118244476e-01
54 63 8.80361628366893689e-01
55 63 8.95617924755062189e-01
56 63 9.10738840004281180e-01
57 63 9.25720246013507664e-01
58 63 9.40558071531620299e-01
59 63 9.55248305776095430e-01
60 63 9.69787001991227582e-01
61 63 9.84170280939371533e-01
62 63 9.98394334318782883e-01
63 63 1.01245542810177835e+00
64 63 1.02634990578711838e+00
65 63 1.04007419156070502e+00
66 63 1.05362479335883763e+00
67 63 1.06699830582855260e+00
68 63 1.08019141317976608e+00
69 63 1.09320089192422043e+00
70 63 1.10602361349645739e+00
71 63 1.11865654675237658e+00
72 63 1.13109676034120188e+00
73 63 1.14334142494697444e+00
74 63 1.15538781539604329e+00
75 63 1.16723331262730756e+00
76 63 1.17887540552233960e+00
77 63 1.19031169259283520e+00
78 63 1.20153988352316898e+00
79 63 1.21255780056625229e+00
80 63 1.22336337979114362e+00
81 63 1.23395467218130794e+00
82 63 1.24432984458272289e+00
83 63 1.25448718050141372e+00
84 63 1.26442508075033166e+00
85 63 1.27414206394583829e+00
86 63 1.28363676685443617e+00
87 63 1.29290794459068148e+00
88 63 1.30195447066754788e+00
89 63 1.31077533690087922e+00
90 63 1.31936965316982668e+00
91 63 1.32773664703548655e+00
92 63 1.33587566322025242e+00
93 63 1.34378616295069375e+00
94 63 1.35146772316696140e+00
95 63 1.35892003560208297e+00
96 63 1.36614290573465280e+00
97 63 1.37313625161868735e+00
98 63 1.37990010259462381e+00
99 63 1.38643459788565360e+00
100 63 1.39273998508364327e+00
101 63 1.39881661852924921e+00
102 63 1.40466495759077659e+00
103 63 1.41028556484661105e+00
104 63 1.41567910417605436e+00
105 63 1.42084633876354682e+00
106 63 1.42578812902134500e+00
107 63 1.43050543043569633e+00
108 63 1.43499929134174420e+00
109 63 1.43927085063225202e+00
110 63 1.44332133540541685e+00
111 63 1.44715205855689732e+00
112 63 1.45076441632127939e+00
113 63 1.45415988576807731e+00
114 63 1.45734002225742532e+00
115 63 1.46030645686045490e+00
116 63 1.46306089374937498e+00
117 63 1.46560510756212370e+00
118 63 1.46794094074644543e+00
119 63 1.47007030088804425e+00
120 63 1.47199515802748637e+00
121 63 1.47371754197027371e+00
122 63 1.47523953959450238e+00
123 63 1.47656329216028870e+00
124 63 1.47769099262508896e+00
125 63 1.47862488296883332e+00
126 63 1.47936725153269144e+00
127 63 1.47992043037507770e+00
128 63 1.48028679264842133e+00
129 63 1.48046875000000089e+00
130 63 1.48046875000000000e+00
1 64 0.00000000000000000e+00
2 64 8.24052623783051719e-03
3 64 2.47579429725687181e-02
4 64 4.13467780333709456e-02
5 64 5.80043813362046967e-02
6 64 7.47280251316305294e-02
7 64 9.15149042678179980e-02
8 64 1.08362136546023377e-01
9 64 1.25266763170846257e-01
10 64 1.42225749297466425e-01
11 64 1.59235984677943782e-01
12 64 1.76294284408516078e-01
13 64 1.93397389779693646e-01
14 64 2.10541969230787940e-01
15 64 2.27724619410345608e-01
16 64 2.44941866343777709e-01
17 64 2.62190166709296568e-01
18 64 2.79465909223061304e-01
19 64 2.96765416134241067e-01
20 64 3.14084944830471890e-01
21 64 3.31420689553985404e-01
22 64 3.48768783228415979e-01
23 64 3.66125299396096671e-01
24 64 3.83486254265364201e-01
25 64 4.00847608867178240e-01
26 64 4.18205271320063188e-01
27 64 4.35555099202143969e-01
28 64 4.52892902028765643e-01
29 64 4.70214443833908091e-01
30 64 4.87515445853341001e-01
31 64 5.04791589307185262e-01
32 64 5.22038518279259955e-01
33 64 5.39251842690322558e-01
34 64 5.56427141362026756e-01
35 64 5.73559965168169539e-01
36 64 5.90645840269469757e-01
37 64 6.07680271427936014e-01
38 64 6.24658745396537096e-01
39 64 6.41576734379696423e-01
40 64 6.58429699559829551e-01
41 64 6.75213094684963711e-01
42 64 6.91922369712175356e-01
43 64 7.08552974501443278e-01
44 64 7.25100362554235822e-01
45 64 7.41559994791005206e-01
46 64 7.57927343361549655e-01
47 64 7.74197895482079401e-01
48 64 7.90367157292602096e-01
49 64 8.06430657728197220e-01
50 64 8.22383952397572116e-01
51 64 8.38222627462197889e-01
52 64 8.53942303509282463e-01
53 64 8.69538639411744474e-01
54 64 8.85007336168302072e-01
55 64 9.00344140716830332e-01
56 64 9.15544849714066244e-01
57 64 9.30605313274792678e-01
58 64 9.45521438663713298e-01
59 64 9.60289193933225205e-01
60 64 9.74904611500416074e-01
61 64 9.89363791656729719e-01
62 64 1.00366290600384245e+00
63 64 1.01779820080943950e+00
64 64 1.03176600027676013e+00
65 64 1.04556270972197507e+00
66 64 1.05918481865360725e+00
67 64 1.07262890374849196e+00
68 64 1.08589163171897352e+00
69 64 1.09896976206630081e+00
70 64 1.11186014971543612e+00
71 64 1.12455974752679544e+00
72 64 1.13706560868073336e+00
73 64 1.14937488893086348e+00
74 64 1.16148484872267166e+00
75 64 1.17339285517415348e+00
76 64 1.18509638391559746e+00
77 64 1.19659302078593721e+00
78 64 1.20788046338344945e+00
79 64 1.21895652246897646e+00
80 64 1.22981912322012077e+00
81 64 1.24046630633529920e+00
82 64 1.25089622898685349e+00
83 64 1.26110716562279346e+00
84 64 1.27109750861708815e+00
85 64 1.28086576876877145e+00
86 64 1.29041057565050177e+00
87 64 1.29973067780751905e+00
88 64 1.30882494280827366e+00
89 64 1.31769235714837718e+00
90 64 1.32633202600977285e+00
91 64 1.33474317287736244e+00
92 64 1.34292513901560984e+00
93 64 1.35087738280795344e+00
94 64 1.35859947896203770e+00
95 64 1.36609111758415191e+00
96 64 1.37335210312639266e+00
97 64 1.38038235321034275e+00
98 64 1.38718189733127084e+00
99 64 1.39375087544705534e+00
100 64 1.40008953645611611e+00
101 64 1.40619823656898157e+00
102 64 1.41207743757806314e+00
103 64 1.41772770503049816e+00
104 64 1.42314970630890958e+00
105 64 1.42834420862509592e+00
106 64 1.43331207693174778e+00
107 64 1.43805427175725686e+00
108 64 1.44257184696887752e+00
109 64 1.44686594746936148e+00
110 64 1.45093780683235862e+00
111 64 1.45478874488173582e+00
112 64 1.45842016522007234e+00
113 64 1.46183355271144433e+00
114 64 1.46503047092369143e+00
115 64 1.46801255953518028e+00
116 64 1.47078153171111281e+00
117 64 1.47333917145427229e+00
118 64 1.47568733093508087e+00
119 64 1.47782792780565941e+00
120 64 1.47976294250256535e+00
121 64 1.48149441554267614e+00
122 64 1.48302444481663698e+00
123 64 1.48435518288408974e+00
124 64 1.48548883427482559e+00
125 64 1.48642765279980327e+00
126 64 1.48717393887587201e+00
127 64 1.48773003686782190e+00
128 64 1.48809833245131529e+00
129 64 1.48828125000000089e+00
130 64 1.48828125000000000e+00
1 65 0.00000000000000000e+00
2 65 8.28378359340968019e-03
3 65 2.48879059278052997e-02
4 65 4.15638214876143594e-02
5 65 5.83088662776021019e-02
6 65 7.51202982294343624e-02
7 65 9.19952974660742523e-02
8 65 1.08930966659125855e-01
9 65 1.25924331481454377e-01
10 65 1.42972341157295624e-01
11 65 1.60071869111948706e-01
12 65 1.77219713722996469e-01
13 65 1.94412599174862644e-01
14 65 2.11647176418351124e-01
15 65 2.28920024236646619e-01
16 65 2.46227650419073130e-01
17 65 2.63566493043728534e-01
18 65 2.80932921869901542e-01
19 65 2.98323239840982524e-01
20 65 3.15733684698348394e-01
21 65 3.33160430706499755e-01
22 65 3.50599590489457602e-01
23 65 3.68047216978228398e-01
24 65 3.85499305468856857e-01
25 65 4.02951795790365497e-01
26 65 4.20400574581585862e-01
27 65 4.37841477675646074e-01
28 65 4.55270292590596481e-01
29 65 4.72682761124374795e-01
30 65 4.90074582052046237e-01
31 65 5.07441413922970930e-01
32 65 5.24778877955266565e-01
33 65 5.42082561024655019e-01
34 65 5.59348018744504571e-01
35 65 5.76570778633619274e-01
36 65 5.93746343367997254e-01
37 65 6.10870194112597131e-01
38 65 6.27937793928802335e-01
39 65 6.44944591253080568e-01
40 65 6.61886023442033511e-01
41 65 6.78757520378848067e-01
42 65 6.95554508135861393e-01
43 65 7.12272412687802503e-01
44 65 7.28906663670006116e-01
45 65 7.45452698175734896e-01
46 65 7.61905964586544693e-01
47 65 7.78261926429491990e-01
48 65 7.94516066254768116e-01
49 65 8.10663889527295400e-01
50 65 8.26700928525643475e-01
51 65 8.42622746241527110e-01
52 65 8.58424940273110781e-01
53 65 8.74103146705244471e-01
54 65 8.89653043969710455e-01
55 65 9.05070356678598364e-01
56 65 9.20350859423851309e-01
57 65 9.35490380536077581e-01
58 65 9.50484805795806187e-01
59 65 9.65330082090354979e-01
60 65 9.80022221009604566e-01
61 65 9.94557302374087904e-01
62 65 1.00893147768890179e+00
63 65 1.02314097351710043e+00
64 65 1.03718209476640189e+00
65 65 1.05105122788324534e+00
66 65 1.06474484394837687e+00
67 65 1.07825950166843154e+00
68 65 1.09159185025818073e+00
69 65 1.10473863220838120e+00
70 65 1.11769668593441462e+00
71 65 1.13046294830121430e+00
72 65 1.14303445702026485e+00
73 65 1.15540835291475252e+00
74 65 1.16758188204930002e+00
75 65 1.17955239772099940e+00
76 65 1.19131736230885532e+00
77 65 1.20287434897903922e+00
78 65 1.21422104324373015e+00
79 65 1.22535524437170062e+00
80 65 1.23627486664909769e+00
81 65 1.24697794048929023e+00
82 65 1.25746261339098409e+00
83 65 1.26772715074417297e+00
84 65 1.27776993648384440e+00
85 65 1.28758947359170461e+00
86 65 1.29718438444656736e+00
87 65 1.30655341102435663e+00
88 65 1.31569541494899944e+00
89 65 1.32460937739587536e+00
90 65 1.33329439884971923e+00
91 65 1.34174969871923833e+00
92 65 1.34997461481096748e+00
93 65 1.35796860266521291e+00
94 65 1.36573123475711378e+00
95 65 1.37326219956622109e+00
96 65 1.38056130051813208e+00
97 65 1.38762845480199792e+00
98 65 1.39446369206791809e+00
99 65 1.40106715300845686e+00
100 65 1.40743908782858917e+00
101 65 1.41357985460871394e+00
102 65 1.41948991756534948e+00
103 65 1.42516984521438550e+00
104 65 1.43062030844176458e+00
105 65 1.43584207848664480e+00
106 65 1.44083602484215079e+00
107 65 1.44560311307881717e+00
108 65 1.45014440259601063e+00
109 65 1.45446104430647116e+00
110 65 1.45855427825930017e+00
111 65 1.46242543120657431e+00
112 65 1.46607591411886551e+00
113 65 1.46950721965481157e+00
114 65 1.47272091958995732e+00
115 65 1.47571866220990588e+00
116 65 1.47850216967285086e+00
117 65 1.48107323534642088e+00
118 65 1.48343372112371652e+00
119 65 1.48558555472327458e+00
120 65 1.48753072697764432e+00
121 65 1.48927128911507856e+00
122 65 1.49080935003877135e+00
123 65 1.49214707360789078e+00
124 65 1.49328667592456221e+00
125 65 1.49423042263077344e+00
126 65 1.49498062621905237e+00
127 65 1.49553964336056633e+00
128 65 1.49590987225420946e+00
129 65 1.49609375000000111e+00
130 65 1.49609375000000000e+00
1 66 0.00000000000000000e+00
2 66 8.32704094898884147e-03
3 66 2.50178688830418813e-02
4 66 4.17808649418577732e-02
5 66 5.86133512189995071e-02
6 66 7.55125713272382093e-02
7 66 9.24756906643305204e-02
8 66 1.09499796772228347e-01
9 66 1.26581899792062497e-01
10 66 1.43718933017124850e-01
11 66 1.60907753545953658e-01
12 66 1.78145143037476861e-01
13 66 1.95427808570031641e-01
14 66 2.12752383605914336e-01
15 66 2.30115429062947657e-01
16 66 2.47513434494368550e-01
17 66 2.64942819378160554e-01
18 66 2.82399934516741835e-01
19 66 2.99881063547723925e-01
20 66 3.17382424566224897e-01
21 66 3.34900171859014106e-01
22 66 3.52430397750499169e-01
23 66 3.69969134560360180e-01
24 66 3.87512356672349623e-01
25 66 4.05055982713552809e-01
26 66 4.22595877843108481e-01
27 66 4.40127856149148122e-01
28 66 4.57647683152427265e-01
29 66 4.75151078414841554e-01
30 66 4.92633718250751418e-01
31 66 5.10091238538756597e-01
32 66 5.27519237631273175e-01
33 66 5.44913279358987368e-01
34 66 5.62268896126982387e-01
35 66 5.79581592099068899e-01
36 66 5.96846846466524639e-01
37 66 6.14060116797258138e-01
38 66 6.31216842461067795e-01
39 66 6.48312448126464824e-01
40 66 6.65342347324237360e-01
41 66 6.82301946072732313e-01
42 66 6.99186646559547320e-01
43 66 7.15991850874161839e-01
44 66 7.32712964785776411e-01
45 66 7.49345401560464586e-01
46 66 7.65884585811539620e-01
47 66 7.82325957376904468e-01
48 66 7.98664975216934026e-01
49 66 8.14897121326393581e-01
50 66 8.31017904653714723e-01
51 66 8.47022865020856219e-01
52 66 8.62907577036939100e-01
53 66 8.78667653998744358e-01
54 66 8.94298751771118949e-01
55 66 9.09796572640366619e-01
56 66 9.25156869133636484e-01
57 66 9.40375447797362596e-01
58 66 9.55448172927899186e-01
59 66 9.70370970247484754e-01
60 66 9.85139830518793058e-01
61 66 9.99750813091446089e-01
62 66 1.01420004937396135e+00
63 66 1.02848374622476157e+00
64 66 1.04259818925604364e+00
65 66 1.05653974604451539e+00
66 66 1.07030486924314649e+00
67 66 1.08389009958837113e+00
68 66 1.09729206879738794e+00
69 66 1.11050750235046158e+00
70 66 1.12353322215339335e+00
71 66 1.13636614907563316e+00
72 66 1.14900330535979611e+00
73 66 1.16144181689864157e+00
74 66 1.17367891537592817e+00
75 66 1.18571194026784532e+00
76 66 1.19753834070211296e+00
77 66 1.20915567717214123e+00
78 66 1.22056162310401062e+00
79 66 1.23175396627442524e+00
80 66 1.24273061007807484e+00
81 66 1.25348957464328148e+00
82 66 1.26402899779511446e+00
83 66 1.27434713586555270e+00
84 66 1.28444236435060066e+00
85 66 1.29431317841463756e+00
86 66 1.30395819324263296e+00
87 66 1.31337614424119375e+00
88 66 1.32256588708972500e+00
89 66 1.33152639764337355e+00
90 66 1.34025677168966562e+00
91 66 1.34875622456111421e+00
92 66 1.35702409060632512e+00
93 66 1.36505982252247260e+00
94 66 1.37286299055219030e+00
95 66 1.38043328154829026e+00
96 66 1.38777049790987173e+00
97 66 1.39487455639365332e+00
98 66 1.40174548680456534e+00
99 66 1.40838343056985882e+00
100 66 1.41478863920106224e+00
101 66 1.42096147264844630e+00
102 66 1.42690239755263604e+00
103 66 1.43261198539827261e+00
104 66 1.43809091057461980e+00
105 66 1.44333994834819390e+00
106 66 1.44835997275255357e+00
107 66 1.45315195440037748e+00
108 66 1.45771695822314395e+00
109 66 1.46205614114358085e+00
110 66 1.46617074968624173e+00
111 66 1.47006211753141280e+00
112 66 1.47373166301765846e+00
113 66 1.47718088659817881e+00
114 66 1.48041136825622344e+00
115 66 1.48342476488463126e+00
116 66 1.48622280763458892e+00
117 66 1.48880729923856925e+00
118 66 1.49118011131235217e+00
119 66 1.49334318164088953e+00
120 66 1.49529851145272330e+00
121 66 1.49704816268748098e+00
122 66 1.49859425526090595e+00
123 66 1.49993896433169183e+00
124 66 1.50108451757429884e+00
125 66 1.50203319246174360e+00
126 66 1.50278731356223294e+00
127 66 1.50334924985331075e+00
128 66 1.50372141205710341e+00
129 66 1.50390625000000089e+00
130 66 1.50390625000000000e+00
1 67 0.00000000000000000e+00
2 67 8.37029830456800447e-03
3 67 2.51478318382784630e-02
4 67 4.19979083961011940e-02
5 67 5.89178361603969053e-02
6 67 7.59048444250420423e-02
7 67 9.29560838625867747e-02
8 67 1.10068626885330853e-01
9 67 1.27239468102670616e-01
10 67 1.44465524876954077e-01
11 67 1.61743637979958610e-01
12 67 1.79070572351957280e-01
13 67 1.96443017965200639e-01
14 67 2.13857590793477548e-01
15 67 2.31310833889248668e-01
16 67 2.48799218569663971e-01
17 67 2.66319145712592575e-01
18 67 2.83866947163582017e-01
19 67 3.01438887254465326e-01
20 67 3.19031164434101400e-01
21 67 3.36639913011528458e-01
22 67 3.54261205011540681e-01
23 67 3.71891052142491851e-01
24 67 3.89525407875842389e-01
25 67 4.07160169636740066e-01
26 67 4.24791181104631155e-01
27 67 4.42414234622650171e-01
28 67 4.60025073714258048e-01
29 67 4.77619395705308258e-01
30 67 4.95192854449456599e-01
31 67 5.12741063154542376e-01
32 67 5.30259597307279784e-01
33 67 5.47743997693319828e-01
34 67 5.65189773509460314e-01
35 67 5.82592405564518523e-01
36 67 5.99947349565052135e-01
37 67 6.17250039481919255e-01
38 67 6.34495890993333034e-01
39 67 6.51680304999849080e-01
40 67 6.68798671206441209e-01
41 67 6.85846371766616669e-01
42 67 7.02818784983233247e-01
43 67 7.19711289060521175e-01
44 67 7.36519265901546594e-01
45 67 7.53238104945194276e-01
46 67 7.69863207036534769e-01
47 67 7.86389988324316946e-01
48 67 8.02813884179099824e-01
49 67 8.19130353125491761e-01
50 67 8.35334880781785860e-01
51 67 8.51422983800185329e-01
52 67 8.67390213800767418e-01
53 67 8.83232161292244466e-01
54 67 8.98944459572527332e-01
55 67 9.14522788602134762e-01
56 67 9.29962878843421548e-01
57 67 9.45260515058647610e-01
58 67 9.60411540059992186e-01
59 67 9.75411858404614418e-01
60 67 9.90257440027981550e-01
61 67 1.00494432380880427e+00
62 67 1.01946862105902092e+00
63 67 1.03382651893242250e+00
64 67 1.04801428374568562e+00
65 67 1.06202826420578567e+00
66 67 1.07586489453791612e+00
67 67 1.08952069750831071e+00
68 67 1.10299228733659516e+00
69 67 1.11627637249254197e+00
70 67 1.12936975837237208e+00
71 67 1.14226934985005202e+00
72 67 1.15497215369932738e+00
73 67 1.16747528088253061e+00
74 67 1.17977594870255631e+00
75 67 1.19187148281469124e+00
76 67 1.20375931909537059e+00
77 67 1.21543700536524346e+00
78 67 1.22690220296429131e+00
79 67 1.23815268817714919e+00
80 67 1.24918635350705198e+00
81 67 1.26000120879727273e+00
82 67 1.27059538219924506e+00
83 67 1.28096712098693222e+00
84 67 1.29111479221735714e+00
85 67 1.30103688323757072e+00
86 67 1.31073200203869855e+00
87 67 1.32019887745803111e+00
88 67 1.32943635923045078e+00
89 67 1.33844341789087151e+00
90 67 1.34721914452961200e+00
91 67 1.35576275040299010e+00
92 67 1.36407356640168276e+00
93 67 1.37215104237973229e+00
94 67 1.37999474634726660e+00
95 67 1.38760436353035943e+00
96 67 1.39497969530161159e+00
97 67 1.40212065798530872e+00
98 67 1.40902728154121260e+00
99 67 1.41569970813126078e+00
100 67 1.42213819057353530e+00
101 67 1.42834309068817844e+00
102 67 1.43431487753992259e+00
103 67 1.44005412558215973e+00
104 67 1.44556151270747479e+00
105 67 1.45083781820974300e+00
106 67 1.45588392066295635e+00
107 67 1.46070079572193778e+00
108 67 1.46528951385027706e+00
109 67 1.46965123798069053e+00
110 67 1.47378722111318305e+00
111 67 1.47769880385625130e+00
112 67 1.48138741191645162e+00
113 67 1.48485455354154583e+00
114 67 1.48810181692248933e+00
115 67 1.49113086755935687e+00
116 67 1.49394344559632719e+00
117 67 1.49654136313071762e+00
118 67 1.49892650150098783e+00
119 67 1.50110080855850425e+00
120 67 1.50306629592780228e+00
121 67 1.50482503625988340e+00
122 67 1.50637916048304055e+00
123 67 1.50773085505549287e+00
124 67 1.50888235922403546e+00
125 67 1.50983596229271355e+00
126 67 1.51059400090541351e+00
127 67 1.51115885634605518e+00
128 67 1.51153295185999759e+00
129 67 1.51171875000000089e+00
130 67 1.51171874999999978e+00
1 68 0.00000000000000000e+00
2 68 8.41355566014716748e-03
3 68 2.52777947935150446e-02
4 68 4.22149518503446147e-02
5 68 5.92223211017943035e-02
6 68 7.62971175228458753e-02
7 68 9.34364770608430428e-02
8 68 1.10637456998433345e-01
9 68 1.27897036413278736e-01
10 68 1.45212116736783303e-01
11 68 1.62579522413963562e-01
12 68 1.79996001666437672e-01
13 68 1.97458227360369637e-01
14 68 2.14962797981040760e-01
15 68 2.32506238715549679e-01
16 68 2.50085002644959420e-01
17 68 2.67695472047024596e-01
18 68 2.85333959810422200e-01
19 68 3.02996710961206783e-01
20 68 3.20679904301977903e-01
21 68 3.38379654164042809e-01
22 68 3.56092012272582248e-01
23 68 3.73812969724623578e-01
24 68 3.91538459079335099e-01
25 68 4.09264356559927323e-01
26 68 4.26986484366153829e-01
27 68 4.44700613096152275e-01
28 68 4.62402464276088832e-01
29 68 4.80087712995774962e-01
30 68 4.97751990648161780e-01
31 68 5.15390887770328154e-01
32 68 5.32999956983286394e-01
33 68 5.50574716027652178e-01
34 68 5.68110650891938240e-01
35 68 5.85603219029968258e-01
36 68 6.03047852663579520e-01
37 68 6.20439962166580261e-01
38 68 6.37774939525598383e-01
39 68 6.55048161873233226e-01
40 68 6.72254995088645058e-01
41 68 6.89390797460501026e-01
42 68 7.06450923406919395e-01
43 68 7.23430727246880512e-01
44 68 7.40325567017316777e-01
45 68 7.57130808329923966e-01
46 68 7.73841828261529918e-01
47 68 7.90454019271729313e-01
48 68 8.06962793141265622e-01
49 68 8.23363584924589942e-01
50 68 8.39651856909857219e-01
51 68 8.55823102579514550e-01
52 68 8.71872850564595847e-01
53 68 8.87796668585744464e-01
54 68 9.03590167373935604e-01
55 68 9.19249004563902905e-01
56 68 9.34768888553206612e-01
57 68 9.50145582319932624e-01
58 68 9.65374907192085074e-01
59 68 9.80452746561744193e-01
60 68 9.95375049537170042e-01
61 68 1.01013783452616246e+00
62 68 1.02473719274408048e+00
63 68 1.03916929164008365e+00
64 68 1.05343037823532737e+00
65 68 1.06751678236705594e+00
66 68 1.08142491983268574e+00
67 68 1.09515129542825029e+00
68 68 1.10869250587580237e+00
69 68 1.12204524263462213e+00
70 68 1.13520629459135058e+00
71 68 1.14817255062447088e+00
72 68 1.16094100203885886e+00
73 68 1.17350874486641965e+00
74 68 1.18587298202918467e+00
75 68 1.19803102536153716e+00
76 68 1.20998029748862823e+00
77 68 1.22171833355834547e+00
78 68 1.23324278282457200e+00
79 68 1.24455141007987335e+00
80 68 1.25564209693602913e+00
81 68 1.26651284295126376e+00
82 68 1.27716176660337566e+00
83 68 1.28758710610831195e+00
84 68 1.29778722008411340e+00
85 68 1.30776058806050388e+00
86 68 1.31750581083476415e+00
87 68 1.32702161067486846e+00
88 68 1.33630683137117634e+00
89 68 1.34536043813836970e+00
90 68 1.35418151736955839e+00
91 68 1.36276927624486599e+00
92 68 1.37112304219704018e+00
93 68 1.37924226223699198e+00
94 68 1.38712650214234290e+00
95 68 1.39477544551242860e+00
96 68 1.40218889269335123e+00
97 68 1.40936675957696411e+00
98 68 1.41630907627785940e+00
99 68 1.42301598569266252e+00
100 68 1.42948774194600836e+00
101 68 1.43572470872791058e+00
102 68 1.44172735752720915e+00
103 68 1.44749626576604706e+00
104 68 1.45303211484032979e+00
105 68 1.45833568807129210e+00
106 68 1.46340786857335914e+00
107 68 1.46824963704349831e+00
108 68 1.47286206947741016e+00
109 68 1.47724633481780021e+00
110 68 1.48140369254012461e+00
111 68 1.48533549018108979e+00
112 68 1.48904316081524457e+00
113 68 1.49252822048491285e+00
114 68 1.49579226558875544e+00
115 68 1.49883697023408224e+00
116 68 1.50166408355806524e+00
117 68 1.50427542702286599e+00
118 68 1.50667289168962348e+00
119 68 1.50885843547611920e+00
120 68 1.51083408040288147e+00
121 68 1.51260190983228582e+00
122 68 1.51416406570517514e+00
123 68 1.51552274577929391e+00
124 68 1.51668020087377209e+00
125 68 1.51763873212368394e+00
126 68 1.51840068824859387e+00
127 68 1.51896846283879960e+00
128 68 1.51934449166289176e+00
129 68 1.51953125000000089e+00
130 68 1.51953124999999978e+00
1 69 0.00000000000000000e+00
2 69 8.45681301572633048e-03
3 69 2.54077577487516297e-02
4 69 4.24319953045880355e-02
5 69 5.95268060431917087e-02
6 69 7.66893906206497222e-02
7 69 9.39168702590993110e-02
8 69 1.11206287111535823e-01
9 69 1.28554604723886856e-01
10 69 1.45958708596612530e-01
11 69 1.63415406847968514e-01
12 69 1.80921430980918035e-01
13 69 1.98473436755538662e-01
14 69 2.16068005168603944e-01
15 69 2.33701643541850718e-01
16 69 2.51370786720254813e-01
17 69 2.69071798381456562e-01
18 69 2.86800972457262382e-01
19 69 3.04554534667948185e-01
20 69 3.22328644169854406e-01
21 69 3.40119395316557160e-01
22 69 3.57922819533623815e-01
23 69 3.75734887306755305e-01
24 69 3.93551510282827810e-01
25 69 4.11368543483114690e-01
26 69 4.29181787627676503e-01
27 69 4.46986991569654324e-01
28 69 4.64779854837919559e-01
29 69 4.82556030286241611e-01
30 69 5.00311126846866960e-01
31 69 5.18040712386113822e-01
32 69 5.35740316659293003e-01
33 69 5.53405434361984527e-01
34 69 5.71031528274416056e-01
35 69 5.88614032495417883e-01
36 69 6.06148355762106905e-01
37 69 6.23629884851241378e-01
38 69 6.41053988057863622e-01
39 69 6.58416018746617371e-01
40 69 6.75711318970848795e-01
41 69 6.92935223154385271e-01
42 69 7.10083061830605322e-01
43 69 7.27150165433239737e-01
44 69 7.44131868133086960e-01
45 69 7.61023511714653544e-01
46 69 7.77820449486525067e-01
47 69 7.94518050219141792e-01
48 69 8.11111702103431531e-01
49 69 8.27596816723688122e-01
50 69 8.43968833037928468e-01
51 69 8.60223221358843548e-01
52 69 8.76355487328424276e-01
53 69 8.92361175879244461e-01
54 69 9.08235875175343987e-01
55 69 9.23975220525671159e-01
56 69 9.39574898262991787e-01
57 69 9.55030649581217528e-01
58 69 9.70338274324178074e-01
59 69 9.85493634718874079e-01
60 69 1.00049265904635853e+00
61 69 1.01533134524352064e+00
62 69 1.03000576442914005e+00
63 69 1.04451206434774457e+00
64 69 1.05884647272496935e+00
65 69 1.07300530052832621e+00
66 69 1.08698494512745536e+00
67 69 1.10078189334818988e+00
68 69 1.11439272441500958e+00
69 69 1.12781411277670252e+00
70 69 1.14104283081032931e+00
71 69 1.15407575139888952e+00
72 69 1.16690985037839035e+00
73 69 1.17954220885030869e+00
74 69 1.19197001535581282e+00
75 69 1.20419056790838330e+00
76 69 1.21620127588188609e+00
77 69 1.22799966175144748e+00
78 69 1.23958336268485270e+00
79 69 1.25095013198259775e+00
80 69 1.26209784036500605e+00
81 69 1.27302447710525479e+00
82 69 1.28372815100750626e+00
83 69 1.29420709122969146e+00
84 69 1.30445964795086966e+00
85 69 1.31448429288343727e+00
86 69 1.32427961963082974e+00
87 69 1.33384434389170559e+00
88 69 1.34317730351190190e+00
89 69 1.35227745838586766e+00
90 69 1.36114389020950477e+00
91 69 1.36977580208674188e+00
92 69 1.37817251799239759e+00
93 69 1.38633348209425145e+00
94 69 1.39425825793741942e+00
95 69 1.40194652749449755e+00
96 69 1.40939809008509087e+00
97 69 1.41661286116861929e+00
98 69 1.42359087101450643e+00
99 69 1.43033226325406448e+00
100 69 1.43683729331848142e+00
101 69 1.44310632676764272e+00
102 69 1.44913983751449549e+00
103 69 1.45493840594993418e+00
104 69 1.46050271697318479e+00
105 69 1.46583355793284120e+00
106 69 1.47093181648376192e+00
107 69 1.47579847836505862e+00
108 69 1.48043462510454327e+00
109 69 1.48484143165490989e+00
110 69 1.48902016396706616e+00
111 69 1.49297217650592806e+00
112 69 1.49669890971403752e+00
113 69 1.50020188742827987e+00
114 69 1.50348271425502156e+00
115 69 1.50654307290880740e+00
116 69 1.50938472151980352e+00
117 69 1.51200949091501435e+00
118 69 1.51441928187825914e+00
119 69 1.51661606239373414e+00
120 69 1.51860186487796045e+00
121 69 1.52037878340468846e+00
122 69 1.52194897092730974e+00
123 69 1.52331463650309473e+00
124 69 1.52447804252350871e+00
125 69 1.52544150195465411e+00
126 69 1.52620737559177444e+00
127 69 1.52677806933154425e+00
128 69 1.52715603146578571e+00
129 69 1.52734375000000089e+00
130 69 1.52734374999999978e+00
1 70 0.00000000000000000e+00
2 70 8.50007037130549349e-03
3 70 2.55377207039882113e-02
4 70 4.26490387588314562e-02
5 70 5.98312909845891069e-02
6 70 7.70816637184535691e-02
7 70 9.43972634573555652e-02
8 70 1.11775117224638315e-01
9 70 1.29212173034494976e-01
10 70 1.46705300456441728e-01
11 70 1.64251291281973466e-01
12 70 1.81846860295398455e-01
13 70 1.99488646150707660e-01
14 70 2.17173212356167128e-01
15 70 2.34897048368151756e-01
16 70 2.52656570795550206e-01
17 70 2.70448124715888583e-01
18 70 2.88267985104102675e-01
19 70 3.06112358374689586e-01
20 70 3.23977384037730909e-01
21 70 3.41859136469071512e-01
22 70 3.59753626794665438e-01
23 70 3.77656804888887032e-01
24 70 3.95564561486320521e-01
25 70 4.13472730406302003e-01
26 70 4.31377090889199122e-01
27 70 4.49273370043156373e-01
28 70 4.67157245399750398e-01
29 70 4.85024347576708259e-01
30 70 5.02870263045572141e-01
31 70 5.20690537001899489e-01
32 70 5.38480676335299613e-01
33 70 5.56236152696316877e-01
34 70 5.73952405656893871e-01
35 70 5.91624845960867507e-01
36 70 6.09248858860634290e-01
37 70 6.26819807535902496e-01
38 70 6.44333036590128971e-01
39 70 6.61783875620001627e-01
40 70 6.79167642853052644e-01
41 70 6.96479648848269628e-01
42 70 7.13715200254291471e-01
43 70 7.30869603619599073e-01
44 70 7.47938169248857254e-01
45 70 7.64916215099383234e-01
46 70 7.81799070711520105e-01
47 70 7.98582081166554270e-01
48 70 8.15260611065597329e-01
49 70 8.31830048522786081e-01
50 70 8.48285809165999716e-01
51 70 8.64623340138172658e-01
52 70 8.80838124092252484e-01
53 70 8.96925683172744459e-01
54 70 9.12881582976752370e-01
55 70 9.28701436487439302e-01
56 70 9.44380907972776851e-01
57 70 9.59915716842502653e-01
58 70 9.75301641456271073e-01
59 70 9.90534522876003853e-01
60 70 1.00561026855554703e+00
61 70 1.02052485596087883e+00
62 70 1.03527433611419961e+00
63 70 1.04985483705540572e+00
64 70 1.06426256721461110e+00
65 70 1.07849381868959648e+00
66 70 1.09254497042222498e+00
67 70 1.10641249126812946e+00
68 70 1.12009294295421680e+00
69 70 1.13358298291878290e+00
70 70 1.14687936702930804e+00
71 70 1.15997895217330838e+00
72 70 1.17287869871792183e+00
73 70 1.18557567283419774e+00
74 70 1.19806704868244096e+00
75 70 1.21035011045522922e+00
76 70 1.22242225427514373e+00
77 70 1.23428098994454949e+00
78 70 1.24592394254513317e+00
79 70 1.25734885388532214e+00
80 70 1.26855358379398298e+00
81 70 1.27953611125924582e+00
82 70 1.29029453541163663e+00
83 70 1.30082707635107075e+00
84 70 1.31113207581762592e+00
85 70 1.32120799770637043e+00
86 70 1.33105342842689556e+00
87 70 1.34066707710854294e+00
88 70 1.35004777565262768e+00
89 70 1.35919447863336540e+00
90 70 1.36810626304945093e+00
91 70 1.37678232792861777e+00
92 70 1.38522199378775501e+00
93 70 1.39342470195151136e+00
94 70 1.40139001373249572e+00
95 70 1.40911760947656672e+00
96 70 1.41660728747683051e+00
97 70 1.42385896276027468e+00
98 70 1.43087266575115324e+00
99 70 1.43764854081546645e+00
100 70 1.44418684469095449e+00
101 70 1.45048794480737464e+00
102 70 1.45655231750178160e+00
103 70 1.46238054613382129e+00
104 70 1.46797331910604001e+00
105 70 1.47333142779439030e+00
106 70 1.47845576439416471e+00
107 70 1.48334731968661870e+00
108 70 1.48800718073167659e+00
109 70 1.49243652849201958e+00
110 70 1.49663663539400793e+00
111 70 1.50060886283076655e+00
112 70 1.50435465861283046e+00
113 70 1.50787555437164711e+00
114 70 1.51117316292128767e+00
115 70 1.51424917558353278e+00
116 70 1.51710535948154179e+00
117 70 1.51974355480716272e+00
118 70 1.52216567206689479e+00
119 70 1.52437368931134931e+00
120 70 1.52636964935303965e+00
121 70 1.52815565697709110e+00
122 70 1.52973387614944434e+00
123 70 1.53110652722689600e+00
124 70 1.53227588417324512e+00
125 70 1.53324427178562428e+00
126 70 1.53401406293495457e+00
127 70 1.53458767582428868e+00
128 70 1.53496757126867966e+00
129 70 1.53515625000000089e+00
130 70 1.53515625000000000e+00
1 71 0.00000000000000000e+00
2 71 8.54332772688465650e-03
3 71 2.56676836592247964e-02
4 71 4.28660822130748770e-02
5 71 6.01357759259865121e-02
6 71 7.74739368162574021e-02
7 71 9.48776566556118195e-02
8 71 1.12343947337740793e-01
9 71 1.29869741345103096e-01
10 71 1.47451892316270955e-01
11 71 1.65087175715978418e-01
12 71 1.82772289609878874e-01
13 71 2.00503855545876686e-01
14 71 2.18278419543730312e-01
15 71 2.36092453194452795e-01
16 71 2.53942354870845655e-01
17 71 2.71824451050320604e-01
18 71 2.89734997750942913e-01
19 71 3.07670182081430987e-01
20 71 3.25626123905607412e-01
21 71 3.43598877621585863e-01
22 71 3.61584434055707005e-01
23 71 3.79578722471018759e-01
24 71 3.97577612689813231e-01
25 71 4.15576917329489315e-01
26 71 4.33572394150721796e-01
27 71 4.51559748516658366e-01
28 71 4.69534635961581237e-01
29 71 4.87492664867174907e-01
30 71 5.05429399244277322e-01
31 71 5.23340361617685268e-01
32 71 5.41221036011306222e-01
33 71 5.59066871030649337e-01
34 71 5.76873283039371687e-01
35 71 5.94635659426317242e-01
36 71 6.12349361959161786e-01
37 71 6.30009730220563724e-01
38 71 6.47612085122394210e-01
39 71 6.65151732493385772e-01
40 71 6.82623966735256493e-01
41 71 7.00024074542153985e-01
42 71 7.17347338677977397e-01
43 71 7.34589041805958298e-01
44 71 7.51744470364627548e-01
45 71 7.68808918484112924e-01
46 71 7.85777691936515255e-01
47 71 8.02646112113966748e-01
48 71 8.19409520027763350e-01
49 71 8.36063280321884261e-01
50 71 8.52602785294070964e-01
51 71 8.69023458917501879e-01
52 71 8.85320760856080691e-01
53 71 9.01490190466244457e-01
54 71 9.17527290778160753e-01
55 71 9.33427652449207446e-01
56 71 9.49186917682562137e-01
57 71 9.64800784103787668e-01
58 71 9.80265008588364073e-01
59 71 9.95575411033133628e-01
60 71 1.01072787806473552e+00
61 71 1.02571836667823679e+00
62 71 1.04054290779925918e+00
63 71 1.05519760976306687e+00
64 71 1.06967866170425285e+00
65 71 1.08398233685086676e+00
66 71 1.09810499571699460e+00
67 71 1.11204308918806904e+00
68 71 1.12579316149342401e+00
69 71 1.13935185306086328e+00
70 71 1.15271590324828677e+00
71 71 1.16588215294772723e+00
72 71 1.17884754705745309e+00
73 71 1.19160913681808700e+00
74 71 1.20416408200906910e+00
75 71 1.21650965300207514e+00
76 71 1.22864323266840159e+00
77 71 1.24056231813765150e+00
78 71 1.25226452240541364e+00
79 71 1.26374757578804631e+00
80 71 1.27500932722295990e+00
81 71 1.28604774541323663e+00
82 71 1.29686091981576701e+00
83 71 1.30744706147245027e+00
84 71 1.31780450368438218e+00
85 71 1.32793170252930359e+00
86 71 1.33782723722296093e+00
87 71 1.34748981032538029e+00
88 71 1.35691824779335346e+00
89 71 1.36611149888086358e+00
90 71 1.37506863588939732e+00
91 71 1.38378885377049388e+00
92 71 1.39227146958311265e+00
93 71 1.40051592180877083e+00
94 71 1.40852176952757180e+00
95 71 1.41628869145863590e+00
96 71 1.42381648486856993e+00
97 71 1.43110506435192986e+00
98 71 1.43815446048780049e+00
99 71 1.44496481837686841e+00
100 71 1.45153639606342755e+00
101 71 1.45786956284710700e+00
102 71 1.46396479748906816e+00
103 71 1.46982268631770840e+00
104 71 1.47544392123889523e+00
105 71 1.48082929765593940e+00
106 71 1.48597971230456749e+00
107 71 1.49089616100817901e+00
108 71 1.49557973635880970e+00
109 71 1.50003162532912926e+00
110 71 1.50425310682094948e+00
111 71 1.50824554915560527e+00
112 71 1.51201040751162363e+00
113 71 1.51554922131501435e+00
114 71 1.51886361158755356e+00
115 71 1.52195527825825816e+00
116 71 1.52482599744327962e+00
117 71 1.52747761869931131e+00
118 71 1.52991206225553023e+00
119 71 1.53213131622896426e+00
120 71 1.53413743382811862e+00
121 71 1.53593253054949375e+00
122 71 1.53751878137157894e+00
123 71 1.53889841795069682e+00
124 71 1.54007372582298174e+00
125 71 1.54104704161659445e+00
126 71 1.54182075027813492e+00
127 71 1.54239728231703310e+00
128 71 1.54277911107157362e+00
129 71 1.54296875000000089e+00
130 71 1.54296875000000000e+00
1 72 0.00000000000000000e+00
2 72 8.58658508246382124e-03
3 72 2.57976466144613781e-02
4 72 4.30831256673182908e-02
5 72 6.04402608673839103e-02
6 72 7.78662099140612213e-02
7 72 9.53580498538680876e-02
8 72 1.12912777450843271e-01
9 72 1.30527309655711216e-01
10 72 1.48198484176100154e-01
11 72 1.65923060149983370e-01
12 72 1.83697718924359266e-01
13 72 2.01519064941045711e-01
14 72 2.19383626731293496e-01
15 72 2.37287858020753861e-01
16 72 2.55228138946141103e-01
17 72 2.73200777384752569e-01
18 72 2.91202010397783095e-01
19 72 3.09228005788172333e-01
20 72 3.27274863773483859e-01
21 72 3.45338618774100159e-01
22 72 3.63415241316748572e-01
23 72 3.81500640053150486e-01
24 72 3.99590663893305942e-01
25 72 4.17681104252676683e-01
26 72 4.35767697412244415e-01
27 72 4.53846126990160414e-01
28 72 4.71912026523412020e-01
29 72 4.89960982157641611e-01
30 72 5.07988535442982503e-01
31 72 5.25990186233470935e-01
32 72 5.43961395687312832e-01
33 72 5.61897589364981798e-01
34 72 5.79794160421849503e-01
35 72 5.97646472891766978e-01
36 72 6.15449865057689172e-01
37 72 6.33199652905224841e-01
38 72 6.50891133654659559e-01
39 72 6.68519589366770028e-01
40 72 6.86080290617460342e-01
41 72 7.03568500236038230e-01
42 72 7.20979477101663324e-01
43 72 7.38308479992317523e-01
44 72 7.55550771480397843e-01
45 72 7.72701621868842614e-01
46 72 7.89756313161510293e-01
47 72 8.06710143061379115e-01
48 72 8.23558428989929370e-01
49 72 8.40296512120982442e-01
50 72 8.56919761422142101e-01
51 72 8.73423577696831099e-01
52 72 8.89803397619909009e-01
53 72 9.06054697759744454e-01
54 72 9.22172998579569136e-01
55 72 9.38153868410975589e-01
56 72 9.53992927392347201e-01
57 72 9.69685851365072682e-01
58 72 9.85228375720456961e-01
59 72 1.00061629919026340e+00
60 72 1.01584548757392401e+00
61 72 1.03091187739559498e+00
62 72 1.04581147948431852e+00
63 72 1.06054038247072802e+00
64 72 1.07509475619389461e+00
65 72 1.08947085501213703e+00
66 72 1.10366502101176422e+00
67 72 1.11767368710800863e+00
68 72 1.13149338003263122e+00
69 72 1.14512072320294345e+00
70 72 1.15855243946726549e+00
71 72 1.17178535372214609e+00
72 72 1.18481639539698436e+00
73 72 1.19764260080197604e+00
74 72 1.21026111533569725e+00
75 72 1.22266919554892128e+00
76 72 1.23486421106165922e+00
77 72 1.24684364633075351e+00
78 72 1.25860510226569411e+00
79 72 1.27014629769077070e+00
80 72 1.28146507065193682e+00
81 72 1.29255937956722766e+00
82 72 1.30342730421989716e+00
83 72 1.31406704659382978e+00
84 72 1.32447693155113866e+00
85 72 1.33465540735223676e+00
86 72 1.34460104601902630e+00
87 72 1.35431254354221764e+00
88 72 1.36378871993407924e+00
89 72 1.37302851912836177e+00
90 72 1.38203100872934370e+00
91 72 1.39079537961236976e+00
92 72 1.39932094537847029e+00
93 72 1.40760714166603051e+00
94 72 1.41565352532264832e+00
95 72 1.42345977344070507e+00
96 72 1.43102568226030957e+00
97 72 1.43835116594358503e+00
98 72 1.44543625522444774e+00
99 72 1.45228109593827037e+00
100 72 1.45888594743590039e+00
101 72 1.46525118088683914e+00
102 72 1.47137727747635449e+00
103 72 1.47726482650159552e+00
104 72 1.48291452337175023e+00
105 72 1.48832716751748872e+00
106 72 1.49350366021497050e+00
107 72 1.49844500232973954e+00
108 72 1.50315229198594302e+00
109 72 1.50762672216623872e+00
110 72 1.51186957824789081e+00
111 72 1.51588223548044376e+00
112 72 1.51966615641041658e+00
113 72 1.52322288825838137e+00
114 72 1.52655406025381968e+00
115 72 1.52966138093298354e+00
116 72 1.53254663540501768e+00
117 72 1.53521168259145968e+00
118 72 1.53765845244416566e+00
119 72 1.53988894314657943e+00
120 72 1.54190521830319782e+00
121 72 1.54370940412189617e+00
122 72 1.54530368659371353e+00
123 72 1.54669030867449764e+00
124 72 1.54787156747271837e+00
125 72 1.54884981144756462e+00
126 72 1.54962743762131527e+00
127 72 1.55020688880977753e+00
128 72 1.55059065087446779e+00
129 72 1.55078125000000089e+00
130 72 1.55078124999999978e+00
1 73 0.00000000000000000e+00
2 73 8.62984243804298598e-03
3 73 2.59276095696979562e-02
4 73 4.33001691215617115e-02
5 73 6.07447458087813155e-02
6 73 7.82584830118650543e-02
7 73 9.58384430521243558e-02
8 73 1.13481607563945749e-01
9 73 1.31184877966319308e-01
10 73 1.48945076035929352e-01
11 73 1.66758944583988350e-01
12 73 1.84623148238839629e-01
13 73 2.02534274336214681e-01
14 73 2.20488833918856708e-01
15 73 2.38483262847054872e-01
16 73 2.56513923021436496e-01
17 73 2.74577103719184590e-01
18 73 2.92669023044623333e-01
19 73 3.10785829494913735e-01
20 73 3.28923603641360363e-01
21 73 3.47078359926614510e-01
22 73 3.65246048577790083e-01
23 73 3.83422557635282213e-01
24 73 4.01603715096798652e-01
25 73 4.19785291175863995e-01
26 73 4.37963000673767033e-01
27 73 4.56132505463662519e-01
28 73 4.74289417085242804e-01
29 73 4.92429299448108315e-01
30 73 5.10547671641687684e-01
31 73 5.28640010849256603e-01
32 73 5.46701755363319442e-01
33 73 5.64728307699314147e-01
34 73 5.82715037804327318e-01
35 73 6.00657286357216602e-01
36 73 6.18550368156216668e-01
37 73 6.36389575589885959e-01
38 73 6.54170182186924909e-01
39 73 6.71887446240154285e-01
40 73 6.89536614499664191e-01
41 73 7.07112925929922587e-01
42 73 7.24611615525349362e-01
43 73 7.42027918178676860e-01
44 73 7.59357072596168137e-01
45 73 7.76594325253572193e-01
46 73 7.93734934386505220e-01
47 73 8.10774174008791593e-01
48 73 8.27707337952095279e-01
49 73 8.44529743920080622e-01
50 73 8.61236737550213238e-01
51 73 8.77823696476160209e-01
52 73 8.94286034383737327e-01
53 73 9.10619205053244452e-01
54 73 9.26818706380977519e-01
55 73 9.42880084372743621e-01
56 73 9.58798937102132265e-01
57 73 9.74570918626357696e-01
58 73 9.90191742852549961e-01
59 73 1.00565718734739318e+00
60 73 1.02096309708311250e+00
61 73 1.03610538811295316e+00
62 73 1.05108005116937808e+00
63 73 1.06588315517838916e+00
64 73 1.08051085068353658e+00
65 73 1.09495937317340730e+00
66 73 1.10922504630653385e+00
67 73 1.12330428502794821e+00
68 73 1.13719359857183844e+00
69 73 1.15088959334502383e+00
70 73 1.16438897568624422e+00
71 73 1.17768855449656495e+00
72 73 1.19078524373651584e+00
73 73 1.20367606478586486e+00
74 73 1.21635814866232561e+00
75 73 1.22882873809576720e+00
76 73 1.24108518945491708e+00
77 73 1.25312497452385552e+00
78 73 1.26494568212597480e+00
79 73 1.27654501959349531e+00
80 73 1.28792081408091375e+00
81 73 1.29907101372121869e+00
82 73 1.30999368862402754e+00
83 73 1.32068703171520929e+00
84 73 1.33114935941789492e+00
85 73 1.34137911217516970e+00
86 73 1.35137485481509212e+00
87 73 1.36113527675905499e+00
88 73 1.37065919207480502e+00
89 73 1.37994553937585951e+00
90 73 1.38899338156929009e+00
91 73 1.39780190545424565e+00
92 73 1.40637042117382771e+00
93 73 1.41469836152329020e+00
94 73 1.42278528111772462e+00
95 73 1.43063085542277424e+00
96 73 1.43823487965204899e+00
97 73 1.44559726753524043e+00
98 73 1.45271804996109499e+00
99 73 1.45959737349967233e+00
100 73 1.46623549880837323e+00
101 73 1.47263279892657151e+00
102 73 1.47878975746364105e+00
103 73 1.48470696668548263e+00
104 73 1.49038512550460522e+00
105 73 1.49582503737903783e+00
106 73 1.50102760812537328e+00
107 73 1.50599384365129985e+00
108 73 1.51072484761307613e+00
109 73 1.51522181900334840e+00
110 73 1.51948604967483214e+00
111 73 1.52351892180528226e+00
112 73 1.52732190530920953e+00
113 73 1.53089655520174861e+00
114 73 1.53424450892008579e+00
115 73 1.53736748360770892e+00
116 73 1.54026727336675573e+00
117 73 1.54294574648360783e+00
118 73 1.54540484263280131e+00
119 73 1.54764657006419437e+00
120 73 1.54967300277827702e+00
121 73 1.55148627769429881e+00
122 73 1.55308859181584791e+00
123 73 1.55448219939829868e+00
124 73 1.55566940912245499e+00
125 73 1.55665258127853479e+00
126 73 1.55743412496449585e+00
127 73 1.55801649530252195e+00
128 73 1.55840219067736196e+00
129 73 1.55859375000000089e+00
130 73 1.55859374999999978e+00
1 74 0.00000000000000000e+00
2 74 8.67309979362214725e-03
3 74 2.60575725249345379e-02
4 74 4.35172125758051254e-02
5 74 6.10492307501787068e-02
6 74 7.86507561096688734e-02
7 74 9.63188362503806100e-02
8 74 1.14050437677048241e-01
9 74 1.31842446276927400e-01
10 74 1.49691667895758551e-01
11 74 1.67594829017993302e-01
12 74 1.85548577553320049e-01
13 74 2.03549483731383679e-01
14 74 2.21594041106419892e-01
15 74 2.39678667673355883e-01
16 74 2.57799707096731945e-01
17 74 2.75953430053616611e-01
18 74 2.94136035691463571e-01
19 74 3.12343653201655136e-01
20 74 3.30572343509236810e-01
21 74 3.48818101079128862e-01
22 74 3.67076855838831650e-01
23 74 3.85344475217413940e-01
24 74 4.03616766300291419e-01
25 74 4.21889478099051307e-01
26 74 4.40158303935289708e-01
27 74 4.58418883937164567e-01
28 74 4.76666807647073643e-01
29 74 4.94897616738574964e-01
30 74 5.13106807840392865e-01
31 74 5.31289835465042382e-01
32 74 5.49442115039326051e-01
33 74 5.67559026033646608e-01
34 74 5.85635915186805134e-01
35 74 6.03668099822666226e-01
36 74 6.21650871254743942e-01
37 74 6.39579498274547076e-01
38 74 6.57449230719190147e-01
39 74 6.75255303113538541e-01
40 74 6.92992938381868040e-01
41 74 7.10657351623807054e-01
42 74 7.28243753949035288e-01
43 74 7.45747356365036196e-01
44 74 7.63163373711938431e-01
45 74 7.80487028638301883e-01
46 74 7.97713555611500258e-01
47 74 8.14838204956203960e-01
48 74 8.31856246914261077e-01
49 74 8.48762975719178803e-01
50 74 8.65553713678284597e-01
51 74 8.82223815255489430e-01
52 74 8.98768671147565645e-01
53 74 9.15183712346744449e-01
54 74 9.31464414182385902e-01
55 74 9.47606300334511764e-01
56 74 9.63604946811917440e-01
57 74 9.79455985887642600e-01
58 74 9.95155109984642849e-01
59 74 1.01069807550452295e+00
60 74 1.02608070659230100e+00
61 74 1.04129889883031135e+00
62 74 1.05634862285443742e+00
63 74 1.07122592788605031e+00
64 74 1.08592694517317834e+00
65 74 1.10044789133467757e+00
66 74 1.11478507160130347e+00
67 74 1.12893488294788780e+00
68 74 1.14289381711104565e+00
69 74 1.15665846348710422e+00
70 74 1.17022551190522295e+00
71 74 1.18359175527098404e+00
72 74 1.19675409207604733e+00
73 74 1.20970952876975368e+00
74 74 1.22245518198895398e+00
75 74 1.23498828064261312e+00
76 74 1.24730616784817472e+00
77 74 1.25940630271695775e+00
78 74 1.27128626198625549e+00
79 74 1.28294374149621948e+00
80 74 1.29437655750989067e+00
81 74 1.30558264787520995e+00
82 74 1.31656007302815792e+00
83 74 1.32730701683658880e+00
84 74 1.33782178728465140e+00
85 74 1.34810281699810286e+00
86 74 1.35814866361115771e+00
87 74 1.36795800997589234e+00
88 74 1.37752966421553102e+00
89 74 1.38686255962335747e+00
90 74 1.39595575440923647e+00
91 74 1.40480843129612154e+00
92 74 1.41341989696918513e+00
93 74 1.42178958138054989e+00
94 74 1.42991703691280092e+00
95 74 1.43780193740484319e+00
96 74 1.44544407704378841e+00
97 74 1.45284336912689560e+00
98 74 1.45999984469774202e+00
99 74 1.46691365106107408e+00
100 74 1.47358505018084629e+00
101 74 1.48001441696630365e+00
102 74 1.48620223745092717e+00
103 74 1.49214910686936997e+00
104 74 1.49785572763746067e+00
105 74 1.50332290724058693e+00
106 74 1.50855155603577606e+00
107 74 1.51354268497286015e+00
108 74 1.51829740324020945e+00
109 74 1.52281691584045809e+00
110 74 1.52710252110177347e+00
111 74 1.53115560813012075e+00
112 74 1.53497765420800247e+00
113 74 1.53857022214511585e+00
114 74 1.54193495758635168e+00
115 74 1.54507358628243430e+00
116 74 1.54798791132849400e+00
117 74 1.55067981037575642e+00
118 74 1.55315123282143697e+00
119 74 1.55540419698180954e+00
120 74 1.55744078725335600e+00
121 74 1.55926315126670145e+00
122 74 1.56087349703798228e+00
123 74 1.56227409012209972e+00
124 74 1.56346725077219162e+00
125 74 1.56445535110950495e+00
126 74 1.56524081230767642e+00
127 74 1.56582610179526638e+00
128 74 1.56621373048025614e+00
129 74 1.56640625000000089e+00
130 74 1.56640624999999956e+00
1 75 0.00000000000000000e+00
2 75 8.71635714920130852e-03
3 75 2.61875354801711195e-02
4 75 4.37342560300485461e-02
5 75 6.13537156915761051e-02
6 75 7.90430292074727064e-02
7 75 9.67992294486368643e-02
8 75 1.14619267790150733e-01
9 75 1.32500014587535520e-01
10 75 1.50438259755587778e-01
11 75 1.68430713451998226e-01
12 75 1.86474006867800440e-01
13 75 2.04564693126552649e-01
14 75 2.22699248293983104e-01
15 75 2.40874072499656894e-01
16 75 2.59085491172027338e-01
17 75 2.77329756388048576e-01
18 75 2.95603048338303809e-01
19 75 3.13901476908396537e-01
20 75 3.32221083377113313e-01
21 75 3.50557842231643213e-01
22 75 3.68907663099873218e-01
23 75 3.87266392799545722e-01
24 75 4.05629817503784185e-01
25 75 4.23993665022238619e-01
26 75 4.42353607196812326e-01
27 75 4.60705262410666561e-01
28 75 4.79044198208904426e-01
29 75 4.97365934029041667e-01
30 75 5.15665944039098045e-01
31 75 5.33939660080828160e-01
32 75 5.52182474715332661e-01
33 75 5.70389744367978957e-01
34 75 5.88556792569282949e-01
35 75 6.06678913288115962e-01
36 75 6.24751374353271327e-01
37 75 6.42769420959208193e-01
38 75 6.60728279251455497e-01
39 75 6.78623159986922686e-01
40 75 6.96449262264071889e-01
41 75 7.14201777317691300e-01
42 75 7.31875892372721215e-01
43 75 7.49466794551395532e-01
44 75 7.66969674827708725e-01
45 75 7.84379732023031684e-01
46 75 8.01692176836495296e-01
47 75 8.18902235903616438e-01
48 75 8.36005155876426986e-01
49 75 8.52996207518276983e-01
50 75 8.69870689806355846e-01
51 75 8.86623934034818539e-01
52 75 9.03251307911393964e-01
53 75 9.19748219640244447e-01
54 75 9.36110121983794286e-01
55 75 9.52332516296279907e-01
56 75 9.68410956521702726e-01
57 75 9.84341053148927725e-01
58 75 1.00011847711673596e+00
59 75 1.01573896366165273e+00
60 75 1.03119831610148949e+00
61 75 1.04649240954766953e+00
62 75 1.06161719453949699e+00
63 75 1.07656870059371124e+00
64 75 1.09134303966282031e+00
65 75 1.10593640949594785e+00
66 75 1.12034509689607309e+00
67 75 1.13456548086782738e+00
68 75 1.14859403565025286e+00
69 75 1.16242733362918460e+00
70 75 1.17606204812420168e+00
71 75 1.18949495604540290e+00
72 75 1.20272294041557881e+00
73 75 1.21574299275364295e+00
74 75 1.22855221531558212e+00
75 75 1.24114782318945904e+00
76 75 1.25352714624143236e+00
77 75 1.26568763091005976e+00
78 75 1.27762684184653619e+00
79 75 1.28934246339894387e+00
80 75 1.30083230093886759e+00
81 75 1.31209428202920098e+00
82 75 1.32312645743228829e+00
83 75 1.33392700195796809e+00
84 75 1.34449421515140788e+00
85 75 1.35482652182103602e+00
86 75 1.36492247240722353e+00
87 75 1.37478074319272969e+00
88 75 1.38440013635625681e+00
89 75 1.39377957987085543e+00
90 75 1.40291812724918263e+00
91 75 1.41181495713799721e+00
92 75 1.42046937276454277e+00
93 75 1.42888080123780936e+00
94 75 1.43704879270787744e+00
95 75 1.44497301938691236e+00
96 75 1.45265327443552805e+00
97 75 1.46008947071855100e+00
98 75 1.46728163943438927e+00
99 75 1.47422992862247626e+00
100 75 1.48093460155331957e+00
101 75 1.48739603500603601e+00
102 75 1.49361471743821350e+00
103 75 1.49959124705325686e+00
104 75 1.50532632977031566e+00
105 75 1.51082077710213580e+00
106 75 1.51607550394617885e+00
107 75 1.52109152629442068e+00
108 75 1.52586995886734256e+00
109 75 1.53041201267756777e+00
110 75 1.53471899252871480e+00
111 75 1.53879229445495924e+00
112 75 1.54263340310679564e+00
113 75 1.54624388908848287e+00
114 75 1.54962540625261802e+00
115 75 1.55277968895715968e+00
116 75 1.55570854929023183e+00
117 75 1.55841387426790501e+00
118 75 1.56089762301007262e+00
119 75 1.56316182389942449e+00
120 75 1.56520857172843519e+00
121 75 1.56704002483910387e+00
122 75 1.56865840226011666e+00
123 75 1.57006598084590054e+00
124 75 1.57126509242192802e+00
125 75 1.57225812094047512e+00
126 75 1.57304749965085677e+00
127 75 1.57363570828801103e+00
128 75 1.57402527028315009e+00
129 75 1.57421875000000067e+00
130 75 1.57421874999999956e+00
1 76 0.00000000000000000e+00
2 76 8.75961450478046980e-03
3 76 2.63174984354077011e-02
4 76 4.39512994842919599e-02
5 76 6.16582006329735172e-02
6 76 7.94353023052765395e-02
7 76 9.72796226468931186e-02
8 76 1.15188097903253212e-01
9 76 1.33157582898143639e-01
10 76 1.51184851615416976e-01
11 76 1.69266597886003151e-01
12 76 1.87399436182280832e-01
13 76 2.05579902521721647e-01
14 76 2.23804455481546316e-01
15 76 2.42069477325957905e-01
16 76 2.60371275247322731e-01
17 76 2.78706082722480597e-01
18 76 2.97070060985144047e-01
19 76 3.15459300615137939e-01
20 76 3.33869823244989816e-01
21 76 3.52297583384157564e-01
22 76 3.70738470360914785e-01
23 76 3.89188310381677449e-01
24 76 4.07642868707276951e-01
25 76 4.26097851945425876e-01
26 76 4.44548910458334945e-01
27 76 4.62991640884168609e-01
28 76 4.81421588770735209e-01
29 76 4.99834251319508371e-01
30 76 5.18225080237803226e-01
31 76 5.36589484696613939e-01
32 76 5.54922834391339270e-01
33 76 5.73220462702311306e-01
34 76 5.91477669951760765e-01
35 76 6.09689726753565697e-01
36 76 6.27851877451798712e-01
37 76 6.45959343643869310e-01
38 76 6.64007327783720736e-01
39 76 6.81991016860306942e-01
40 76 6.99905586146275738e-01
41 76 7.17746203011575656e-01
42 76 7.35508030796407142e-01
43 76 7.53186232737754868e-01
44 76 7.70775975943479019e-01
45 76 7.88272435407761374e-01
46 76 8.05670798061490334e-01
47 76 8.22966266851028916e-01
48 76 8.40154064838592896e-01
49 76 8.57229439317375164e-01
50 76 8.74187665934427094e-01
51 76 8.91024052814147538e-01
52 76 9.07733944675222282e-01
53 76 9.24312726933744444e-01
54 76 9.40755829785202780e-01
55 76 9.57058732258047939e-01
56 76 9.73216966231487901e-01
57 76 9.89226120410212739e-01
58 76 1.00508184424882896e+00
59 76 1.02077985181878250e+00
60 76 1.03631592561067798e+00
61 76 1.05168592026502772e+00
62 76 1.06688576622455655e+00
63 76 1.08191147330137238e+00
64 76 1.09675913415246229e+00
65 76 1.11142492765721812e+00
66 76 1.12590512219084271e+00
67 76 1.14019607878776696e+00
68 76 1.15429425418946008e+00
69 76 1.16819620377126498e+00
70 76 1.18189858434318040e+00
71 76 1.19539815681982176e+00
72 76 1.20869178875511007e+00
73 76 1.22177645673753199e+00
74 76 1.23464924864221026e+00
75 76 1.24730736573630518e+00
76 76 1.25974812463468977e+00
77 76 1.27196895910316199e+00
78 76 1.28396742170681666e+00
79 76 1.29574118530166804e+00
80 76 1.30728804436784429e+00
81 76 1.31860591618319178e+00
82 76 1.32969284183641867e+00
83 76 1.34054698707934761e+00
84 76 1.35116664301816414e+00
85 76 1.36155022664396919e+00
86 76 1.37169628120328890e+00
87 76 1.38160347640956704e+00
88 76 1.39127060849698259e+00
89 76 1.40069660011835317e+00
90 76 1.40988050008912902e+00
91 76 1.41882148297987309e+00
92 76 1.42751884855990041e+00
93 76 1.43597202109506905e+00
94 76 1.44418054850295396e+00
95 76 1.45214410136898153e+00
96 76 1.45986247182726769e+00
97 76 1.46733557231020617e+00
98 76 1.47456343417103630e+00
99 76 1.48154620618387822e+00
100 76 1.48828415292579264e+00
101 76 1.49477765304576815e+00
102 76 1.50102719742550006e+00
103 76 1.50703338723714397e+00
104 76 1.51279693190317066e+00
105 76 1.51831864696368490e+00
106 76 1.52359945185658185e+00
107 76 1.52864036761598121e+00
108 76 1.53344251449447566e+00
109 76 1.53800710951467723e+00
110 76 1.54233546395565613e+00
111 76 1.54642898077979773e+00
112 76 1.55028915200558881e+00
113 76 1.55391755603185011e+00
114 76 1.55731585491888391e+00
115 76 1.56048579163188506e+00
116 76 1.56342918725197011e+00
117 76 1.56614793816005338e+00
118 76 1.56864401319870850e+00
119 76 1.57091945081703943e+00
120 76 1.57297635620351395e+00
121 76 1.57481689841150629e+00
122 76 1.57644330748225103e+00
123 76 1.57785787156970159e+00
124 76 1.57906293407166487e+00
125 76 1.58006089077144507e+00
126 76 1.58085418699403735e+00
127 76 1.58144531478075545e+00
128 76 1.58183681008604404e+00
129 76 1.58203125000000044e+00
130 76 1.58203124999999933e+00
1 77 0.00000000000000000e+00
2 77 8.80287186035963280e-03
3 77 2.64474613906442828e-02
4 77 4.41683429385353737e-02
5 77 6.19626855743709154e-02
6 77 7.98275754030803725e-02
7 77 9.77600158451493728e-02
8 77 1.15756928016355704e-01
9 77 1.33815151208751759e-01
10 77 1.51931443475246203e-01
11 77 1.70102482320008103e-01
12 77 1.88324865496761223e-01
13 77 2.06595111916890645e-01
14 77 2.24909662669109500e-01
15 77 2.43264882152258943e-01
16 77 2.61657059322618124e-01
17 77 2.80082409056912618e-01
18 77 2.98537073631984284e-01
19 77 3.17017124321879395e-01
20 77 3.35518563112866375e-01
21 77 3.54037324536671916e-01
22 77 3.72569277621956352e-01
23 77 3.91110227963809232e-01
24 77 4.09655919910769717e-01
25 77 4.28202038868613077e-01
26 77 4.46744213719857564e-01
27 77 4.65278019357670714e-01
28 77 4.83798979332565993e-01
29 77 5.02302568609975020e-01
30 77 5.20784216436508407e-01
31 77 5.39239309312399717e-01
32 77 5.57663194067345880e-01
33 77 5.76051181036643656e-01
34 77 5.94398547334238470e-01
35 77 6.12700540219015433e-01
36 77 6.30952380550326208e-01
37 77 6.49149266328530317e-01
38 77 6.67286376315985974e-01
39 77 6.85358873733691198e-01
40 77 7.03361910028479587e-01
41 77 7.21290628705459902e-01
42 77 7.39140169220092957e-01
43 77 7.56905670924114204e-01
44 77 7.74582277059249313e-01
45 77 7.92165138792491064e-01
46 77 8.09649419286485261e-01
47 77 8.27030297798441394e-01
48 77 8.44302973800758694e-01
49 77 8.61462671116473344e-01
50 77 8.78504642062498231e-01
51 77 8.95424171593476537e-01
52 77 9.12216581439050600e-01
53 77 9.28877234227244442e-01
54 77 9.45401537586611163e-01
55 77 9.61784948219816083e-01
56 77 9.78022975941273076e-01
57 77 9.94111187671497643e-01
58 77 1.01004521138092196e+00
59 77 1.02582073997591228e+00
60 77 1.04143353511986647e+00
61 77 1.05687943098238568e+00
62 77 1.07215433790961612e+00
63 77 1.08725424600903353e+00
64 77 1.10217522864210404e+00
65 77 1.11691344581848839e+00
66 77 1.13146514748561233e+00
67 77 1.14582667670770655e+00
68 77 1.15999447272866729e+00
69 77 1.17396507391334537e+00
70 77 1.18773512056215913e+00
71 77 1.20130135759424062e+00
72 77 1.21466063709464156e+00
73 77 1.22780992072142103e+00
74 77 1.24074628196883840e+00
75 77 1.25346690828315110e+00
76 77 1.26596910302794763e+00
77 77 1.27825028729626422e+00
78 77 1.29030800156709713e+00
79 77 1.30213990720439265e+00
80 77 1.31374378779682122e+00
81 77 1.32511755033718281e+00
82 77 1.33625922624054927e+00
83 77 1.34716697220072712e+00
84 77 1.35783907088492040e+00
85 77 1.36827393146690235e+00
86 77 1.37847008999935428e+00
87 77 1.38842620962640462e+00
88 77 1.39814108063770837e+00
89 77 1.40761362036585114e+00
90 77 1.41684287292907540e+00
91 77 1.42582800882174898e+00
92 77 1.43456832435525805e+00
93 77 1.44306324095232852e+00
94 77 1.45131230429803026e+00
95 77 1.45931518335105048e+00
96 77 1.46707166921900733e+00
97 77 1.47458167390186157e+00
98 77 1.48184522890768333e+00
99 77 1.48886248374527996e+00
100 77 1.49563370429826592e+00
101 77 1.50215927108550029e+00
102 77 1.50843967741278617e+00
103 77 1.51447552742103131e+00
104 77 1.52026753403602588e+00
105 77 1.52581651682523378e+00
106 77 1.53112339976698464e+00
107 77 1.53618920893754152e+00
108 77 1.54101507012160877e+00
109 77 1.54560220635178691e+00
110 77 1.54995193538259768e+00
111 77 1.55406566710463623e+00
112 77 1.55794490090438176e+00
113 77 1.56159122297521713e+00
114 77 1.56500630358515003e+00
115 77 1.56819189430661043e+00
116 77 1.57114982521370816e+00
117 77 1.57388200205220152e+00
118 77 1.57639040338734393e+00
119 77 1.57867707773465460e+00
120 77 1.58074414067859292e+00
121 77 1.58259377198390871e+00
122 77 1.58422821270438541e+00
123 77 1.58564976229350263e+00
124 77 1.58686077572140150e+00
125 77 1.58786366060241524e+00
126 77 1.58866087433721770e+00
127 77 1.58925492127349965e+00
128 77 1.58964834988893799e+00
129 77 1.58984375000000044e+00
130 77 1.58984374999999933e+00
1 78 0.00000000000000000e+00
2 78 8.84612921593879581e-03
3 78 2.65774243458808644e-02
4 78 4.43853863927787876e-02
5 78 6.22671705157683136e-02
6 78 8.02198485008842055e-02
7 78 9.82404090434056410e-02
8 78 1.16325758129458182e-01
9 78 1.34472719519359879e-01
10 78 1.52678035335075402e-01
11 78 1.70938366754013055e-01
12 78 1.89250294811241643e-01
13 78 2.07610321312059642e-01
14 78 2.26014869856672684e-01
15 78 2.44460286978559982e-01
16 78 2.62942843397913517e-01
17 78 2.81458735391344639e-01
18 78 3.00004086278824522e-01
19 78 3.18574948028620797e-01
20 78 3.37167302980742878e-01
21 78 3.55777065689186267e-01
22 78 3.74400084882997863e-01
23 78 3.93032145545940959e-01
24 78 4.11668971114262428e-01
25 78 4.30306225791800390e-01
26 78 4.48939516981380182e-01
27 78 4.67564397831172762e-01
28 78 4.86176369894396776e-01
29 78 5.04770885900441724e-01
30 78 5.23343352635213588e-01
31 78 5.41889133928185385e-01
32 78 5.60403553743352489e-01
33 78 5.78881899370976005e-01
34 78 5.97319424716716174e-01
35 78 6.15711353684465057e-01
36 78 6.34052883648853705e-01
37 78 6.52339189013191434e-01
38 78 6.70565424848251324e-01
39 78 6.88726730607075455e-01
40 78 7.06818233910683436e-01
41 78 7.24835054399344259e-01
42 78 7.42772307643778995e-01
43 78 7.60625109110473541e-01
44 78 7.78388578175019608e-01
45 78 7.96057842177220754e-01
46 78 8.13628040511480299e-01
47 78 8.31094328745853872e-01
48 78 8.48451882762924603e-01
49 78 8.65695902915571414e-01
50 78 8.82821618190569479e-01
51 78 8.99824290372805646e-01
52 78 9.16699218202879029e-01
53 78 9.33441741520744328e-01
54 78 9.50047245388019546e-01
55 78 9.66511164181584226e-01
56 78 9.82828985651058251e-01
57 78 9.98996254932782657e-01
58 78 1.01500857851301496e+00
59 78 1.03086162813304205e+00
60 78 1.04655114462905496e+00
61 78 1.06207294169974387e+00
62 78 1.07742290959467568e+00
63 78 1.09259701871669468e+00
64 78 1.10759132313174580e+00
65 78 1.12240196397975867e+00
66 78 1.13702517278038195e+00
67 78 1.15145727462764613e+00
68 78 1.16569469126787473e+00
69 78 1.17973394405542553e+00
70 78 1.19357165678113764e+00
71 78 1.20720455836865947e+00
72 78 1.22062948543417304e+00
73 78 1.23384338470531030e+00
74 78 1.24684331529546655e+00
75 78 1.25962645082999702e+00
76 78 1.27219008142120549e+00
77 78 1.28453161548936623e+00
78 78 1.29664858142737782e+00
79 78 1.30853862910711727e+00
80 78 1.32019953122579836e+00
81 78 1.33162918449117385e+00
82 78 1.34282561064467987e+00
83 78 1.35378695732210685e+00
84 78 1.36451149875167665e+00
85 78 1.37499763628983551e+00
86 78 1.38524389879541987e+00
87 78 1.39524894284324197e+00
88 78 1.40501155277843415e+00
89 78 1.41453064061334910e+00
90 78 1.42380524576902179e+00
91 78 1.43283453466362487e+00
92 78 1.44161780015061547e+00
93 78 1.45015446080958821e+00
94 78 1.45844406009310634e+00
95 78 1.46648626533311965e+00
96 78 1.47428086661074675e+00
97 78 1.48182777549351696e+00
98 78 1.48912702364433058e+00
99 78 1.49617876130668193e+00
100 78 1.50298325567073876e+00
101 78 1.50954088912523243e+00
102 78 1.51585215740007251e+00
103 78 1.52191766760491842e+00
104 78 1.52773813616888088e+00
105 78 1.53331438668678310e+00
106 78 1.53864734767738764e+00
107 78 1.54373805025910205e+00
108 78 1.54858762574874187e+00
109 78 1.55319730318889637e+00
110 78 1.55756840680953923e+00
111 78 1.56170235342947472e+00
112 78 1.56560064980317470e+00
113 78 1.56926488991858459e+00
114 78 1.57269675225141592e+00
115 78 1.57589799698133581e+00
116 78 1.57887046317544621e+00
117 78 1.58161606594435011e+00
118 78 1.58413679357597958e+00
119 78 1.58643470465226955e+00
120 78 1.58851192515367212e+00
121 78 1.59037064555631114e+00
122 78 1.59201311792652023e+00
123 78 1.59344165301730345e+00
124 78 1.59465861737113790e+00
125 78 1.59566643043338541e+00
126 78 1.59646756168039805e+00
127 78 1.59706452776624430e+00
128 78 1.59745988969183195e+00
129 78 1.59765625000000067e+00
130 78 1.59765624999999933e+00
1 79 0.00000000000000000e+00
2 79 8.88938657151795708e-03
3 79 2.67073873011174495e-02
4 79 4.46024298470222083e-02
5 79 6.25716554571657119e-02
6 79 8.06121215986880524e-02
7 79 9.87208022416619091e-02
8 79 1.16894588242560660e-01
9 79 1.35130287829967999e-01
10 79 1.53424627194904628e-01
11 79 1.71774251188018007e-01
12 79 1.90175724125722007e-01
13 79 2.08625530707228668e-01
14 79 2.27120077044235869e-01
15 79 2.45655691804860993e-01
16 79 2.64228627473208966e-01
17 79 2.82835061725776660e-01
18 79 3.01471098925664760e-01
19 79 3.20132771735362198e-01
20 79 3.38816042848619381e-01
21 79 3.57516806841700618e-01
22 79 3.76230892144039430e-01
23 79 3.94954063128072685e-01
24 79 4.13682022317755194e-01
25 79 4.32410412714987702e-01
26 79 4.51134820242902801e-01
27 79 4.69850776304674811e-01
28 79 4.88553760456227559e-01
29 79 5.07239203190908428e-01
30 79 5.25902488833918769e-01
31 79 5.44538958543971163e-01
32 79 5.63143913419359099e-01
33 79 5.81712617705308466e-01
34 79 6.00240302099194101e-01
35 79 6.18722167149914792e-01
36 79 6.37153386747381090e-01
37 79 6.55529111697852551e-01
38 79 6.73844473380516673e-01
39 79 6.92094587480459711e-01
40 79 7.10274557792887173e-01
41 79 7.28379480093228615e-01
42 79 7.46404446067464922e-01
43 79 7.64344547296832877e-01
44 79 7.82194879290789791e-01
45 79 7.99950545561950443e-01
46 79 8.17606661736475337e-01
47 79 8.35158359693266461e-01
48 79 8.52600791725090623e-01
49 79 8.69929134714669483e-01
50 79 8.87138594318640838e-01
51 79 9.04224409152134756e-01
52 79 9.21181854966707347e-01
53 79 9.38006248814244326e-01
54 79 9.54692953189427929e-01
55 79 9.71237380143352369e-01
56 79 9.87634995360843426e-01
57 79 1.00388132219406767e+00
58 79 1.01997194564510796e+00
59 79 1.03590251629017183e+00
60 79 1.05166875413824346e+00
61 79 1.06726645241710205e+00
62 79 1.08269148127973525e+00
63 79 1.09793979142435583e+00
64 79 1.11300741762138755e+00
65 79 1.12789048214102894e+00
66 79 1.14258519807515158e+00
67 79 1.15708787254758549e+00
68 79 1.17139490980708194e+00
69 79 1.18550281419750592e+00
70 79 1.19940819300011614e+00
71 79 1.21310775914307856e+00
72 79 1.22659833377370431e+00
73 79 1.23987684868919956e+00
74 79 1.25294034862209469e+00
75 79 1.26578599337684294e+00
76 79 1.27841105981446335e+00
77 79 1.29081294368246824e+00
78 79 1.30298916128765829e+00
79 79 1.31493735100984166e+00
80 79 1.32665527465477529e+00
81 79 1.33814081864516510e+00
82 79 1.34939199504881024e+00
83 79 1.36040694244348659e+00
84 79 1.37118392661843314e+00
85 79 1.38172134111276890e+00
86 79 1.39201770759148546e+00
87 79 1.40207167606007910e+00
88 79 1.41188202491915993e+00
89 79 1.42144766086084728e+00
90 79 1.43076761860896817e+00
91 79 1.43984106050550098e+00
92 79 1.44866727594597289e+00
93 79 1.45724568066684768e+00
94 79 1.46557581588818264e+00
95 79 1.47365734731518883e+00
96 79 1.48149006400248640e+00
97 79 1.48907387708517214e+00
98 79 1.49640881838097783e+00
99 79 1.50349503886808389e+00
100 79 1.51033280704321182e+00
101 79 1.51692250716496457e+00
102 79 1.52326463738735884e+00
103 79 1.52935980778880554e+00
104 79 1.53520873830173632e+00
105 79 1.54081225654833220e+00
106 79 1.54617129558779065e+00
107 79 1.55128689158066235e+00
108 79 1.55616018137587520e+00
109 79 1.56079240002600583e+00
110 79 1.56518487823648078e+00
111 79 1.56933903975431344e+00
112 79 1.57325639870196787e+00
113 79 1.57693855686195183e+00
114 79 1.58038720091768181e+00
115 79 1.58360409965606097e+00
116 79 1.58659110113718427e+00
117 79 1.58935012983649870e+00
118 79 1.59188318376461524e+00
119 79 1.59419233156988449e+00
120 79 1.59627970962875132e+00
121 79 1.59814751912871378e+00
122 79 1.59979802314865460e+00
123 79 1.60123354374110449e+00
124 79 1.60245645902087430e+00
125 79 1.60346920026435580e+00
126 79 1.60427424902357840e+00
127 79 1.60487413425898873e+00
128 79 1.60527142949472612e+00
129 79 1.60546875000000067e+00
130 79 1.60546874999999933e+00
1 80 0.00000000000000000e+00
2 80 8.93264392709712009e-03
3 80 2.68373502563540312e-02
4 80 4.48194733012656291e-02
5 80 6.28761403985631101e-02
6 80 8.10043946964918854e-02
7 80 9.92011954399181634e-02
8 80 1.17463418355663138e-01
9 80 1.35787856140576119e-01
10 80 1.54171219054733827e-01
11 80 1.72610135622022959e-01
12 80 1.91101153440202398e-01
13 80 2.09640740102397666e-01
14 80 2.28225284231799053e-01
15 80 2.46851096631162004e-01
16 80 2.65514411548504414e-01
17 80 2.84211388060208681e-01
18 80 3.02938111572505053e-01
19 80 3.21690595442103600e-01
20 80 3.40464782716495884e-01
21 80 3.59256547994215025e-01
22 80 3.78061699405080998e-01
23 80 3.96875980710204468e-01
24 80 4.15695073521247904e-01
25 80 4.34514599638174959e-01
26 80 4.53330123504425420e-01
27 80 4.72137154778176915e-01
28 80 4.90931151018058343e-01
29 80 5.09707520481375131e-01
30 80 5.28461625032623949e-01
31 80 5.47188783159756942e-01
32 80 5.65884273095365709e-01
33 80 5.84543336039641037e-01
34 80 6.03161179481672027e-01
35 80 6.21732980615364417e-01
36 80 6.40253889845908586e-01
37 80 6.58719034382513557e-01
38 80 6.77123521912781912e-01
39 80 6.95462444353843856e-01
40 80 7.13730881675091133e-01
41 80 7.31923905787112972e-01
42 80 7.50036584491150959e-01
43 80 7.68063985483192213e-01
44 80 7.86001180406560085e-01
45 80 8.03843248946680133e-01
46 80 8.21585282961470265e-01
47 80 8.39222390640679050e-01
48 80 8.56749700687256421e-01
49 80 8.74162366513767664e-01
50 80 8.91455570446712087e-01
51 80 9.08624527931463977e-01
52 80 9.25664491730535777e-01
53 80 9.42570756107744323e-01
54 80 9.59338660990836312e-01
55 80 9.75963596105120623e-01
56 80 9.92441005070628601e-01
57 80 1.00876638945535269e+00
58 80 1.02493531277720096e+00
59 80 1.04094340444730160e+00
60 80 1.05678636364743195e+00
61 80 1.07245996313446001e+00
62 80 1.08796005296479481e+00
63 80 1.10328256413201697e+00
64 80 1.11842351211102931e+00
65 80 1.13337900030229921e+00
66 80 1.14814522336992120e+00
67 80 1.16271847046752508e+00
68 80 1.17709512834628915e+00
69 80 1.19127168433958608e+00
70 80 1.20524472921909465e+00
71 80 1.21901095991749742e+00
72 80 1.23256718211323579e+00
73 80 1.24591031267308883e+00
74 80 1.25903738194872306e+00
75 80 1.27194553592368886e+00
76 80 1.28463203820772121e+00
77 80 1.29709427187557003e+00
78 80 1.30932974114793899e+00
79 80 1.32133607291256583e+00
80 80 1.33311101808375221e+00
81 80 1.34465245279915591e+00
82 80 1.35595837945294062e+00
83 80 1.36702692756486610e+00
84 80 1.37785635448518939e+00
85 80 1.38844504593570206e+00
86 80 1.39879151638755128e+00
87 80 1.40889440927691645e+00
88 80 1.41875249705988593e+00
89 80 1.42836468110834525e+00
90 80 1.43772999144891434e+00
91 80 1.44684758634737687e+00
92 80 1.45571675174133031e+00
93 80 1.46433690052410737e+00
94 80 1.47270757168325894e+00
95 80 1.48082842929725800e+00
96 80 1.48869926139422604e+00
97 80 1.49631997867682731e+00
98 80 1.50369061311762509e+00
99 80 1.51081131642948563e+00
100 80 1.51768235841568488e+00
101 80 1.52430412520469694e+00
102 80 1.53067711737464540e+00
103 80 1.53680194797269243e+00
104 80 1.54267934043459154e+00
105 80 1.54831012640988108e+00
106 80 1.55369524349819366e+00
107 80 1.55883573290222266e+00
108 80 1.56373273700300830e+00
109 80 1.56838749686311552e+00
110 80 1.57280134966342211e+00
111 80 1.57697572607915193e+00
112 80 1.58091214760076060e+00
113 80 1.58461222380531908e+00
114 80 1.58807764958394770e+00
115 80 1.59131020233078635e+00
116 80 1.59431173909892232e+00
117 80 1.59708419372864729e+00
118 80 1.59962957395325089e+00
119 80 1.60194995848749944e+00
120 80 1.60404749410383052e+00
121 80 1.60592439270111620e+00
122 80 1.60758292837078898e+00
123 80 1.60902543446490554e+00
124 80 1.61025430067061071e+00
125 80 1.61127197009532597e+00
126 80 1.61208093636675875e+00
127 80 1.61268374075173337e+00
128 80 1.61308296929762029e+00
129 80 1.61328125000000067e+00
130 80 1.61328124999999933e+00
1 81 0.00000000000000000e+00
2 81 8.97590128267628309e-03
3 81 2.69673132115906163e-02
4 81 4.50365167555090429e-02
5 81 6.31806253399605083e-02
6 81 8.13966677942957045e-02
7 81 9.96815886381744315e-02
8 81 1.18032248468765630e-01
9 81 1.36445424451184238e-01
10 81 1.54917810914563053e-01
11 81 1.73446020056027911e-01
12 81 1.92026582754682790e-01
13 81 2.10655949497566636e-01
14 81 2.29330491419362265e-01
15 81 2.48046501457463014e-01
16 81 2.66800195623799863e-01
17 81 2.85587714394640702e-01
18 81 3.04405124219345291e-01
19 81 3.23248419148845001e-01
20 81 3.42113522584372443e-01
21 81 3.60996289146729377e-01
22 81 3.79892506666122509e-01
23 81 3.98797898292336250e-01
24 81 4.17708124724740559e-01
25 81 4.36618786561362215e-01
26 81 4.55525426765948094e-01
27 81 4.74423533251679075e-01
28 81 4.93308541579889126e-01
29 81 5.12175837771841835e-01
30 81 5.31020761231329130e-01
31 81 5.49838607775542720e-01
32 81 5.68624632771372318e-01
33 81 5.87374054373973498e-01
34 81 6.06082056864149954e-01
35 81 6.24743794080814152e-01
36 81 6.43354392944435971e-01
37 81 6.61908957067174675e-01
38 81 6.80402570445047261e-01
39 81 6.98830301227228112e-01
40 81 7.17187205557294982e-01
41 81 7.35468331480997217e-01
42 81 7.53668722914836997e-01
43 81 7.71783423669551438e-01
44 81 7.89807481522330268e-01
45 81 8.07735952331409823e-01
46 81 8.25563904186465303e-01
47 81 8.43286421588091639e-01
48 81 8.60898609649422331e-01
49 81 8.78395598312865844e-01
50 81 8.95772546574783224e-01
51 81 9.13024646710793086e-01
52 81 9.30147128494363984e-01
53 81 9.47135263401244321e-01
54 81 9.63984368792244806e-01
55 81 9.80689812066888766e-01
56 81 9.97247014780413665e-01
57 81 1.01365145671663770e+00
58 81 1.02989867990929396e+00
59 81 1.04598429260443138e+00
60 81 1.06190397315662044e+00
61 81 1.07765347385181820e+00
62 81 1.09322862464985437e+00
63 81 1.10862533683967790e+00
64 81 1.12383960660067128e+00
65 81 1.13886751846356971e+00
66 81 1.15370524866469082e+00
67 81 1.16834906838746466e+00
68 81 1.18279534688549659e+00
69 81 1.19704055448166646e+00
70 81 1.21108126543807360e+00
71 81 1.22491416069191628e+00
72 81 1.23853603045276728e+00
73 81 1.25194377665697787e+00
74 81 1.26513441527535120e+00
75 81 1.27810507847053478e+00
76 81 1.29085301660097884e+00
77 81 1.30337560006867226e+00
78 81 1.31567032100821968e+00
79 81 1.32773479481529000e+00
80 81 1.33956676151272913e+00
81 81 1.35116408695314694e+00
82 81 1.36252476385707122e+00
83 81 1.37364691268624561e+00
84 81 1.38452878235194587e+00
85 81 1.39516875075863522e+00
86 81 1.40556532518361688e+00
87 81 1.41571714249375380e+00
88 81 1.42562296920061171e+00
89 81 1.43528170135584321e+00
90 81 1.44469236428886072e+00
91 81 1.45385411218925276e+00
92 81 1.46276622753668795e+00
93 81 1.47142812038136706e+00
94 81 1.47983932747833502e+00
95 81 1.48799951127932695e+00
96 81 1.49590845878596546e+00
97 81 1.50356608026848249e+00
98 81 1.51097240785427211e+00
99 81 1.51812759399088737e+00
100 81 1.52503190978815795e+00
101 81 1.53168574324442908e+00
102 81 1.53808959736193152e+00
103 81 1.54424408815657954e+00
104 81 1.55014994256744676e+00
105 81 1.55580799627143018e+00
106 81 1.56121919140859644e+00
107 81 1.56638457422378297e+00
108 81 1.57130529263014140e+00
109 81 1.57598259370022498e+00
110 81 1.58041782109036366e+00
111 81 1.58461241240399064e+00
112 81 1.58856789649955377e+00
113 81 1.59228589074868609e+00
114 81 1.59576809825021382e+00
115 81 1.59901630500551151e+00
116 81 1.60203237706066037e+00
117 81 1.60481825762079566e+00
118 81 1.60737596414188655e+00
119 81 1.60970758540511416e+00
120 81 1.61181527857890949e+00
121 81 1.61370126627351884e+00
122 81 1.61536783359292380e+00
123 81 1.61681732518870658e+00
124 81 1.61805214232034733e+00
125 81 1.61907473992629614e+00
126 81 1.61988762370993911e+00
127 81 1.62049334724447780e+00
128 81 1.62089450910051425e+00
129 81 1.62109375000000044e+00
130 81 1.62109374999999933e+00
1 82 0.00000000000000000e+00
2 82 9.01915863825544610e-03
3 82 2.70972761668271979e-02
4 82 4.52535602097524567e-02
5 82 6.34851102813579066e-02
6 82 8.17889408920995375e-02
7 82 1.00161981836430700e-01
8 82 1.18601078581868122e-01
9 82 1.37102992761792331e-01
10 82 1.55664402774392280e-01
11 82 1.74281904490032863e-01
12 82 1.92952012069163209e-01
13 82 2.11671158892735634e-01
14 82 2.30435698606925449e-01
15 82 2.49241906283764053e-01
16 82 2.68085979699095256e-01
17 82 2.86964040729072722e-01
18 82 3.05872136866185529e-01
19 82 3.24806242855586458e-01
20 82 3.43762262452248946e-01
21 82 3.62736030299243728e-01
22 82 3.81723313927164021e-01
23 82 4.00719815874467977e-01
24 82 4.19721175928233325e-01
25 82 4.38722973484549528e-01
26 82 4.57720730027470768e-01
27 82 4.76709911725181179e-01
28 82 4.95685932141719909e-01
29 82 5.14644155062308539e-01
30 82 5.33579897430034311e-01
31 82 5.52488432391328499e-01
32 82 5.71364992447378928e-01
33 82 5.90204772708305847e-01
34 82 6.09002934246627770e-01
35 82 6.27754607546263887e-01
36 82 6.46454896042963245e-01
37 82 6.65098879751835792e-01
38 82 6.83681618977312389e-01
39 82 7.02198158100612368e-01
40 82 7.20643529439498831e-01
41 82 7.39012757174881463e-01
42 82 7.57300861338523035e-01
43 82 7.75502861855910663e-01
44 82 7.93613782638100562e-01
45 82 8.11628655716139624e-01
46 82 8.29542525411460230e-01
47 82 8.47350452535504117e-01
48 82 8.65047518611588240e-01
49 82 8.82628830111964024e-01
50 82 9.00089522702854472e-01
51 82 9.17424765490122196e-01
52 82 9.34629765258192302e-01
53 82 9.51699770694744207e-01
54 82 9.68630076593653189e-01
55 82 9.85416028028656910e-01
56 82 1.00205302449019884e+00
57 82 1.01853652397792271e+00
58 82 1.03486204704138696e+00
59 82 1.05102518076156115e+00
60 82 1.06702158266580893e+00
61 82 1.08284698456917639e+00
62 82 1.09849719633491416e+00
63 82 1.11396810954733905e+00
64 82 1.12925570109031304e+00
65 82 1.14435603662483998e+00
66 82 1.15926527395946044e+00
67 82 1.17397966630740425e+00
68 82 1.18849556542470380e+00
69 82 1.20280942462374663e+00
70 82 1.21691780165705232e+00
71 82 1.23081736146633491e+00
72 82 1.24450487879229854e+00
73 82 1.25797724064086691e+00
74 82 1.27123144860197912e+00
75 82 1.28426462101738070e+00
76 82 1.29707399499423670e+00
77 82 1.30965692826177427e+00
78 82 1.32201090086850015e+00
79 82 1.33413351671801439e+00
80 82 1.34602250494170605e+00
81 82 1.35767572110713797e+00
82 82 1.36909114826120182e+00
83 82 1.38026689780762513e+00
84 82 1.39120121021870236e+00
85 82 1.40189245558156816e+00
86 82 1.41233913397968269e+00
87 82 1.42253987571059093e+00
88 82 1.43249344134133749e+00
89 82 1.44219872160334139e+00
90 82 1.45165473712880710e+00
91 82 1.46086063803112842e+00
92 82 1.46981570333204581e+00
93 82 1.47851934023862652e+00
94 82 1.48697108327341132e+00
95 82 1.49517059326139590e+00
96 82 1.50311765617770510e+00
97 82 1.51081218186013766e+00
98 82 1.51825420259091914e+00
99 82 1.52544387155228911e+00
100 82 1.53238146116063101e+00
101 82 1.53906736128416122e+00
102 82 1.54550207734921785e+00
103 82 1.55168622834046688e+00
104 82 1.55762054470030198e+00
105 82 1.56330586613297928e+00
106 82 1.56874313931899922e+00
107 82 1.57393341554534327e+00
108 82 1.57887784825727473e+00
109 82 1.58357769053733444e+00
110 82 1.58803429251730499e+00
111 82 1.59224909872882914e+00
112 82 1.59622364539834671e+00
113 82 1.59995955769205334e+00
114 82 1.60345854691647993e+00
115 82 1.60672240768023711e+00
116 82 1.60975301502239865e+00
117 82 1.61255232151294381e+00
118 82 1.61512235433052243e+00
119 82 1.61746521232272933e+00
120 82 1.61958306305398847e+00
121 82 1.62147813984592126e+00
122 82 1.62315273881505839e+00
123 82 1.62460921591250762e+00
124 82 1.62584998397008418e+00
125 82 1.62687750975726608e+00
126 82 1.62769431105311968e+00
127 82 1.62830295373722223e+00
128 82 1.62870604890340820e+00
129 82 1.62890625000000022e+00
130 82 1.62890624999999933e+00
1 83 0.00000000000000000e+00
2 83 9.06241599383460911e-03
3 83 2.72272391220637795e-02
4 83 4.54706036639958705e-02
5 83 6.37895952227553048e-02
6 83 8.21812139899033567e-02
7 83 1.00642375034686982e-01
8 83 1.19169908694970614e-01
9 83 1.37760561072400423e-01
10 83 1.56410994634221506e-01
11 83 1.75117788924037815e-01
12 83 1.93877441383643573e-01
13 83 2.12686368287904631e-01
14 83 2.31540905794488633e-01
15 83 2.50437311110065064e-01
16 83 2.69371763774390705e-01
17 83 2.88340367063504688e-01
18 83 3.07339149513025767e-01
19 83 3.26364066562327859e-01
20 83 3.45411002320125449e-01
21 83 3.64475771451758135e-01
22 83 3.83554121188205588e-01
23 83 4.02641733456599704e-01
24 83 4.21734227131726092e-01
25 83 4.40827160407736784e-01
26 83 4.59916033288993387e-01
27 83 4.78996290198683283e-01
28 83 4.98063322703550748e-01
29 83 5.17112472352775243e-01
30 83 5.36139033628739492e-01
31 83 5.55138257007114166e-01
32 83 5.74105352123385426e-01
33 83 5.93035491042638307e-01
34 83 6.11923811629105696e-01
35 83 6.30765421011713623e-01
36 83 6.49555399141490630e-01
37 83 6.68288802436496909e-01
38 83 6.86960667509577627e-01
39 83 7.05566014973996625e-01
40 83 7.24099853321702680e-01
41 83 7.42557182868765708e-01
42 83 7.60932999762208961e-01
43 83 7.79222300042269889e-01
44 83 7.97420083753870856e-01
45 83 8.15521359100869314e-01
46 83 8.33521146636455268e-01
47 83 8.51414483482916595e-01
48 83 8.69196427573754038e-01
49 83 8.86862061911062205e-01
50 83 9.04406498830925831e-01
51 83 9.21824884269451528e-01
52 83 9.39112402022020620e-01
53 83 9.56264277988244316e-01
54 83 9.73275784395061794e-01
55 83 9.90142243990425053e-01
56 83 1.00685903419998413e+00
57 83 1.02342159123920773e+00
58 83 1.03982541417347996e+00
59 83 1.05606606891869093e+00
60 83 1.07213919217499742e+00
61 83 1.08804049528653457e+00
62 83 1.10376576801997373e+00
63 83 1.11931088225500019e+00
64 83 1.13467179557995479e+00
65 83 1.14984455478611025e+00
66 83 1.16482529925423006e+00
67 83 1.17961026422734383e+00
68 83 1.19419578396391102e+00
69 83 1.20857829476582701e+00
70 83 1.22275433787603105e+00
71 83 1.23672056224075355e+00
72 83 1.25047372713183003e+00
73 83 1.26401070462475618e+00
74 83 1.27732848192860748e+00
75 83 1.29042416356422662e+00
76 83 1.30329497338749456e+00
77 83 1.31593825645487650e+00
78 83 1.32835148072878084e+00
79 83 1.34053223862073856e+00
80 83 1.35247824837068320e+00
81 83 1.36418735526112900e+00
82 83 1.37565753266533242e+00
83 83 1.38688688292900464e+00
84 83 1.39787363808545884e+00
85 83 1.40861616040450133e+00
86 83 1.41911294277574807e+00
87 83 1.42936260892742828e+00
88 83 1.43936391348206327e+00
89 83 1.44911574185083913e+00
90 83 1.45861710996875349e+00
91 83 1.46786716387300431e+00
92 83 1.47686517912740323e+00
93 83 1.48561056009588599e+00
94 83 1.49410283906848784e+00
95 83 1.50234167524346507e+00
96 83 1.51032685356944474e+00
97 83 1.51805828345179283e+00
98 83 1.52553599732756617e+00
99 83 1.53276014911369107e+00
100 83 1.53973101253310429e+00
101 83 1.54644897932389336e+00
102 83 1.55291455733650419e+00
103 83 1.55912836852435399e+00
104 83 1.56509114683315698e+00
105 83 1.57080373599452838e+00
106 83 1.57626708722940201e+00
107 83 1.58148225686690380e+00
108 83 1.58645040388440783e+00
109 83 1.59117278737444390e+00
110 83 1.59565076394424654e+00
111 83 1.59988578505366741e+00
112 83 1.60387939429713944e+00
113 83 1.60763322463542058e+00
114 83 1.61114899558274605e+00
115 83 1.61442851035496249e+00
116 83 1.61747365298413670e+00
117 83 1.62028638540509240e+00
118 83 1.62286874451915786e+00
119 83 1.62522283924034427e+00
120 83 1.62735084752906745e+00
121 83 1.62925501341832368e+00
122 83 1.63093764403719299e+00
123 83 1.63240110663630866e+00
124 83 1.63364782561982080e+00
125 83 1.63468027958823625e+00
126 83 1.63550099839630025e+00
127 83 1.63611256022996665e+00
128 83 1.63651758870630237e+00
129 83 1.63671875000000044e+00
130 83 1.63671874999999933e+00
1 84 0.00000000000000000e+00
2 84 9.10567334941377385e-03
3 84 2.73572020773003612e-02
4 84 4.56876471182392913e-02
5 84 6.40940801641527030e-02
6 84 8.25734870877071897e-02
7 84 1.01122768232943250e-01
8 84 1.19738738808073106e-01
9 84 1.38418129383008515e-01
10 84 1.57157586494050733e-01
11 84 1.75953673358042795e-01
12 84 1.94802870698123992e-01
13 84 2.13701577683073601e-01
14 84 2.32646112982051845e-01
15 84 2.51632715936366103e-01
16 84 2.70657547849686098e-01
17 84 2.89716693397936653e-01
18 84 3.08806162159866004e-01
19 84 3.27921890269069261e-01
20 84 3.47059742188002007e-01
21 84 3.66215512604272486e-01
22 84 3.85384928449247155e-01
23 84 4.04563651038731431e-01
24 84 4.23747278335218802e-01
25 84 4.42931347330924041e-01
26 84 4.62111336550516061e-01
27 84 4.81282668672185276e-01
28 84 5.00440713265381532e-01
29 84 5.19580789643241947e-01
30 84 5.38698169827444673e-01
31 84 5.57788081622899945e-01
32 84 5.76845711799392036e-01
33 84 5.95866209376970768e-01
34 84 6.14844689011583512e-01
35 84 6.33776234477163469e-01
36 84 6.52655902240017904e-01
37 84 6.71478725121158027e-01
38 84 6.90239716041842866e-01
39 84 7.08933871847380881e-01
40 84 7.27556177203906529e-01
41 84 7.46101608562650065e-01
42 84 7.64565138185894888e-01
43 84 7.82941738228629114e-01
44 84 8.01226384869641151e-01
45 84 8.19414062485598893e-01
46 84 8.37499767861450306e-01
47 84 8.55478514430329073e-01
48 84 8.73345336535920058e-01
49 84 8.91095293710160385e-01
50 84 9.08723474958997079e-01
51 84 9.26225003048780526e-01
52 84 9.43595038785848939e-01
53 84 9.60828785281744202e-01
54 84 9.77921492196470177e-01
55 84 9.94868459952193307e-01
56 84 1.01166504390976919e+00
57 84 1.02830665850049274e+00
58 84 1.04478878130557296e+00
59 84 1.06110695707582070e+00
60 84 1.07725680168418592e+00
61 84 1.09323400600389276e+00
62 84 1.10903433970503329e+00
63 84 1.12465365496266134e+00
64 84 1.14008789006959654e+00
65 84 1.15533307294738030e+00
66 84 1.17038532454899968e+00
67 84 1.18524086214728341e+00
68 84 1.19989600250311845e+00
69 84 1.21434716490790717e+00
70 84 1.22859087409500978e+00
71 84 1.24262376301517263e+00
72 84 1.25644257547136151e+00
73 84 1.27004416860864522e+00
74 84 1.28342551525523541e+00
75 84 1.29658370611107254e+00
76 84 1.30951595178075242e+00
77 84 1.32221958464797851e+00
78 84 1.33469206058906109e+00
79 84 1.34693096052346295e+00
80 84 1.35893399179966035e+00
81 84 1.37069898941511981e+00
82 84 1.38222391706946279e+00
83 84 1.39350686805038415e+00
84 84 1.40454606595221532e+00
85 84 1.41533986522743449e+00
86 84 1.42588675157181344e+00
87 84 1.43618534214426563e+00
88 84 1.44623438562278905e+00
89 84 1.45603276209833687e+00
90 84 1.46557948280869965e+00
91 84 1.47487368971487998e+00
92 84 1.48391465492276087e+00
93 84 1.49270177995314568e+00
94 84 1.50123459486356414e+00
95 84 1.50951275722553424e+00
96 84 1.51753605096118460e+00
97 84 1.52530438504344801e+00
98 84 1.53281779206421320e+00
99 84 1.54007642667509304e+00
100 84 1.54708056390557758e+00
101 84 1.55383059736362550e+00
102 84 1.56032703732379052e+00
103 84 1.56657050870824133e+00
104 84 1.57256174896601220e+00
105 84 1.57830160585607748e+00
106 84 1.58379103513980501e+00
107 84 1.58903109818846411e+00
108 84 1.59402295951154116e+00
109 84 1.59876788421155336e+00
110 84 1.60326723537118809e+00
111 84 1.60752247137850590e+00
112 84 1.61153514319593238e+00
113 84 1.61530689157878782e+00
114 84 1.61883944424901194e+00
115 84 1.62213461302968764e+00
116 84 1.62519429094587475e+00
117 84 1.62802044929724099e+00
118 84 1.63061513470779351e+00
119 84 1.63298046615795922e+00
120 84 1.63511863200414642e+00
121 84 1.63703188699072610e+00
122 84 1.63872254925932759e+00
123 84 1.64019299736010971e+00
124 84 1.64144566726955743e+00
125 84 1.64248304941920642e+00
126 84 1.64330768573948061e+00
127 84 1.64392216672271108e+00
128 84 1.64432912850919655e+00
129 84 1.64453125000000044e+00
130 84 1.64453124999999911e+00
1 85 0.00000000000000000e+00
2 85 9.14893070499293685e-03
3 85 2.74871650325369428e-02
4 85 4.59046905724827120e-02
5 85 6.43985651055501013e-02
6 85 8.29657601855110088e-02
7 85 1.01603161431199518e-01
8 85 1.20307568921175598e-01
9 85 1.39075697693616607e-01
10 85 1.57904178353879932e-01
11 85 1.76789557792047775e-01
12 85 1.95728300012604384e-01
13 85 2.14716787078242599e-01
14 85 2.33751320169615029e-01
15 85 2.52828120762667141e-01
16 85 2.71943331924981491e-01
17 85 2.91093019732368619e-01
18 85 3.10273174806706187e-01
19 85 3.29479713975810717e-01
20 85 3.48708482055878566e-01
21 85 3.67955253756786838e-01
22 85 3.87215735710288778e-01
23 85 4.06485568620863158e-01
24 85 4.25760329538711513e-01
25 85 4.45035534254111353e-01
26 85 4.64306639812038624e-01
27 85 4.83569047145687325e-01
28 85 5.02818103827212370e-01
29 85 5.22049106933708651e-01
30 85 5.41257306026149854e-01
31 85 5.60437906238685613e-01
32 85 5.79586071475398645e-01
33 85 5.98696927711303117e-01
34 85 6.17765566394061438e-01
35 85 6.36787047942613094e-01
36 85 6.55756405338545290e-01
37 85 6.74668647805819144e-01
38 85 6.93518764574108215e-01
39 85 7.12301728720765026e-01
40 85 7.31012501086110378e-01
41 85 7.49646034256534310e-01
42 85 7.68197276609580926e-01
43 85 7.86661176414988450e-01
44 85 8.05032685985411334e-01
45 85 8.23306765870328583e-01
46 85 8.41478389086445455e-01
47 85 8.59542545377741551e-01
48 85 8.77494245498085856e-01
49 85 8.95328525509258455e-01
50 85 9.13040451087068217e-01
51 85 9.30625121828109636e-01
52 85 9.48077675549677146e-01
53 85 9.65393292575244311e-01
54 85 9.82567199997878560e-01
55 85 9.99594675913961450e-01
56 85 1.01647105361955448e+00
57 85 1.03319172576177776e+00
58 85 1.04975214843766596e+00
59 85 1.06614784523295048e+00
60 85 1.08237441119337441e+00
61 85 1.09842751672125094e+00
62 85 1.11430291139009263e+00
63 85 1.12999642767032227e+00
64 85 1.14550398455923852e+00
65 85 1.16082159110865057e+00
66 85 1.17594534984376931e+00
67 85 1.19087146006722300e+00
68 85 1.20559622104232567e+00
69 85 1.22011603504998756e+00
70 85 1.23442741031398873e+00
71 85 1.24852696378959149e+00
72 85 1.26241142381089277e+00
73 85 1.27607763259253448e+00
74 85 1.28952254858186377e+00
75 85 1.30274324865791868e+00
76 85 1.31573693017401006e+00
77 85 1.32850091284108052e+00
78 85 1.34103264044934156e+00
79 85 1.35332968242618734e+00
80 85 1.36538973522863727e+00
81 85 1.37721062356911084e+00
82 85 1.38879030147359317e+00
83 85 1.40012685317176344e+00
84 85 1.41121849381897180e+00
85 85 1.42206357005036788e+00
86 85 1.43266056036787925e+00
87 85 1.44300807536110276e+00
88 85 1.45310485776351483e+00
89 85 1.46294978234583506e+00
90 85 1.47254185564864604e+00
91 85 1.48188021555675609e+00
92 85 1.49096413071811829e+00
93 85 1.49979299981040537e+00
94 85 1.50836635065864066e+00
95 85 1.51668383920760319e+00
96 85 1.52474524835292402e+00
97 85 1.53255048663510340e+00
98 85 1.54009958680086045e+00
99 85 1.54739270423649500e+00
100 85 1.55443011527805042e+00
101 85 1.56121221540335742e+00
102 85 1.56773951731107686e+00
103 85 1.57401264889212844e+00
104 85 1.58003235109886719e+00
105 85 1.58579947571762658e+00
106 85 1.59131498305020802e+00
107 85 1.59657993951002464e+00
108 85 1.60159551513867449e+00
109 85 1.60636298104866282e+00
110 85 1.61088370679812964e+00
111 85 1.61515915770334439e+00
112 85 1.61919089209472555e+00
113 85 1.62298055852215484e+00
114 85 1.62652989291527805e+00
115 85 1.62984071570441302e+00
116 85 1.63291492890761281e+00
117 85 1.63575451318938958e+00
118 85 1.63836152489642894e+00
119 85 1.64073809307557417e+00
120 85 1.64288641647922562e+00
121 85 1.64480876056312875e+00
122 85 1.64650745448146218e+00
123 85 1.64798488808391053e+00
124 85 1.64924350891929405e+00
125 85 1.65028581925017681e+00
126 85 1.65111437308266118e+00
127 85 1.65173177321545550e+00
128 85 1.65214066831209072e+00
129 85 1.65234375000000044e+00
130 85 1.65234374999999911e+00
1 86 0.00000000000000000e+00
2 86 9.19218806057209986e-03
3 86 2.76171279877735244e-02
4 86 4.61217340267261258e-02
5 86 6.47030500469475134e-02
6 86 8.33580332833148419e-02
7 86 1.02083554629455786e-01
8 86 1.20876399034278090e-01
9 86 1.39733266004224727e-01
10 86 1.58650770213709158e-01
11 86 1.77625442226052727e-01
12 86 1.96653729327084775e-01
13 86 2.15731996473411597e-01
14 86 2.34856527357178213e-01
15 86 2.54023525588968180e-01
16 86 2.73229116000276939e-01
17 86 2.92469346066800640e-01
18 86 3.11740187453546369e-01
19 86 3.31037537682552119e-01
20 86 3.50357221923755069e-01
21 86 3.69694994909301189e-01
22 86 3.89046542971330345e-01
23 86 4.08407486202994829e-01
24 86 4.27773380742204279e-01
25 86 4.47139721177298610e-01
26 86 4.66501943073561243e-01
27 86 4.85855425619189429e-01
28 86 5.05195494389043209e-01
29 86 5.24517424224175355e-01
30 86 5.43816442224855034e-01
31 86 5.63087730854471391e-01
32 86 5.82326431151405255e-01
33 86 6.01527646045635467e-01
34 86 6.20686443776539254e-01
35 86 6.39797861408062829e-01
36 86 6.58856908437072675e-01
37 86 6.77858570490480261e-01
38 86 6.96797813106373565e-01
39 86 7.15669585594149171e-01
40 86 7.34468824968314116e-01
41 86 7.53190459950418667e-01
42 86 7.71829415033266852e-01
43 86 7.90380614601347675e-01
44 86 8.08838987101181517e-01
45 86 8.27199469255058273e-01
46 86 8.45457010311440493e-01
47 86 8.63606576325154029e-01
48 86 8.81643154460251655e-01
49 86 8.99561757308356635e-01
50 86 9.17357427215139465e-01
51 86 9.35025240607438857e-01
52 86 9.52560312313505464e-01
53 86 9.69957799868744197e-01
54 86 9.87212907799286832e-01
55 86 1.00432089187572959e+00
56 86 1.02127706332933954e+00
57 86 1.03807679302306277e+00
58 86 1.05471551556975895e+00
59 86 1.07118873339008025e+00
60 86 1.08749202070256290e+00
61 86 1.10362102743860913e+00
62 86 1.11957148307515220e+00
63 86 1.13533920037798319e+00
64 86 1.15092007904888027e+00
65 86 1.16631010926992085e+00
66 86 1.18150537513853870e+00
67 86 1.19650205798716258e+00
68 86 1.21129643958153288e+00
69 86 1.22588490519206772e+00
70 86 1.24026394653296723e+00
71 86 1.25443016456401057e+00
72 86 1.26838027215042404e+00
73 86 1.28211109657642353e+00
74 86 1.29561958190849191e+00
75 86 1.30890279120476460e+00
76 86 1.32195790856726769e+00
77 86 1.33478224103418253e+00
78 86 1.34737322030962203e+00
79 86 1.35972840432891173e+00
80 86 1.37184547865761419e+00
81 86 1.38372225772310165e+00
82 86 1.39535668587772355e+00
83 86 1.40674683829314273e+00
84 86 1.41789092168572828e+00
85 86 1.42878727487330104e+00
86 86 1.43943436916394485e+00
87 86 1.44983080857794011e+00
88 86 1.45997532990424062e+00
89 86 1.46986680259333324e+00
90 86 1.47950422848859242e+00
91 86 1.48888674139863197e+00
92 86 1.49801360651347548e+00
93 86 1.50688421966766506e+00
94 86 1.51549810645371719e+00
95 86 1.52385492118967236e+00
96 86 1.53195444574466366e+00
97 86 1.53979658822675858e+00
98 86 1.54738138153750748e+00
99 86 1.55470898179789674e+00
100 86 1.56177966665052370e+00
101 86 1.56859383344308956e+00
102 86 1.57515199729836319e+00
103 86 1.58145478907601555e+00
104 86 1.58750295323172219e+00
105 86 1.59329734557917568e+00
106 86 1.59883893096061080e+00
107 86 1.60412878083158539e+00
108 86 1.60916807076580781e+00
109 86 1.61395807788577228e+00
110 86 1.61850017822507120e+00
111 86 1.62279584402818311e+00
112 86 1.62684664099351850e+00
113 86 1.63065422546552186e+00
114 86 1.63422034158154417e+00
115 86 1.63754681837913840e+00
116 86 1.64063556686935086e+00
117 86 1.64348857708153773e+00
118 86 1.64610791508506438e+00
119 86 1.64849571999318911e+00
120 86 1.65065420095430460e+00
121 86 1.65258563413553117e+00
122 86 1.65429235970359678e+00
123 86 1.65577677880771179e+00
124 86 1.65704135056903068e+00
125 86 1.65808858908114698e+00
126 86 1.65892106042584153e+00
127 86 1.65954137970819993e+00
128 86 1.65995220811498490e+00
129 86 1.66015625000000044e+00
130 86 1.66015624999999911e+00
1 87 0.00000000000000000e+00
2 87 9.23544541615126287e-03
3 87 2.77470909430101026e-02
4 87 4.63387774809695466e-02
5 87 6.50075349883449116e-02
6 87 8.37503063811186887e-02
7 87 1.02563947827712040e-01
8 87 1.21445229147380582e-01
9 87 1.40390834314832846e-01
10 87 1.59397362073538384e-01
11 87 1.78461326660057651e-01
12 87 1.97579158641565195e-01
13 87 2.16747205868580595e-01
14 87 2.35961734544741397e-01
15 87 2.55218930415269218e-01
16 87 2.74514900075572332e-01
17 87 2.93845672401232660e-01
18 87 3.13207200100386551e-01
19 87 3.32595361389293520e-01
20 87 3.52005961791631572e-01
21 87 3.71434736061815596e-01
22 87 3.90877350232371912e-01
23 87 4.10329403785126556e-01
24 87 4.29786431945696989e-01
25 87 4.49243908100485867e-01
26 87 4.68697246335083917e-01
27 87 4.88141804092691478e-01
28 87 5.07572884950874048e-01
29 87 5.26985741514642059e-01
30 87 5.46375578423560215e-01
31 87 5.65737555470257170e-01
32 87 5.85066790827411864e-01
33 87 6.04358364379967816e-01
34 87 6.23607321159016958e-01
35 87 6.42808674873512675e-01
36 87 6.61957411535600060e-01
37 87 6.81048493175141378e-01
38 87 7.00076861638638914e-01
39 87 7.19037442467533428e-01
40 87 7.37925148850517965e-01
41 87 7.56734885644302913e-01
42 87 7.75461553456952779e-01
43 87 7.94100052787707011e-01
44 87 8.12645288216951811e-01
45 87 8.31092172639787963e-01
46 87 8.49435631536435531e-01
47 87 8.67670607272566508e-01
48 87 8.85792063422417564e-01
49 87 9.03794989107454816e-01
50 87 9.21674403343210713e-01
51 87 9.39425359386767855e-01
52 87 9.57042949077333671e-01
53 87 9.74522307162244084e-01
54 87 9.91858615600695326e-01
55 87 1.00904710783749763e+00
56 87 1.02608307303912460e+00
57 87 1.04296186028434779e+00
58 87 1.05967888270185195e+00
59 87 1.07622962154721002e+00
60 87 1.09260963021175161e+00
61 87 1.10881453815596753e+00
62 87 1.12484005476021176e+00
63 87 1.14068197308564434e+00
64 87 1.15633617353852203e+00
65 87 1.17179862743119090e+00
66 87 1.18706540043330810e+00
67 87 1.20213265590710217e+00
68 87 1.21699665812074009e+00
69 87 1.23165377533414810e+00
70 87 1.24610048275194596e+00
71 87 1.26033336533842943e+00
72 87 1.27434912048995552e+00
73 87 1.28814456056031235e+00
74 87 1.30171661523512006e+00
75 87 1.31506233375161030e+00
76 87 1.32817888696052533e+00
77 87 1.34106356922728454e+00
78 87 1.35371380016990250e+00
79 87 1.36612712623163590e+00
80 87 1.37830122208659089e+00
81 87 1.39023389187709268e+00
82 87 1.40192307028185414e+00
83 87 1.41336682341452224e+00
84 87 1.42456334955248476e+00
85 87 1.43551097969623420e+00
86 87 1.44620817796001067e+00
87 87 1.45665354179477746e+00
88 87 1.46684580204496640e+00
89 87 1.47678382284083121e+00
90 87 1.48646660132853858e+00
91 87 1.49589326724050764e+00
92 87 1.50506308230883290e+00
93 87 1.51397543952492475e+00
94 87 1.52262986224879349e+00
95 87 1.53102600317174153e+00
96 87 1.53916364313640330e+00
97 87 1.54704268981841375e+00
98 87 1.55466317627415473e+00
99 87 1.56202525935929870e+00
100 87 1.56912921802299676e+00
101 87 1.57597545148282148e+00
102 87 1.58256447728564975e+00
103 87 1.58889692925990267e+00
104 87 1.59497355536457741e+00
105 87 1.60079521544072478e+00
106 87 1.60636287887101359e+00
107 87 1.61167762215314592e+00
108 87 1.61674062639294114e+00
109 87 1.62155317472288174e+00
110 87 1.62611664965201275e+00
111 87 1.63043253035302160e+00
112 87 1.63450238989231145e+00
113 87 1.63832789240888888e+00
114 87 1.64191079024781006e+00
115 87 1.64525292105386378e+00
116 87 1.64835620483108891e+00
117 87 1.65122264097368632e+00
118 87 1.65385430527369981e+00
119 87 1.65625334691080428e+00
120 87 1.65842198542938357e+00
121 87 1.66036250770793359e+00
122 87 1.66207726492573116e+00
123 87 1.66356866953151283e+00
124 87 1.66483919221876731e+00
125 87 1.66589135891211715e+00
126 87 1.66672774776902188e+00
127 87 1.66735098620094435e+00
128 87 1.66776374791787885e+00
129 87 1.66796875000000067e+00
130 87 1.66796874999999911e+00
1 88 0.00000000000000000e+00
2 88 9.27870277173042414e-03
3 88 2.78770538982466877e-02
4 88 4.65558209352129673e-02
5 88 6.53120199297422960e-02
6 88 8.41425794789225218e-02
7 88 1.03044341025968295e-01
8 88 1.22014059260483074e-01
9 88 1.41048402625440966e-01
10 88 1.60143953933367611e-01
11 88 1.79297211094062631e-01
12 88 1.98504587956045586e-01
13 88 2.17762415263749565e-01
14 88 2.37066941732304581e-01
15 88 2.56414335241570257e-01
16 88 2.75800684150867725e-01
17 88 2.95221998735664681e-01
18 88 3.14674212747226789e-01
19 88 3.34153185096034921e-01
20 88 3.53654701659508075e-01
21 88 3.73174477214330003e-01
22 88 3.92708157493413479e-01
23 88 4.12251321367258283e-01
24 88 4.31799483149189700e-01
25 88 4.51348095023673179e-01
26 88 4.70892549596606591e-01
27 88 4.90428182566193471e-01
28 88 5.09950275512704887e-01
29 88 5.29454058805108763e-01
30 88 5.48934714622265396e-01
31 88 5.68387380086042948e-01
32 88 5.87807150503418474e-01
33 88 6.07189082714300166e-01
34 88 6.26528198541494774e-01
35 88 6.45819488338962411e-01
36 88 6.65057914634127445e-01
37 88 6.84238415859802385e-01
38 88 7.03355910170904153e-01
39 88 7.22405299340917684e-01
40 88 7.41381472732721813e-01
41 88 7.60279311338187269e-01
42 88 7.79093691880638706e-01
43 88 7.97819490974066237e-01
44 88 8.16451589332721994e-01
45 88 8.34984876024517653e-01
46 88 8.53414252761430570e-01
47 88 8.71734638219979097e-01
48 88 8.89940972384583362e-01
49 88 9.08028220906552996e-01
50 88 9.25991379471282072e-01
51 88 9.43825478166096854e-01
52 88 9.61525585841161989e-01
53 88 9.79086814455744081e-01
54 88 9.96504323402103709e-01
55 88 1.01377332379926588e+00
56 88 1.03088908274890967e+00
57 88 1.04784692754563258e+00
58 88 1.06464224983394473e+00
59 88 1.08127050970433980e+00
60 88 1.09772723972094011e+00
61 88 1.11400804887332572e+00
62 88 1.13010862644527132e+00
63 88 1.14602474579330549e+00
64 88 1.16175226802816378e+00
65 88 1.17728714559246117e+00
66 88 1.19262542572807773e+00
67 88 1.20776325382704175e+00
68 88 1.22269687665994731e+00
69 88 1.23742264547622827e+00
70 88 1.25193701897092469e+00
71 88 1.26623656611284829e+00
72 88 1.28031796882948701e+00
73 88 1.29417802454420139e+00
74 88 1.30781364856174820e+00
75 88 1.32122187629845622e+00
76 88 1.33439986535378319e+00
77 88 1.34734489742038677e+00
78 88 1.36005438003018297e+00
79 88 1.37252584813436029e+00
80 88 1.38475696551556782e+00
81 88 1.39674552603108393e+00
82 88 1.40848945468598474e+00
83 88 1.41998680853590153e+00
84 88 1.43123577741924124e+00
85 88 1.44223468451916736e+00
86 88 1.45298198675607604e+00
87 88 1.46347627501161481e+00
88 88 1.47371627418569240e+00
89 88 1.48370084308832917e+00
90 88 1.49342897416848497e+00
91 88 1.50289979308238331e+00
92 88 1.51211255810419032e+00
93 88 1.52106665938218444e+00
94 88 1.52976161804386979e+00
95 88 1.53819708515381048e+00
96 88 1.54637284052814294e+00
97 88 1.55428879141006893e+00
98 88 1.56194497101080199e+00
99 88 1.56934153692070044e+00
100 88 1.57647876939547005e+00
101 88 1.58335706952255362e+00
102 88 1.58997695727293631e+00
103 88 1.59633906944379000e+00
104 88 1.60244415749743263e+00
105 88 1.60829308530227388e+00
106 88 1.61388682678141637e+00
107 88 1.61922646347470645e+00
108 88 1.62431318202007446e+00
109 88 1.62914827155999120e+00
110 88 1.63373312107895430e+00
111 88 1.63806921667786010e+00
112 88 1.64215813879110439e+00
113 88 1.64600155935225612e+00
114 88 1.64960123891407617e+00
115 88 1.65295902372858916e+00
116 88 1.65607684279282696e+00
117 88 1.65895670486583491e+00
118 88 1.66160069546233524e+00
119 88 1.66401097382841945e+00
120 88 1.66618976990446277e+00
121 88 1.66813938128033623e+00
122 88 1.66986217014786575e+00
123 88 1.67136056025531365e+00
124 88 1.67263703386850371e+00
125 88 1.67369412874308732e+00
126 88 1.67453443511220246e+00
127 88 1.67516059269368878e+00
128 88 1.67557528772077280e+00
129 88 1.67578125000000044e+00
130 88 1.67578124999999889e+00
1 89 0.00000000000000000e+00
2 89 9.32196012730958715e-03
3 89 2.80070168534832728e-02
4 89 4.67728643894563811e-02
5 89 6.56165048711396942e-02
6 89 8.45348525767263687e-02
7 89 1.03524734224224549e-01
8 89 1.22582889373585552e-01
9 89 1.41705970936049086e-01
10 89 1.60890545793196810e-01
11 89 1.80133095528067610e-01
12 89 1.99430017270525978e-01
13 89 2.18777624658918562e-01
14 89 2.38172148919867765e-01
15 89 2.57609740067871296e-01
16 89 2.77086468226163174e-01
17 89 2.96598325070096702e-01
18 89 3.16141225394066971e-01
19 89 3.35711008802776378e-01
20 89 3.55303441527384578e-01
21 89 3.74914218366844354e-01
22 89 3.94538964754455102e-01
23 89 4.14173238949390010e-01
24 89 4.33812534352682466e-01
25 89 4.53452281946860436e-01
26 89 4.73087852858129210e-01
27 89 4.92714561039695464e-01
28 89 5.12327666074535726e-01
29 89 5.31922376095575467e-01
30 89 5.51493850820970577e-01
31 89 5.71037204701828838e-01
32 89 5.90547510179425084e-01
33 89 6.10019801048632515e-01
34 89 6.29449075923972590e-01
35 89 6.48830301804412257e-01
36 89 6.68158417732654830e-01
37 89 6.87428338544463391e-01
38 89 7.06634958703169502e-01
39 89 7.25773156214301829e-01
40 89 7.44837796614925662e-01
41 89 7.63823737032071626e-01
42 89 7.82725830304324632e-01
43 89 8.01538929160425573e-01
44 89 8.20257890448492177e-01
45 89 8.38877579409247343e-01
46 89 8.57392873986425497e-01
47 89 8.75798669167391575e-01
48 89 8.94089881346749271e-01
49 89 9.12261452705651066e-01
50 89 9.30308355599353320e-01
51 89 9.48225596945426075e-01
52 89 9.66008222604990197e-01
53 89 9.83651321749244079e-01
54 89 1.00115003120351198e+00
55 89 1.01849953976103413e+00
56 89 1.03569509245869473e+00
57 89 1.05273199480691759e+00
58 89 1.06960561696603773e+00
59 89 1.08631139786146957e+00
60 89 1.10284484923012860e+00
61 89 1.11920155959068390e+00
62 89 1.13537719813033089e+00
63 89 1.15136751850096664e+00
64 89 1.16716836251780554e+00
65 89 1.18277566375373144e+00
66 89 1.19818545102284735e+00
67 89 1.21339385174698156e+00
68 89 1.22839709519915452e+00
69 89 1.24319151561830865e+00
70 89 1.25777355518990319e+00
71 89 1.27213976688726715e+00
72 89 1.28628681716901849e+00
73 89 1.30021148852809043e+00
74 89 1.31391068188837634e+00
75 89 1.32738141884530214e+00
76 89 1.34062084374704060e+00
77 89 1.35362622561348855e+00
78 89 1.36639495989046367e+00
79 89 1.37892457003708468e+00
80 89 1.39121270894454496e+00
81 89 1.40325716018507518e+00
82 89 1.41505583909011534e+00
83 89 1.42660679365728083e+00
84 89 1.43790820528599750e+00
85 89 1.44895838934210053e+00
86 89 1.45975579555214141e+00
87 89 1.47029900822845194e+00
88 89 1.48058674632641796e+00
89 89 1.49061786333582713e+00
90 89 1.50039134700843135e+00
91 89 1.50990631892425942e+00
92 89 1.51916203389954796e+00
93 89 1.52815787923944413e+00
94 89 1.53689337383894609e+00
95 89 1.54536816713587966e+00
96 89 1.55358203791988259e+00
97 89 1.56153489300172432e+00
98 89 1.56922676574744902e+00
99 89 1.57665781448210240e+00
100 89 1.58382832076794311e+00
101 89 1.59073868756228576e+00
102 89 1.59738943726022287e+00
103 89 1.60378120962767712e+00
104 89 1.60991475963028785e+00
105 89 1.61579095516382298e+00
106 89 1.62141077469181938e+00
107 89 1.62677530479626697e+00
108 89 1.63188573764720757e+00
109 89 1.63674336839710088e+00
110 89 1.64134959250589585e+00
111 89 1.64570590300269859e+00
112 89 1.64981388768989734e+00
113 89 1.65367522629562336e+00
114 89 1.65729168758034229e+00
115 89 1.66066512640331454e+00
116 89 1.66379748075456502e+00
117 89 1.66669076875798350e+00
118 89 1.66934708565097067e+00
119 89 1.67176860074603439e+00
120 89 1.67395755437954175e+00
121 89 1.67591625485273865e+00
122 89 1.67764707537000035e+00
123 89 1.67915245097911447e+00
124 89 1.68043487551824011e+00
125 89 1.68149689857405771e+00
126 89 1.68234112245538303e+00
127 89 1.68297019918643342e+00
128 89 1.68338682752366675e+00
129 89 1.68359375000000044e+00
130 89 1.68359374999999867e+00
1 90 0.00000000000000000e+00
2 90 9.36521748288875015e-03
3 90 2.81369798087198510e-02
4 90 4.69899078436997950e-02
5 90 6.59209898125371063e-02
6 90 8.49271256745302017e-02
7 90 1.04005127422480817e-01
8 90 1.23151719486688030e-01
9 90 1.42363539246657206e-01
10 90 1.61637137653026036e-01
11 90 1.80968979962072563e-01
12 90 2.00355446585006397e-01
13 90 2.19792834054087560e-01
14 90 2.39277356107430950e-01
15 90 2.58805144894172334e-01
16 90 2.78372252301458623e-01
17 90 2.97974651404528668e-01
18 90 3.17608238040907209e-01
19 90 3.37268832509517780e-01
20 90 3.56952181395261137e-01
21 90 3.76653959519358705e-01
22 90 3.96369772015496669e-01
23 90 4.16095156531521737e-01
24 90 4.35825585556175177e-01
25 90 4.55556468870047748e-01
26 90 4.75283156119651884e-01
27 90 4.95000939513197569e-01
28 90 5.14705056636366565e-01
29 90 5.34390693386042170e-01
30 90 5.54052987019675758e-01
31 90 5.73687029317614616e-01
32 90 5.93287869855431693e-01
33 90 6.12850519382964865e-01
34 90 6.32369953306450405e-01
35 90 6.51841115269861993e-01
36 90 6.71258920831182326e-01
37 90 6.90618261229124397e-01
38 90 7.09914007235434852e-01
39 90 7.29141013087686085e-01
40 90 7.48294120497129511e-01
41 90 7.67368162725956093e-01
42 90 7.86357968728010559e-01
43 90 8.05258367346784909e-01
44 90 8.24064191564262472e-01
45 90 8.42770282793977032e-01
46 90 8.61371495211420535e-01
47 90 8.79862700114804053e-01
48 90 8.98238790308915069e-01
49 90 9.16494684504749135e-01
50 90 9.34625331727424569e-01
51 90 9.52625715724755295e-01
52 90 9.70490859368818515e-01
53 90 9.88215829042744076e-01
54 90 1.00579573900492036e+00
55 90 1.02322575572280239e+00
56 90 1.04050110216847980e+00
57 90 1.05761706206820261e+00
58 90 1.07456898409813073e+00
59 90 1.09135228601859935e+00
60 90 1.10796245873931709e+00
61 90 1.12439507030804209e+00
62 90 1.14064576981539045e+00
63 90 1.15671029120862756e+00
64 90 1.17258445700744729e+00
65 90 1.18826418191500172e+00
66 90 1.20374547631761675e+00
67 90 1.21902444966692092e+00
68 90 1.23409731373836173e+00
69 90 1.24896038576038904e+00
70 90 1.26361009140888192e+00
71 90 1.27804296766168624e+00
72 90 1.29225566550854976e+00
73 90 1.30624495251197947e+00
74 90 1.32000771521500471e+00
75 90 1.33354096139214806e+00
76 90 1.34684182214029846e+00
77 90 1.35990755380659056e+00
78 90 1.37273553975074436e+00
79 90 1.38532329193980885e+00
80 90 1.39766845237352189e+00
81 90 1.40976879433906621e+00
82 90 1.42162222349424572e+00
83 90 1.43322677877866034e+00
84 90 1.44458063315275398e+00
85 90 1.45568209416503369e+00
86 90 1.46652960434820701e+00
87 90 1.47712174144528929e+00
88 90 1.48745721846714374e+00
89 90 1.49753488358332509e+00
90 90 1.50735371984837774e+00
91 90 1.51691284476613530e+00
92 90 1.52621150969490560e+00
93 90 1.53524909909670360e+00
94 90 1.54402512963402239e+00
95 90 1.55253924911794883e+00
96 90 1.56079123531162223e+00
97 90 1.56878099459337950e+00
98 90 1.57650856048409604e+00
99 90 1.58397409204350459e+00
100 90 1.59117787214041639e+00
101 90 1.59812030560201790e+00
102 90 1.60480191724750942e+00
103 90 1.61122334981156423e+00
104 90 1.61738536176314285e+00
105 90 1.62328882502537208e+00
106 90 1.62893472260222216e+00
107 90 1.63432414611782728e+00
108 90 1.63945829327434067e+00
109 90 1.64433846523421034e+00
110 90 1.64896606393283740e+00
111 90 1.65334258932753708e+00
112 90 1.65746963658869029e+00
113 90 1.66134889323899038e+00
114 90 1.66498213624660840e+00
115 90 1.66837122907804014e+00
116 90 1.67151811871630307e+00
117 90 1.67442483265013187e+00
118 90 1.67709347583960633e+00
119 90 1.67952622766364956e+00
120 90 1.68172533885462072e+00
121 90 1.68369312842514085e+00
122 90 1.68543198059213495e+00
123 90 1.68694434170291530e+00
124 90 1.68823271716797674e+00
125 90 1.68929966840502788e+00
126 90 1.69014780979856361e+00
127 90 1.69077980567917785e+00
128 90 1.69119836732656070e+00
129 90 1.69140625000000044e+00
130 90 1.69140624999999867e+00
1 91 0.00000000000000000e+00
2 91 9.40847483846791316e-03
3 91 2.82669427639564291e-02
4 91 4.72069512979432157e-02
5 91 6.62254747539345046e-02
6 91 8.53193987723340347e-02
7 91 1.04485520620737071e-01
8 91 1.23720549599790522e-01
9 91 1.43021107557265326e-01
10 91 1.62383729512855235e-01
11 91 1.81804864396077515e-01
12 91 2.01280875899486816e-01
13 91 2.20808043449256530e-01
14 91 2.40382563294994162e-01
15 91 2.60000549720473373e-01
16 91 2.79658036376754016e-01
17 91 2.99350977738960633e-01
18 91 3.19075250687747392e-01
19 91 3.38826656216259181e-01
20 91 3.58600921263137640e-01
21 91 3.78393700671873057e-01
22 91 3.98200579276538236e-01
23 91 4.18017074113653520e-01
24 91 4.37838636759667832e-01
25 91 4.57660655793235061e-01
26 91 4.77478459381174503e-01
27 91 4.97287317986699673e-01
28 91 5.17082447198197404e-01
29 91 5.36859010676508874e-01
30 91 5.56612123218380939e-01
31 91 5.76336853933400395e-01
32 91 5.96028229531438303e-01
33 91 6.15681237717297214e-01
34 91 6.35290830688928221e-01
35 91 6.54851928735311617e-01
36 91 6.74359423929709711e-01
37 91 6.93808183913785514e-01
38 91 7.13193055767700090e-01
39 91 7.32508869961070341e-01
40 91 7.51750444379333360e-01
41 91 7.70912588419840339e-01
42 91 7.89990107151696597e-01
43 91 8.08977805533144245e-01
44 91 8.27870492680032544e-01
45 91 8.46662986178706722e-01
46 91 8.65350116436415462e-01
47 91 8.83926731062216531e-01
48 91 9.02387699271080979e-01
49 91 9.20727916303847316e-01
50 91 9.38942307855495706e-01
51 91 9.57025834504084405e-01
52 91 9.74973496132646833e-01
53 91 9.92780336336243963e-01
54 91 1.01044144680632875e+00
55 91 1.02795197168457042e+00
56 91 1.04530711187826486e+00
57 91 1.06250212932948762e+00
58 91 1.07953235123022373e+00
59 91 1.09639317417572912e+00
60 91 1.11308006824850558e+00
61 91 1.12958858102540005e+00
62 91 1.14591434150045002e+00
63 91 1.16205306391628871e+00
64 91 1.17800055149708904e+00
65 91 1.19375270007627177e+00
66 91 1.20930550161238637e+00
67 91 1.22465504758686050e+00
68 91 1.23979753227756895e+00
69 91 1.25472925590246964e+00
70 91 1.26944662762786065e+00
71 91 1.28394616843610510e+00
72 91 1.29822451384808124e+00
73 91 1.31227841649586852e+00
74 91 1.32610474854163285e+00
75 91 1.33970050393899398e+00
76 91 1.35306280053355610e+00
77 91 1.36618888199969257e+00
78 91 1.37907611961102483e+00
79 91 1.39172201384253302e+00
80 91 1.40412419580249903e+00
81 91 1.41628042849305746e+00
82 91 1.42818860789837609e+00
83 91 1.43984676390004007e+00
84 91 1.45125306101951024e+00
85 91 1.46240579898796685e+00
86 91 1.47330341314427260e+00
87 91 1.48394447466212642e+00
88 91 1.49432769060786930e+00
89 91 1.50445190383082306e+00
90 91 1.51431609268832412e+00
91 91 1.52391937060801097e+00
92 91 1.53326098549026324e+00
93 91 1.54234031895396306e+00
94 91 1.55115688542909913e+00
95 91 1.55971033110001778e+00
96 91 1.56800043270336187e+00
97 91 1.57602709618503489e+00
98 91 1.58379035522074307e+00
99 91 1.59129036960490655e+00
100 91 1.59852742351288968e+00
101 91 1.60550192364174982e+00
102 91 1.61221439723479554e+00
103 91 1.61866548999545157e+00
104 91 1.62485596389599807e+00
105 91 1.63078669488692096e+00
106 91 1.63645867051262495e+00
107 91 1.64187298743938759e+00
108 91 1.64703084890147400e+00
109 91 1.65193356207132003e+00
110 91 1.65658253535977895e+00
111 91 1.66097927565237558e+00
112 91 1.66512538548748323e+00
113 91 1.66902256018235762e+00
114 91 1.67267258491287452e+00
115 91 1.67607733175276530e+00
116 91 1.67923875667804112e+00
117 91 1.68215889654228024e+00
118 91 1.68483986602824198e+00
119 91 1.68728385458126451e+00
120 91 1.68949312332969970e+00
121 91 1.69147000199754305e+00
122 91 1.69321688581426932e+00
123 91 1.69473623242671634e+00
124 91 1.69603055881771336e+00
125 91 1.69710243823599827e+00
126 91 1.69795449714174396e+00
127 91 1.69858941217192227e+00
128 91 1.69900990712945466e+00
129 91 1.69921875000000044e+00
130 91 1.69921874999999867e+00
1 92 0.00000000000000000e+00
2 92 9.45173219404707617e-03
3 92 2.83969057191930108e-02
4 92 4.74239947521866365e-02
5 92 6.65299596953319167e-02
6 92 8.57116718701378677e-02
7 92 1.04965913818993339e-01
8 92 1.24289379712893028e-01
9 92 1.43678675867873445e-01
10 92 1.63130321372684461e-01
11 92 1.82640748830082467e-01
12 92 2.02206305213967208e-01
13 92 2.21823252844425528e-01
14 92 2.41487770482557373e-01
15 92 2.61195954546774411e-01
16 92 2.80943820452049409e-01
17 92 3.00727304073392654e-01
18 92 3.20542263334587629e-01
19 92 3.40384479923000582e-01
20 92 3.60249661131014143e-01
21 92 3.80133441824387408e-01
22 92 4.00031386537579803e-01
23 92 4.19938991695785246e-01
24 92 4.39851687963160598e-01
25 92 4.59764842716422373e-01
26 92 4.79673762642697121e-01
27 92 4.99573696460201722e-01
28 92 5.19459837760028242e-01
29 92 5.39327327966975578e-01
30 92 5.59171259417086230e-01
31 92 5.78986678549186062e-01
32 92 5.98768589207444912e-01
33 92 6.18511956051629563e-01
34 92 6.38211708071406036e-01
35 92 6.57862742200761352e-01
36 92 6.77459927028236986e-01
37 92 6.96998106598446521e-01
38 92 7.16472104299965329e-01
39 92 7.35876726834454487e-01
40 92 7.55206768261537209e-01
41 92 7.74457014113724695e-01
42 92 7.93622245575382412e-01
43 92 8.12697243719503470e-01
44 92 8.31676793795802838e-01
45 92 8.50555689563436301e-01
46 92 8.69328737661410500e-01
47 92 8.87990762009629120e-01
48 92 9.06536608233246888e-01
49 92 9.24961148102945607e-01
50 92 9.43259283983567065e-01
51 92 9.61425953283413404e-01
52 92 9.79456132896475040e-01
53 92 9.97344843629744071e-01
54 92 1.01508715460773713e+00
55 92 1.03267818764633867e+00
56 92 1.05011312158804992e+00
57 92 1.06738719659077264e+00
58 92 1.08449571836231673e+00
59 92 1.10143406233285890e+00
60 92 1.11819767775769408e+00
61 92 1.13478209174275824e+00
62 92 1.15118291318550958e+00
63 92 1.16739583662394986e+00
64 92 1.18341664598673080e+00
65 92 1.19924121823754226e+00
66 92 1.21486552690715577e+00
67 92 1.23028564550680009e+00
68 92 1.24549775081677616e+00
69 92 1.26049812604455003e+00
70 92 1.27528316384683915e+00
71 92 1.28984936921052395e+00
72 92 1.30419336218761273e+00
73 92 1.31831188047975734e+00
74 92 1.33220178186826099e+00
75 92 1.34586004648583968e+00
76 92 1.35928377892681351e+00
77 92 1.37247021019279436e+00
78 92 1.38541669947130552e+00
79 92 1.39812073574525741e+00
80 92 1.41057993923147618e+00
81 92 1.42279206264704849e+00
82 92 1.43475499230250669e+00
83 92 1.44646674902141981e+00
84 92 1.45792548888626672e+00
85 92 1.46912950381090002e+00
86 92 1.48007722194033842e+00
87 92 1.49076720787896377e+00
88 92 1.50119816274859508e+00
89 92 1.51136892407832102e+00
90 92 1.52127846552827051e+00
91 92 1.53092589644988708e+00
92 92 1.54031046128562066e+00
93 92 1.54943153881122275e+00
94 92 1.55828864122417565e+00
95 92 1.56688141308208673e+00
96 92 1.57520963009510151e+00
97 92 1.58327319777669029e+00
98 92 1.59107214995739032e+00
99 92 1.59860664716630829e+00
100 92 1.60587697488536252e+00
101 92 1.61288354168148218e+00
102 92 1.61962687722208210e+00
103 92 1.62610763017933868e+00
104 92 1.63232656602885307e+00
105 92 1.63828456474847006e+00
106 92 1.64398261842302795e+00
107 92 1.64942182876094812e+00
108 92 1.65460340452860710e+00
109 92 1.65952865890842971e+00
110 92 1.66419900678672072e+00
111 92 1.66861596197721407e+00
112 92 1.67278113438627640e+00
113 92 1.67669622712572486e+00
114 92 1.68036303357914063e+00
115 92 1.68378343442749068e+00
116 92 1.68695939463977895e+00
117 92 1.68989296043442860e+00
118 92 1.69258625621687742e+00
119 92 1.69504148149887945e+00
120 92 1.69726090780477912e+00
121 92 1.69924687556994569e+00
122 92 1.70100179103640392e+00
123 92 1.70252812315051738e+00
124 92 1.70382840046745021e+00
125 92 1.70490520806696844e+00
126 92 1.70576118448492431e+00
127 92 1.70639901866466670e+00
128 92 1.70682144693234883e+00
129 92 1.70703125000000044e+00
130 92 1.70703124999999867e+00
1 93 0.00000000000000000e+00
2 93 9.49498954962623917e-03
3 93 2.85268686744295924e-02
4 93 4.76410382064300572e-02
5 93 6.68344446367293149e-02
6 93 8.61039449679417007e-02
7 93 1.05446307017249608e-01
8 93 1.24858209825995520e-01
9 93 1.44336244178481565e-01
10 93 1.63876913232513660e-01
11 93 1.83476633264087419e-01
12 93 2.03131734528447599e-01
13 93 2.22838462239594526e-01
14 93 2.42592977670120585e-01
15 93 2.62391359373075395e-01
16 93 2.82229604527344802e-01
17 93 3.02103630407824675e-01
18 93 3.22009275981427812e-01
19 93 3.41942303629742039e-01
20 93 3.61898400998890701e-01
21 93 3.81873182976901704e-01
22 93 4.01862193798621314e-01
23 93 4.21860909277916973e-01
24 93 4.41864739166653364e-01
25 93 4.61869029639609630e-01
26 93 4.81869065904219740e-01
27 93 5.01860074933703770e-01
28 93 5.21837228321859081e-01
29 93 5.41795645257442282e-01
30 93 5.61730395615791411e-01
31 93 5.81636503164971841e-01
32 93 6.01508948883451522e-01
33 93 6.21342674385961913e-01
34 93 6.41132585453883852e-01
35 93 6.60873555666210977e-01
36 93 6.80560430126764260e-01
37 93 7.00188029283107638e-01
38 93 7.19751152832230567e-01
39 93 7.39244583707838743e-01
40 93 7.58663092143741058e-01
41 93 7.78001439807609052e-01
42 93 7.97254383999068339e-01
43 93 8.16416681905862807e-01
44 93 8.35483094911573132e-01
45 93 8.54448392948165991e-01
46 93 8.73307358886405538e-01
47 93 8.92054792957041598e-01
48 93 9.10685517195412797e-01
49 93 9.29194379902043788e-01
50 93 9.47576260111638202e-01
51 93 9.65826072062742513e-01
52 93 9.83938769660303358e-01
53 93 1.00190935092324396e+00
54 93 1.01973286240914551e+00
55 93 1.03740440360810693e+00
56 93 1.05491913129783521e+00
57 93 1.07227226385205765e+00
58 93 1.08945908549440973e+00
59 93 1.10647495048998867e+00
60 93 1.12331528726688257e+00
61 93 1.13997560246011642e+00
62 93 1.15645148487056915e+00
63 93 1.17273860933161100e+00
64 93 1.18883274047637255e+00
65 93 1.20472973639881253e+00
66 93 1.22042555220192517e+00
67 93 1.23591624342673967e+00
68 93 1.25119796935598360e+00
69 93 1.26626699618663041e+00
70 93 1.28111970006581788e+00
71 93 1.29575256998494259e+00
72 93 1.31016221052714421e+00
73 93 1.32434534446364638e+00
74 93 1.33829881519488936e+00
75 93 1.35201958903268560e+00
76 93 1.36550475732007115e+00
77 93 1.37875153838589637e+00
78 93 1.39175727933158622e+00
79 93 1.40451945764798158e+00
80 93 1.41703568266045310e+00
81 93 1.42930369680103952e+00
82 93 1.44132137670663729e+00
83 93 1.45308673414279932e+00
84 93 1.46459791675302298e+00
85 93 1.47585320863383318e+00
86 93 1.48685103073640423e+00
87 93 1.49758994109580135e+00
88 93 1.50806863488932086e+00
89 93 1.51828594432581920e+00
90 93 1.52824083836821689e+00
91 93 1.53793242229176319e+00
92 93 1.54735993708097808e+00
93 93 1.55652275866848244e+00
94 93 1.56542039701925217e+00
95 93 1.57405249506415568e+00
96 93 1.58241882748684093e+00
97 93 1.59051929936834568e+00
98 93 1.59835394469403735e+00
99 93 1.60592292472771025e+00
100 93 1.61322652625783580e+00
101 93 1.62026515972121454e+00
102 93 1.62703935720936843e+00
103 93 1.63354977036322579e+00
104 93 1.63979716816170806e+00
105 93 1.64578243461001916e+00
106 93 1.65150656633343096e+00
107 93 1.65697067008250865e+00
108 93 1.66217596015574043e+00
109 93 1.66712375574553939e+00
110 93 1.67181547821366250e+00
111 93 1.67625264830205256e+00
112 93 1.68043688328506935e+00
113 93 1.68436989406909232e+00
114 93 1.68805348224540674e+00
115 93 1.69148953710221606e+00
116 93 1.69468003260151723e+00
117 93 1.69762702432657697e+00
118 93 1.70033264640551307e+00
119 93 1.70279910841649462e+00
120 93 1.70502869227985809e+00
121 93 1.70702374914234811e+00
122 93 1.70878669625853852e+00
123 93 1.71032001387431842e+00
124 93 1.71162624211718684e+00
125 93 1.71270797789793838e+00
126 93 1.71356787182810466e+00
127 93 1.71420862515741135e+00
128 93 1.71463298673524300e+00
129 93 1.71484375000000044e+00
130 93 1.71484374999999867e+00
1 94 0.00000000000000000e+00
2 94 9.53824690520540044e-03
3 94 2.86568316296661740e-02
4 94 4.78580816606734849e-02
5 94 6.71389295781267131e-02
6 94 8.64962180657455476e-02
7 94 1.05926700215505862e-01
8 94 1.25427039939098012e-01
9 94 1.44993812489089685e-01
10 94 1.64623505092342887e-01
11 94 1.84312517698092343e-01
12 94 2.04057163842928019e-01
13 94 2.23853671634763496e-01
14 94 2.43698184857683769e-01
15 94 2.63586764199376378e-01
16 94 2.83515388602640195e-01
17 94 3.03479956742256696e-01
18 94 3.23476288628267994e-01
19 94 3.43500127336483496e-01
20 94 3.63547140866767204e-01
21 94 3.83612924129416111e-01
22 94 4.03693001059662826e-01
23 94 4.23782826860048700e-01
24 94 4.43877790370146075e-01
25 94 4.63973216562796886e-01
26 94 4.84064369165742303e-01
27 94 5.04146453407205875e-01
28 94 5.24214618883689920e-01
29 94 5.44263962547908986e-01
30 94 5.64289531814496592e-01
31 94 5.84286327780757619e-01
32 94 6.04249308559458242e-01
33 94 6.24173392720294262e-01
34 94 6.44053462836361668e-01
35 94 6.63884369131660712e-01
36 94 6.83660933225291756e-01
37 94 7.03377951967768644e-01
38 94 7.23030201364495917e-01
39 94 7.42612440581222999e-01
40 94 7.62119416025944907e-01
41 94 7.81545865501493409e-01
42 94 8.00886522422754266e-01
43 94 8.20136120092222032e-01
44 94 8.39289396027343426e-01
45 94 8.58341096332895681e-01
46 94 8.77285980111400687e-01
47 94 8.96118823904454076e-01
48 94 9.14834426157578595e-01
49 94 9.33427611701141968e-01
50 94 9.51893236239709339e-01
51 94 9.70226190842071734e-01
52 94 9.88421406424131566e-01
53 94 1.00647385821674407e+00
54 94 1.02437857021055390e+00
55 94 1.04213061956987496e+00
56 94 1.05972514100762027e+00
57 94 1.07715733111334266e+00
58 94 1.09442245262650273e+00
59 94 1.11151583864711867e+00
60 94 1.12843289677607106e+00
61 94 1.14516911317747438e+00
62 94 1.16172005655562871e+00
63 94 1.17808138203927215e+00
64 94 1.19424883496601431e+00
65 94 1.21021825456008281e+00
66 94 1.22598557749669479e+00
67 94 1.24154684134667925e+00
68 94 1.25689818789519081e+00
69 94 1.27203586632871057e+00
70 94 1.28695623628479661e+00
71 94 1.30165577075936145e+00
72 94 1.31613105886667570e+00
73 94 1.33037880844753542e+00
74 94 1.34439584852151750e+00
75 94 1.35817913157953174e+00
76 94 1.37172573571332901e+00
77 94 1.38503286657899838e+00
78 94 1.39809785919186669e+00
79 94 1.41091817955070598e+00
80 94 1.42349142608943002e+00
81 94 1.43581533095503056e+00
82 94 1.44788776111076767e+00
83 94 1.45970671926417883e+00
84 94 1.47127034461977946e+00
85 94 1.48257691345676634e+00
86 94 1.49362483953246983e+00
87 94 1.50441267431263892e+00
88 94 1.51493910703004664e+00
89 94 1.52520296457331717e+00
90 94 1.53520321120816305e+00
91 94 1.54493894813363908e+00
92 94 1.55440941287633572e+00
93 94 1.56361397852574191e+00
94 94 1.57255215281432847e+00
95 94 1.58122357704622463e+00
96 94 1.58962802487858057e+00
97 94 1.59776540096000108e+00
98 94 1.60563573943068438e+00
99 94 1.61323920228911222e+00
100 94 1.62057607763030886e+00
101 94 1.62764677776094668e+00
102 94 1.63445183719665499e+00
103 94 1.64099191054711291e+00
104 94 1.64726777029456328e+00
105 94 1.65328030447156804e+00
106 94 1.65903051424383396e+00
107 94 1.66451951140406917e+00
108 94 1.66974851578287353e+00
109 94 1.67471885258264885e+00
110 94 1.67943194964060405e+00
111 94 1.68388933462689128e+00
112 94 1.68809263218386230e+00
113 94 1.69204356101245934e+00
114 94 1.69574393091167286e+00
115 94 1.69919563977694144e+00
116 94 1.70240067056325528e+00
117 94 1.70536108821872534e+00
118 94 1.70807903659414873e+00
119 94 1.71055673533410979e+00
120 94 1.71279647675493729e+00
121 94 1.71480062271475076e+00
122 94 1.71657160148067334e+00
123 94 1.71811190459811947e+00
124 94 1.71942408376692368e+00
125 94 1.72051074772890855e+00
126 94 1.72137455917128523e+00
127 94 1.72201823165015577e+00
128 94 1.72244452653813718e+00
129 94 1.72265625000000044e+00
130 94 1.72265624999999845e+00
1 95 0.00000000000000000e+00
2 95 9.58150426078456172e-03
3 95 2.87867945849027557e-02
4 95 4.80751251149168987e-02
5 95 6.74434145195241253e-02
6 95 8.68884911635493806e-02
7 95 1.06407093413762130e-01
8 95 1.25995870052200504e-01
9 95 1.45651380799697805e-01
10 95 1.65370096952172113e-01
11 95 1.85148402132097295e-01
12 95 2.04982593157408438e-01
13 95 2.24868881029932494e-01
14 95 2.44803392045246981e-01
15 95 2.64782169025677416e-01
16 95 2.84801172677935643e-01
17 95 3.04856283076688717e-01
18 95 3.24943301275108176e-01
19 95 3.45057951043224953e-01
20 95 3.65195880734643707e-01
21 95 3.85352665281930518e-01
22 95 4.05523808320704393e-01
23 95 4.25704744442180372e-01
24 95 4.45890841573638785e-01
25 95 4.66077403485984199e-01
26 95 4.86259672427264977e-01
27 95 5.06432831880707868e-01
28 95 5.26592009445520759e-01
29 95 5.46732279838375690e-01
30 95 5.66848668013201773e-01
31 95 5.86936152396543398e-01
32 95 6.06989668235464852e-01
33 95 6.27004111054626501e-01
34 95 6.46974340218839483e-01
35 95 6.66895182597110447e-01
36 95 6.86761436323819141e-01
37 95 7.06567874652429651e-01
38 95 7.26309249896761155e-01
39 95 7.45980297454607144e-01
40 95 7.65575739908148645e-01
41 95 7.85090291195377876e-01
42 95 8.04518660846440303e-01
43 95 8.23855558278581368e-01
44 95 8.43095697143113609e-01
45 95 8.62233799717625371e-01
46 95 8.81264601336395725e-01
47 95 9.00182854851866665e-01
48 95 9.18983335119744615e-01
49 95 9.37660843500240149e-01
50 95 9.56210212367780588e-01
51 95 9.74626309621400844e-01
52 95 9.92904043187959884e-01
53 95 1.01103836551024395e+00
54 95 1.02902427801196228e+00
55 95 1.04685683553164322e+00
56 95 1.06453115071740534e+00
57 95 1.08204239837462768e+00
58 95 1.09938581975859573e+00
59 95 1.11655672680424845e+00
60 95 1.13355050628525955e+00
61 95 1.15036262389483257e+00
62 95 1.16698862824068827e+00
63 95 1.18342415474693330e+00
64 95 1.19966492945565628e+00
65 95 1.21570677272135330e+00
66 95 1.23154560279146441e+00
67 95 1.24717743926661884e+00
68 95 1.26259840643439825e+00
69 95 1.27780473647079096e+00
70 95 1.29279277250377511e+00
71 95 1.30755897153378031e+00
72 95 1.32209990720620718e+00
73 95 1.33641227243142446e+00
74 95 1.35049288184814564e+00
75 95 1.36433867412637766e+00
76 95 1.37794671410658687e+00
77 95 1.39131419477210039e+00
78 95 1.40443843905214694e+00
79 95 1.41731690145343014e+00
80 95 1.42994716951840717e+00
81 95 1.44232696510902181e+00
82 95 1.45445414551489782e+00
83 95 1.46632670438555834e+00
84 95 1.47794277248653572e+00
85 95 1.48930061827969951e+00
86 95 1.50039864832853542e+00
87 95 1.51123540752947627e+00
88 95 1.52180957917077220e+00
89 95 1.53211998482081535e+00
90 95 1.54216558404810944e+00
91 95 1.55194547397551519e+00
92 95 1.56145888867169313e+00
93 95 1.57070519838300160e+00
94 95 1.57968390860940477e+00
95 95 1.58839465902829358e+00
96 95 1.59683722227032021e+00
97 95 1.60501150255165670e+00
98 95 1.61291753416733141e+00
99 95 1.62055547985051418e+00
100 95 1.62792562900278193e+00
101 95 1.63502839580067905e+00
102 95 1.64186431718394110e+00
103 95 1.64843405073100002e+00
104 95 1.65473837242741850e+00
105 95 1.66077817433311714e+00
106 95 1.66655446215423675e+00
107 95 1.67206835272562993e+00
108 95 1.67732107141000664e+00
109 95 1.68231394941975876e+00
110 95 1.68704842106754560e+00
111 95 1.69152602095172977e+00
112 95 1.69574838108265569e+00
113 95 1.69971722795582636e+00
114 95 1.70343437957793897e+00
115 95 1.70690174245166681e+00
116 95 1.71012130852499356e+00
117 95 1.71309515211087371e+00
118 95 1.71582542678278460e+00
119 95 1.71831436225172474e+00
120 95 1.72056426123001649e+00
121 95 1.72257749628715340e+00
122 95 1.72435650670280793e+00
123 95 1.72590379532192051e+00
124 95 1.72722192541666031e+00
125 95 1.72831351755987872e+00
126 95 1.72918124651446581e+00
127 95 1.72982783814290020e+00
128 95 1.73025606634103113e+00
129 95 1.73046875000000044e+00
130 95 1.73046874999999845e+00
1 96 0.00000000000000000e+00
2 96 9.62476161636372299e-03
3 96 2.89167575401393338e-02
4 96 4.82921685691603125e-02
5 96 6.77478994609215235e-02
6 96 8.72807642613532275e-02
7 96 1.06887486612018384e-01
8 96 1.26564700165302996e-01
9 96 1.46308949110305897e-01
10 96 1.66116688812001340e-01
11 96 1.85984286566102247e-01
12 96 2.05908022471888830e-01
13 96 2.25884090425101491e-01
14 96 2.45908599232810193e-01
15 96 2.65977573851978455e-01
16 96 2.86086956753231036e-01
17 96 3.06232609411120682e-01
18 96 3.26410313921948358e-01
19 96 3.46615774749966465e-01
20 96 3.66844620602520266e-01
21 96 3.87092406434444869e-01
22 96 4.07354615581745960e-01
23 96 4.27626662024312099e-01
24 96 4.47903892777131496e-01
25 96 4.68181590409171455e-01
26 96 4.88454975688787651e-01
27 96 5.08719210354209972e-01
28 96 5.28969400007351598e-01
29 96 5.49200597128842394e-01
30 96 5.69407804211906954e-01
31 96 5.89585977012329066e-01
32 96 6.09730027911471462e-01
33 96 6.29834829388958850e-01
34 96 6.49895217601317299e-01
35 96 6.69905996062560072e-01
36 96 6.89861939422346526e-01
37 96 7.09757797337090657e-01
38 96 7.29588298429026283e-01
39 96 7.49348154327991289e-01
40 96 7.69032063790352605e-01
41 96 7.88634716889262122e-01
42 96 8.08150799270126230e-01
43 96 8.27574996464940593e-01
44 96 8.46901998258883904e-01
45 96 8.66126503102355061e-01
46 96 8.85243222561390875e-01
47 96 9.04246885799279254e-01
48 96 9.23132244081910525e-01
49 96 9.41894075299338329e-01
50 96 9.60527188495851836e-01
51 96 9.79026428400729953e-01
52 96 9.97386679951788202e-01
53 96 1.01560287280374384e+00
54 96 1.03366998581337066e+00
55 96 1.05158305149341125e+00
56 96 1.06933716042719040e+00
57 96 1.08692746563591269e+00
58 96 1.10434918689068851e+00
59 96 1.12159761496137822e+00
60 96 1.13866811579444804e+00
61 96 1.15555613461219076e+00
62 96 1.17225719992574784e+00
63 96 1.18876692745459445e+00
64 96 1.20508102394529804e+00
65 96 1.22119529088262335e+00
66 96 1.23710562808623403e+00
67 96 1.25280803718655842e+00
68 96 1.26829862497360524e+00
69 96 1.28357360661287134e+00
70 96 1.29862930872275362e+00
71 96 1.31346217230819939e+00
72 96 1.32806875554573844e+00
73 96 1.34244573641531328e+00
74 96 1.35658991517477379e+00
75 96 1.37049821667322358e+00
76 96 1.38416769249984473e+00
77 96 1.39759552296520240e+00
78 96 1.41077901891242763e+00
79 96 1.42371562335615431e+00
80 96 1.43640291294738431e+00
81 96 1.44883859926301284e+00
82 96 1.46102052991902842e+00
83 96 1.47294668950693808e+00
84 96 1.48461520035329220e+00
85 96 1.49602432310263267e+00
86 96 1.50717245712460102e+00
87 96 1.51805814074631362e+00
88 96 1.52868005131149798e+00
89 96 1.53903700506831354e+00
90 96 1.54912795688805538e+00
91 96 1.55895199981739130e+00
92 96 1.56850836446705055e+00
93 96 1.57779641824026085e+00
94 96 1.58681566440448085e+00
95 96 1.59556574101036275e+00
96 96 1.60404641966205963e+00
97 96 1.61225760414331187e+00
98 96 1.62019932890397866e+00
99 96 1.62787175741191614e+00
100 96 1.63527518037525499e+00
101 96 1.64241001384041141e+00
102 96 1.64927679717122766e+00
103 96 1.65587619091488714e+00
104 96 1.66220897456027350e+00
105 96 1.66827604419466602e+00
106 96 1.67407841006463953e+00
107 96 1.67961719404719045e+00
108 96 1.68489362703713996e+00
109 96 1.68990904625686800e+00
110 96 1.69466489249448693e+00
111 96 1.69916270727656826e+00
112 96 1.70340412998144886e+00
113 96 1.70739089489919338e+00
114 96 1.71112482824420509e+00
115 96 1.71460784512639242e+00
116 96 1.71784194648673183e+00
117 96 1.72082921600302208e+00
118 96 1.72357181697142026e+00
119 96 1.72607198916933990e+00
120 96 1.72833204570509569e+00
121 96 1.73035436985955582e+00
122 96 1.73214141192494253e+00
123 96 1.73369568604572155e+00
124 96 1.73501976706639693e+00
125 96 1.73611628739084889e+00
126 96 1.73698793385764616e+00
127 96 1.73763744463564462e+00
128 96 1.73806760614392530e+00
129 96 1.73828125000000022e+00
130 96 1.73828124999999845e+00
1 97 0.00000000000000000e+00
2 97 9.66801897194288426e-03
3 97 2.90467204953759155e-02
4 97 4.85092120234037263e-02
5 97 6.80523844023189356e-02
6 97 8.76730373591570605e-02
7 97 1.07367879810274638e-01
8 97 1.27133530278405488e-01
9 97 1.46966517420914017e-01
10 97 1.66863280671830566e-01
11 97 1.86820171000107199e-01
12 97 2.06833451786369221e-01
13 97 2.26899299820270489e-01
14 97 2.47013806420373405e-01
15 97 2.67172978678279549e-01
16 97 2.87372740828526485e-01
17 97 3.07608935745552703e-01
18 97 3.27877326568788596e-01
19 97 3.48173598456707867e-01
20 97 3.68493360470396825e-01
21 97 3.88832147586959220e-01
22 97 4.09185422842787472e-01
23 97 4.29548579606443826e-01
24 97 4.49916943980624262e-01
25 97 4.70285777332358712e-01
26 97 4.90650278950310270e-01
27 97 5.11005588827712076e-01
28 97 5.31346790569182326e-01
29 97 5.51668914419309098e-01
30 97 5.71966940410612246e-01
31 97 5.92235801628114844e-01
32 97 6.12470387587477960e-01
33 97 6.32665547723291199e-01
34 97 6.52816094983795114e-01
35 97 6.72916809528009807e-01
36 97 6.92962442520873911e-01
37 97 7.12947720021751774e-01
38 97 7.32867346961291632e-01
39 97 7.52716011201375657e-01
40 97 7.72488387672556454e-01
41 97 7.92179142583146478e-01
42 97 8.11782937693812379e-01
43 97 8.31294434651299929e-01
44 97 8.50708299374654198e-01
45 97 8.70019206487084751e-01
46 97 8.89221843786385913e-01
47 97 9.08310916746691843e-01
48 97 9.27281153044076434e-01
49 97 9.46127307098436510e-01
50 97 9.64844164623923084e-01
51 97 9.83426547180059174e-01
52 97 1.00186931671561652e+00
53 97 1.02016738009724395e+00
54 97 1.03831569361477905e+00
55 97 1.05630926745517950e+00
56 97 1.07414317013697569e+00
57 97 1.09181253289719771e+00
58 97 1.10931255402278151e+00
59 97 1.12663850311850799e+00
60 97 1.14378572530363654e+00
61 97 1.16074964532954872e+00
62 97 1.17752577161080763e+00
63 97 1.19410970016225559e+00
64 97 1.21049711843493979e+00
65 97 1.22668380904389362e+00
66 97 1.24266565338100365e+00
67 97 1.25843863510649800e+00
68 97 1.27399884351281245e+00
69 97 1.28934247675495173e+00
70 97 1.30446584494173212e+00
71 97 1.31936537308261848e+00
72 97 1.33403760388526971e+00
73 97 1.34847920039920255e+00
74 97 1.36268694850140193e+00
75 97 1.37665775922006950e+00
76 97 1.39038867089310259e+00
77 97 1.40387685115830441e+00
78 97 1.41711959877270832e+00
79 97 1.43011434525887871e+00
80 97 1.44285865637636146e+00
81 97 1.45535023341700387e+00
82 97 1.46758691432315902e+00
83 97 1.47956667462831737e+00
84 97 1.49128762822004868e+00
85 97 1.50274802792556583e+00
86 97 1.51394626592066639e+00
87 97 1.52488087396315097e+00
88 97 1.53555052345222376e+00
89 97 1.54595402531581150e+00
90 97 1.55609032972800176e+00
91 97 1.56595852565926719e+00
92 97 1.57555784026240819e+00
93 97 1.58488763809752053e+00
94 97 1.59394742019955715e+00
95 97 1.60273682299243148e+00
96 97 1.61125561705379927e+00
97 97 1.61950370573496727e+00
98 97 1.62748112364062592e+00
99 97 1.63518803497331811e+00
100 97 1.64262473174772805e+00
101 97 1.64979163188014355e+00
102 97 1.65668927715851400e+00
103 97 1.66331833109877403e+00
104 97 1.66967957669312850e+00
105 97 1.67577391405621490e+00
106 97 1.68160235797504232e+00
107 97 1.68716603536875076e+00
108 97 1.69246618266427307e+00
109 97 1.69750414309397724e+00
110 97 1.70228136392142848e+00
111 97 1.70679939360140676e+00
112 97 1.71105987888024202e+00
113 97 1.71506456184256040e+00
114 97 1.71881527691047142e+00
115 97 1.72231394780111779e+00
116 97 1.72556258444847010e+00
117 97 1.72856327989517067e+00
118 97 1.73131820716005591e+00
119 97 1.73382961608695507e+00
120 97 1.73609983018017489e+00
121 97 1.73813124343195846e+00
122 97 1.73992631714707713e+00
123 97 1.74148757676952259e+00
124 97 1.74281760871613356e+00
125 97 1.74391905722181906e+00
126 97 1.74479462120082651e+00
127 97 1.74544705112838905e+00
128 97 1.74587914594681926e+00
129 97 1.74609375000000044e+00
130 97 1.74609374999999845e+00
1 98 0.00000000000000000e+00
2 98 9.71127632752204727e-03
3 98 2.91766834506124971e-02
4 98 4.87262554776471471e-02
5 98 6.83568693437163338e-02
6 98 8.80653104569608797e-02
7 98 1.07848273008530893e-01
8 98 1.27702360391507980e-01
9 98 1.47624085731522137e-01
10 98 1.67609872531659793e-01
11 98 1.87656055434112151e-01
12 98 2.07758881100849641e-01
13 98 2.27914509215439515e-01
14 98 2.48119013607936589e-01
15 98 2.68368383504580588e-01
16 98 2.88658524903821934e-01
17 98 3.08985262079984724e-01
18 98 3.29344339215628779e-01
19 98 3.49731422163449268e-01
20 98 3.70142100338273328e-01
21 98 3.90571888739473572e-01
22 98 4.11016230103829094e-01
23 98 4.31470497188575552e-01
24 98 4.51929995184116973e-01
25 98 4.72389964255545969e-01
26 98 4.92845582211833000e-01
27 98 5.13291967301214180e-01
28 98 5.33724181131013053e-01
29 98 5.54137231709775802e-01
30 98 5.74526076609317427e-01
31 98 5.94885626243900734e-01
32 98 6.15210747263484570e-01
33 98 6.35496266057623549e-01
34 98 6.55736972366272930e-01
35 98 6.75927622993459543e-01
36 98 6.96062945619401408e-01
37 98 7.16137642706412891e-01
38 98 7.36146395493556871e-01
39 98 7.56083868074759913e-01
40 98 7.75944711554760413e-01
41 98 7.95723568277030724e-01
42 98 8.15415076117498194e-01
43 98 8.35013872837659266e-01
44 98 8.54514600490424603e-01
45 98 8.73911909871814441e-01
46 98 8.93200465011380951e-01
47 98 9.12374947694104321e-01
48 98 9.31430062006242343e-01
49 98 9.50360538897534690e-01
50 98 9.69161140751994443e-01
51 98 9.87826665959388284e-01
52 98 1.00635195347944473e+00
53 98 1.02473188739074383e+00
54 98 1.04296140141618743e+00
55 98 1.06103548341694776e+00
56 98 1.07894917984676075e+00
57 98 1.09669760015848272e+00
58 98 1.11427592115487450e+00
59 98 1.13167939127563777e+00
60 98 1.14890333481282481e+00
61 98 1.16594315604690690e+00
62 98 1.18279434329586697e+00
63 98 1.19945247286991652e+00
64 98 1.21591321292458154e+00
65 98 1.23217232720516390e+00
66 98 1.24822567867577350e+00
67 98 1.26406923302643759e+00
68 98 1.27969906205201966e+00
69 98 1.29511134689703189e+00
70 98 1.31030238116071063e+00
71 98 1.32526857385703711e+00
72 98 1.34000645222480119e+00
73 98 1.35451266438309137e+00
74 98 1.36878398182802985e+00
75 98 1.38281730176691542e+00
76 98 1.39660964928636044e+00
77 98 1.41015817935140642e+00
78 98 1.42346017863298879e+00
79 98 1.43651306716160310e+00
80 98 1.44931439980533860e+00
81 98 1.46186186757099512e+00
82 98 1.47415329872728962e+00
83 98 1.48618665974969688e+00
84 98 1.49796005608680516e+00
85 98 1.50947173274849922e+00
86 98 1.52072007471673198e+00
87 98 1.53170360717998832e+00
88 98 1.54242099559294976e+00
89 98 1.55287104556330946e+00
90 98 1.56305270256794815e+00
91 98 1.57296505150114330e+00
92 98 1.58260731605776583e+00
93 98 1.59197885795478000e+00
94 98 1.60107917599463367e+00
95 98 1.60990790497450043e+00
96 98 1.61846481444553891e+00
97 98 1.62674980732662244e+00
98 98 1.63476291837727294e+00
99 98 1.64250431253471985e+00
100 98 1.64997428312020111e+00
101 98 1.65717324991987591e+00
102 98 1.66410175714580033e+00
103 98 1.67076047128266114e+00
104 98 1.67715017882598372e+00
105 98 1.68327178391776400e+00
106 98 1.68912630588544532e+00
107 98 1.69471487669031151e+00
108 98 1.70003873829140617e+00
109 98 1.70509923993108670e+00
110 98 1.70989783534837003e+00
111 98 1.71443607992624525e+00
112 98 1.71871562777903519e+00
113 98 1.72273822878592742e+00
114 98 1.72650572557673776e+00
115 98 1.73002005047584317e+00
116 98 1.73328322241020816e+00
117 98 1.73629734378731904e+00
118 98 1.73906459734869134e+00
119 98 1.74158724300457002e+00
120 98 1.74386761465525386e+00
121 98 1.74590811700436088e+00
122 98 1.74771122236921173e+00
123 98 1.74927946749332364e+00
124 98 1.75061545036586996e+00
125 98 1.75172182705278900e+00
126 98 1.75260130854400709e+00
127 98 1.75325665762113347e+00
128 98 1.75369068574971321e+00
129 98 1.75390625000000044e+00
130 98 1.75390624999999867e+00
1 99 0.00000000000000000e+00
2 99 9.75453368310121027e-03
3 99 2.93066464058490787e-02
4 99 4.89432989318905609e-02
5 99 6.86613542851137321e-02
6 99 8.84575835547647127e-02
7 99 1.08328666206787147e-01
8 99 1.28271190504610472e-01
9 99 1.48281654042130284e-01
10 99 1.68356464391489019e-01
11 99 1.88491939868117103e-01
12 99 2.08684310415330060e-01
13 99 2.28929718610608512e-01
14 99 2.49224220795499773e-01
15 99 2.69563788330881626e-01
16 99 2.89944308979117382e-01
17 99 3.10361588414416689e-01
18 99 3.30811351862468961e-01
19 99 3.51289245870190725e-01
20 99 3.71790840206149775e-01
21 99 3.92311629891987868e-01
22 99 4.12847037364870662e-01
23 99 4.33392414770707279e-01
24 99 4.53943046387609739e-01
25 99 4.74494151178733281e-01
26 99 4.95040885473355563e-01
27 99 5.15578345774716285e-01
28 99 5.36101571692843892e-01
29 99 5.56605549000242505e-01
30 99 5.77085212808022607e-01
31 99 5.97535450859686512e-01
32 99 6.17951106939491179e-01
33 99 6.38326984391955898e-01
34 99 6.58657849748750746e-01
35 99 6.78938436458909278e-01
36 99 6.99163448717928793e-01
37 99 7.19327565391074009e-01
38 99 7.39425444025822109e-01
39 99 7.59451724948144169e-01
40 99 7.79401035436964262e-01
41 99 7.99267993970915080e-01
42 99 8.19047214541184010e-01
43 99 8.38733311024018380e-01
44 99 8.58320901606195008e-01
45 99 8.77804613256544131e-01
46 99 8.97179086236375878e-01
47 99 9.16438978641516910e-01
48 99 9.35578970968408141e-01
49 99 9.54593770696632871e-01
50 99 9.73478116880065691e-01
51 99 9.92226784738717393e-01
52 99 1.01083459024327293e+00
53 99 1.02929639468424394e+00
54 99 1.04760710921759581e+00
55 99 1.06576169937871579e+00
56 99 1.08375518955654582e+00
57 99 1.10158266741976774e+00
58 99 1.11923928828696750e+00
59 99 1.13672027943276754e+00
60 99 1.15402094432201330e+00
61 99 1.17113666676426509e+00
62 99 1.18806291498092653e+00
63 99 1.20479524557757789e+00
64 99 1.22132930741422352e+00
65 99 1.23766084536643417e+00
66 99 1.25378570397054312e+00
67 99 1.26969983094637717e+00
68 99 1.28539928059122688e+00
69 99 1.30088021703911205e+00
70 99 1.31613891737968935e+00
71 99 1.33117177463145597e+00
72 99 1.34597530056433246e+00
73 99 1.36054612836698041e+00
74 99 1.37488101515465777e+00
75 99 1.38897684431376134e+00
76 99 1.40283062767961830e+00
77 99 1.41643950754450820e+00
78 99 1.42980075849326949e+00
79 99 1.44291178906432749e+00
80 99 1.45577014323431553e+00
81 99 1.46837350172498615e+00
82 99 1.48071968313142044e+00
83 99 1.49280664487107639e+00
84 99 1.50463248395356164e+00
85 99 1.51619543757143238e+00
86 99 1.52749388351279780e+00
87 99 1.53852634039682590e+00
88 99 1.54929146773367532e+00
89 99 1.55978806581080764e+00
90 99 1.57001507540789431e+00
91 99 1.57997157734301941e+00
92 99 1.58965679185312325e+00
93 99 1.59907007781203969e+00
94 99 1.60821093178970997e+00
95 99 1.61707898695656960e+00
96 99 1.62567401183727855e+00
97 99 1.63399590891827762e+00
98 99 1.64204471311391997e+00
99 99 1.64982059009612181e+00
100 99 1.65732383449267417e+00
101 99 1.66455486795960805e+00
102 99 1.67151423713308667e+00
103 99 1.67820261146654826e+00
104 99 1.68462078095883871e+00
105 99 1.69076965377931332e+00
106 99 1.69665025379584811e+00
107 99 1.70226371801187182e+00
108 99 1.70761129391853950e+00
109 99 1.71269433676819594e+00
110 99 1.71751430677531136e+00
111 99 1.72207276625108396e+00
112 99 1.72637137667782836e+00
113 99 1.73041189572929444e+00
114 99 1.73419617424300410e+00
115 99 1.73772615315056833e+00
116 99 1.74100386037194643e+00
117 99 1.74403140767946740e+00
118 99 1.74681098753732700e+00
119 99 1.74934486992218496e+00
120 99 1.75163539913033306e+00
121 99 1.75368499057676352e+00
122 99 1.75549612759134632e+00
123 99 1.75707135821712468e+00
124 99 1.75841329201560659e+00
125 99 1.75952459688375895e+00
126 99 1.76040799588718766e+00
127 99 1.76106626411387790e+00
128 99 1.76150222555260716e+00
129 99 1.76171875000000022e+00
130 99 1.76171874999999867e+00
1 100 0.00000000000000000e+00
2 100 9.79779103868037328e-03
3 100 2.94366093610856604e-02
4 100 4.91603423861339747e-02
5 100 6.89658392265111303e-02
6 100 8.88498566525685457e-02
7 100 1.08809059405043415e-01
8 100 1.28840020617712964e-01
9 100 1.48939222352738376e-01
10 100 1.69103056251318246e-01
11 100 1.89327824302122055e-01
12 100 2.09609739729810451e-01
13 100 2.29944928005777482e-01
14 100 2.50329427983062958e-01
15 100 2.70759193157182665e-01
16 100 2.91230093054412831e-01
17 100 3.11737914748848710e-01
18 100 3.32278364509309143e-01
19 100 3.52847069576932126e-01
20 100 3.73439580074026278e-01
21 100 3.94051371044502219e-01
22 100 4.14677844625912173e-01
23 100 4.35314332352839006e-01
24 100 4.55956097591102449e-01
25 100 4.76598338101920538e-01
26 100 4.97236188734878182e-01
27 100 5.17864724248218389e-01
28 100 5.38478962254674731e-01
29 100 5.59073866290709209e-01
30 100 5.79644349006727788e-01
31 100 6.00185275475472291e-01
32 100 6.20691466615497789e-01
33 100 6.41157702726288248e-01
34 100 6.61578727131228561e-01
35 100 6.81949249924358902e-01
36 100 7.02263951816456067e-01
37 100 7.22517488075735126e-01
38 100 7.42704492558087459e-01
39 100 7.62819581821528314e-01
40 100 7.82857359319168000e-01
41 100 8.02812419664799548e-01
42 100 8.22679352964869937e-01
43 100 8.42452749210377716e-01
44 100 8.62127202721965413e-01
45 100 8.81697316641273710e-01
46 100 9.01157707461370916e-01
47 100 9.20503009588929388e-01
48 100 9.39727879930574050e-01
49 100 9.58827002495730940e-01
50 100 9.77795093008136940e-01
51 100 9.96626903518046392e-01
52 100 1.01531722700710136e+00
53 100 1.03386090197774383e+00
54 100 1.05225281701900419e+00
55 100 1.07048791534048404e+00
56 100 1.08856119926633110e+00
57 100 1.10646773468105275e+00
58 100 1.12420265541906073e+00
59 100 1.14176116758989732e+00
60 100 1.15913855383120179e+00
61 100 1.17633017748162305e+00
62 100 1.19333148666598610e+00
63 100 1.21013801828523904e+00
64 100 1.22674540190386527e+00
65 100 1.24314936352770422e+00
66 100 1.25934572926531274e+00
67 100 1.27533042886631676e+00
68 100 1.29109949913043409e+00
69 100 1.30664908718119221e+00
70 100 1.32197545359866786e+00
71 100 1.33707497540587483e+00
72 100 1.35194414890386372e+00
73 100 1.36657959235086945e+00
74 100 1.38097804848128591e+00
75 100 1.39513638686060748e+00
76 100 1.40905160607287616e+00
77 100 1.42272083573760999e+00
78 100 1.43614133835355018e+00
79 100 1.44931051096705166e+00
80 100 1.46222588666329245e+00
81 100 1.47488513587897740e+00
82 100 1.48728606753555104e+00
83 100 1.49942662999245591e+00
84 100 1.51130491182031790e+00
85 100 1.52291914239436554e+00
86 100 1.53426769230886340e+00
87 100 1.54534907361366325e+00
88 100 1.55616193987440132e+00
89 100 1.56670508605830561e+00
90 100 1.57697744824784092e+00
91 100 1.58697810318489529e+00
92 100 1.59670626764848067e+00
93 100 1.60616129766929938e+00
94 100 1.61534268758478627e+00
95 100 1.62425006893863833e+00
96 100 1.63288320922901820e+00
97 100 1.64124201050993279e+00
98 100 1.64932650785056722e+00
99 100 1.65713686765752377e+00
100 100 1.66467338586514746e+00
101 100 1.67193648599934042e+00
102 100 1.67892671712037300e+00
103 100 1.68564475165043537e+00
104 100 1.69209138309169393e+00
105 100 1.69826752364086242e+00
106 100 1.70417420170625089e+00
107 100 1.70981255933343212e+00
108 100 1.71518384954567260e+00
109 100 1.72028943360530540e+00
110 100 1.72513077820225313e+00
111 100 1.72970945257592246e+00
112 100 1.73402712557662131e+00
113 100 1.73808556267266145e+00
114 100 1.74188662290926999e+00
115 100 1.74543225582529371e+00
116 100 1.74872449833368471e+00
117 100 1.75176547157161577e+00
118 100 1.75455737772596243e+00
119 100 1.75710249683980013e+00
120 100 1.75940318360541204e+00
121 100 1.76146186414916617e+00
122 100 1.76328103281348092e+00
123 100 1.76486324894092594e+00
124 100 1.76621113366534344e+00
125 100 1.76732736671472890e+00
126 100 1.76821468323036823e+00
127 100 1.76887587060662232e+00
128 100 1.76931376535550111e+00
129 100 1.76953125000000022e+00
130 100 1.76953124999999867e+00
1 101 0.00000000000000000e+00
2 101 9.84104839425953802e-03
3 101 2.95665723163222455e-02
4 101 4.93773858403773955e-02
5 101 6.92703241679085285e-02
6 101 8.92421297503723787e-02
7 101 1.09289452603299683e-01
8 101 1.29408850730815456e-01
9 101 1.49596790663346496e-01
10 101 1.69849648111147472e-01
11 101 1.90163708736126980e-01
12 101 2.10535169044290843e-01
13 101 2.30960137400946508e-01
14 101 2.51434635170626142e-01
15 101 2.71954597983483704e-01
16 101 2.92515877129708224e-01
17 101 3.13114241083280731e-01
18 101 3.33745377156149381e-01
19 101 3.54404893283673528e-01
20 101 3.75088319941902781e-01
21 101 3.95791112197016570e-01
22 101 4.16508651886953740e-01
23 101 4.37236249934970789e-01
24 101 4.57969148794595160e-01
25 101 4.78702525025107795e-01
26 101 4.99431491996400800e-01
27 101 5.20151102721720382e-01
28 101 5.40856352816505570e-01
29 101 5.61542183581176024e-01
30 101 5.82203485205432969e-01
31 101 6.02835100091257958e-01
32 101 6.23431826291504509e-01
33 101 6.43988421060620597e-01
34 101 6.64499604513706266e-01
35 101 6.84960063389808638e-01
36 101 7.05364454914983563e-01
37 101 7.25707410760396132e-01
38 101 7.45983541090352698e-01
39 101 7.66187438694912459e-01
40 101 7.86313683201371738e-01
41 101 8.06356845358683794e-01
42 101 8.26311491388555863e-01
43 101 8.46172187396737052e-01
44 101 8.65933503837735596e-01
45 101 8.85590020026003399e-01
46 101 9.05136328686365954e-01
47 101 9.24567040536341866e-01
48 101 9.43876788892739849e-01
49 101 9.63060234294828899e-01
50 101 9.82112069136208188e-01
51 101 1.00102702229737561e+00
52 101 1.01979986377092979e+00
53 101 1.03842540927124372e+00
54 101 1.05689852482041258e+00
55 101 1.07521413130225207e+00
56 101 1.09336720897611617e+00
57 101 1.11135280194233776e+00
58 101 1.12916602255115373e+00
59 101 1.14680205574702709e+00
60 101 1.16425616334039028e+00
61 101 1.18152368819898124e+00
62 101 1.19860005835104566e+00
63 101 1.21548079099289996e+00
64 101 1.23216149639350703e+00
65 101 1.24863788168897449e+00
66 101 1.26490575456008236e+00
67 101 1.28096102678625634e+00
68 101 1.29679971766964131e+00
69 101 1.31241795732327260e+00
70 101 1.32781198981764659e+00
71 101 1.34297817618029391e+00
72 101 1.35791299724339520e+00
73 101 1.37261305633475850e+00
74 101 1.38707508180791428e+00
75 101 1.40129592940745340e+00
76 101 1.41527258446613380e+00
77 101 1.42900216393071200e+00
78 101 1.44248191821383087e+00
79 101 1.45570923286977583e+00
80 101 1.46868163009226960e+00
81 101 1.48139677003296866e+00
82 101 1.49385245193968141e+00
83 101 1.50604661511383542e+00
84 101 1.51797733968707438e+00
85 101 1.52964284721729871e+00
86 101 1.54104150110492921e+00
87 101 1.55217180683050038e+00
88 101 1.56303241201512710e+00
89 101 1.57362210630580357e+00
90 101 1.58393982108778708e+00
91 101 1.59398462902677118e+00
92 101 1.60375574344383831e+00
93 101 1.61325251752655885e+00
94 101 1.62247444337986235e+00
95 101 1.63142115092070772e+00
96 101 1.64009240662075761e+00
97 101 1.64848811210158797e+00
98 101 1.65660830258721425e+00
99 101 1.66445314521892573e+00
100 101 1.67202293723762030e+00
101 101 1.67931810403907256e+00
102 101 1.68633919710765956e+00
103 101 1.69308689183432248e+00
104 101 1.69956198522454915e+00
105 101 1.70576539350241152e+00
106 101 1.71169814961665390e+00
107 101 1.71736140065499265e+00
108 101 1.72275640517280570e+00
109 101 1.72788453044241486e+00
110 101 1.73274724962919446e+00
111 101 1.73734613890076095e+00
112 101 1.74168287447541403e+00
113 101 1.74575922961602870e+00
114 101 1.74957707157553610e+00
115 101 1.75313835850001887e+00
116 101 1.75644513629542254e+00
117 101 1.75949953546376436e+00
118 101 1.76230376791459808e+00
119 101 1.76486012375741508e+00
120 101 1.76717096808049101e+00
121 101 1.76923873772156881e+00
122 101 1.77106593803561552e+00
123 101 1.77265513966472676e+00
124 101 1.77400897531508006e+00
125 101 1.77513013654569884e+00
126 101 1.77602137057354859e+00
127 101 1.77668547709936697e+00
128 101 1.77712530515839506e+00
129 101 1.77734375000000022e+00
130 101 1.77734374999999867e+00
1 102 0.00000000000000000e+00
2 102 9.88430574983870103e-03
3 102 2.96965352715588271e-02
4 102 4.95944292946208093e-02
5 102 6.95748091093059268e-02
6 102 8.96344028481762256e-02
7 102 1.09769845801555951e-01
8 102 1.29977680843917975e-01
9 102 1.50254358973954616e-01
10 102 1.70596239970976699e-01
11 102 1.90999593170131932e-01
12 102 2.11460598358771235e-01
13 102 2.31975346796115478e-01
14 102 2.52539842358189326e-01
15 102 2.73150002809784687e-01
16 102 2.93801661205003672e-01
17 102 3.14490567417712696e-01
18 102 3.35212389802989563e-01
19 102 3.55962716990414985e-01
20 102 3.76737059809779284e-01
21 102 3.97530853349530922e-01
22 102 4.18339459147995307e-01
23 102 4.39158167517102571e-01
24 102 4.59982199998087871e-01
25 102 4.80806711948295107e-01
26 102 5.01626795257923419e-01
27 102 5.22437481195222486e-01
28 102 5.43233743378336298e-01
29 102 5.64010500871642728e-01
30 102 5.84762621404138261e-01
31 102 6.05484924707043737e-01
32 102 6.26172185967511008e-01
33 102 6.46819139394952836e-01
34 102 6.67420481896184192e-01
35 102 6.87970876855258262e-01
36 102 7.08464958013510948e-01
37 102 7.28897333445057249e-01
38 102 7.49262589622617936e-01
39 102 7.69555295568296827e-01
40 102 7.89770007083575587e-01
41 102 8.09901271052568150e-01
42 102 8.29943629812241790e-01
43 102 8.49891625583096277e-01
44 102 8.69739804953506002e-01
45 102 8.89482723410733200e-01
46 102 9.09114949911360992e-01
47 102 9.28631071483754456e-01
48 102 9.48025697854905647e-01
49 102 9.67293466093927079e-01
50 102 9.86429045264279547e-01
51 102 1.00542714107670483e+00
52 102 1.02428250053475800e+00
53 102 1.04298991656474360e+00
54 102 1.06154423262182096e+00
55 102 1.07994034726402033e+00
56 102 1.09817321868590145e+00
57 102 1.11623786920362278e+00
58 102 1.13412938968324672e+00
59 102 1.15184294390415687e+00
60 102 1.16937377284957877e+00
61 102 1.18671719891633942e+00
62 102 1.20386863003610523e+00
63 102 1.22082356370056089e+00
64 102 1.23757759088314878e+00
65 102 1.25412639985024477e+00
66 102 1.27046577985485198e+00
67 102 1.28659162470619592e+00
68 102 1.30249993620884852e+00
69 102 1.31818682746535298e+00
70 102 1.33364852603662509e+00
71 102 1.34888137695471277e+00
72 102 1.36388184558292669e+00
73 102 1.37864652031864754e+00
74 102 1.39317211513454264e+00
75 102 1.40745547195429932e+00
76 102 1.42149356285939144e+00
77 102 1.43528349212381401e+00
78 102 1.44882249807411156e+00
79 102 1.46210795477250000e+00
80 102 1.47513737352124696e+00
81 102 1.48790840418695969e+00
82 102 1.50041883634381179e+00
83 102 1.51266660023521493e+00
84 102 1.52464976755383064e+00
85 102 1.53636655204023209e+00
86 102 1.54781530990099481e+00
87 102 1.55899454004733773e+00
88 102 1.56990288415585288e+00
89 102 1.58053912655330175e+00
90 102 1.59090219392773347e+00
91 102 1.60099115486864707e+00
92 102 1.61080521923919595e+00
93 102 1.62034373738381832e+00
94 102 1.62960619917493865e+00
95 102 1.63859223290277689e+00
96 102 1.64730160401249726e+00
97 102 1.65573421369324336e+00
98 102 1.66389009732386128e+00
99 102 1.67176942278032747e+00
100 102 1.67937248861009336e+00
101 102 1.68669972207880492e+00
102 102 1.69375167709494590e+00
103 102 1.70052903201820937e+00
104 102 1.70703258735740415e+00
105 102 1.71326326336396062e+00
106 102 1.71922209752705690e+00
107 102 1.72491024197655318e+00
108 102 1.73032896079993903e+00
109 102 1.73547962727952432e+00
110 102 1.74036372105613601e+00
111 102 1.74498282522559967e+00
112 102 1.74933862337420720e+00
113 102 1.75343289655939572e+00
114 102 1.75726752024180199e+00
115 102 1.76084446117474425e+00
116 102 1.76416577425716059e+00
117 102 1.76723359935591273e+00
118 102 1.77005015810323374e+00
119 102 1.77261775067503025e+00
120 102 1.77493875255557021e+00
121 102 1.77701561129397145e+00
122 102 1.77885084325775011e+00
123 102 1.78044703038852781e+00
124 102 1.78180681696481669e+00
125 102 1.78293290637666901e+00
126 102 1.78382805791672916e+00
127 102 1.78449508359211162e+00
128 102 1.78493684496128879e+00
129 102 1.78515625000000022e+00
130 102 1.78515624999999889e+00
1 103 0.00000000000000000e+00
2 103 9.92756310541786577e-03
3 103 2.98264982267954053e-02
4 103 4.98114727488642231e-02
5 103 6.98792940507033250e-02
6 103 9.00266759459800586e-02
7 103 1.10250238999812220e-01
8 103 1.30546510957020495e-01
9 103 1.50911927284562736e-01
10 103 1.71342831830805897e-01
11 103 1.91835477604136884e-01
12 103 2.12386027673251598e-01
13 103 2.32990556191284476e-01
14 103 2.53645049545752510e-01
15 103 2.74345407636085670e-01
16 103 2.95087445280299121e-01
17 103 3.15866893752144717e-01
18 103 3.36679402449829801e-01
19 103 3.57520540697156386e-01
20 103 3.78385799677655787e-01
21 103 3.99270594502045328e-01
22 103 4.20170266409036874e-01
23 103 4.41080085099234298e-01
24 103 4.61995251201580637e-01
25 103 4.82910898871482475e-01
26 103 5.03822098519446038e-01
27 103 5.24723859668724590e-01
28 103 5.45611133940167137e-01
29 103 5.66478818162109432e-01
30 103 5.87321757602843442e-01
31 103 6.08134749322829515e-01
32 103 6.28912545643517618e-01
33 103 6.49649857729285185e-01
34 103 6.70341359278662008e-01
35 103 6.90981690320708108e-01
36 103 7.11565461112038333e-01
37 103 7.32087256129718367e-01
38 103 7.52541638154883175e-01
39 103 7.72923152441681083e-01
40 103 7.93226330965779436e-01
41 103 8.13445696746452396e-01
42 103 8.33575768235927717e-01
43 103 8.53611063769455503e-01
44 103 8.73546106069276296e-01
45 103 8.93375426795462890e-01
46 103 9.13093571136355919e-01
47 103 9.32695102431166823e-01
48 103 9.52174606817071445e-01
49 103 9.71526697893025371e-01
50 103 9.90746021392350684e-01
51 103 1.00982725985603383e+00
52 103 1.02876513729858621e+00
53 103 1.04755442385824371e+00
54 103 1.06618994042322912e+00
55 103 1.08466656322578836e+00
56 103 1.10297922839568652e+00
57 103 1.12112293646490779e+00
58 103 1.13909275681533972e+00
59 103 1.15688383206128687e+00
60 103 1.17449138235876727e+00
61 103 1.19191070963369761e+00
62 103 1.20913720172116457e+00
63 103 1.22616633640822204e+00
64 103 1.24299368537279054e+00
65 103 1.25961491801151482e+00
66 103 1.27602580514962138e+00
67 103 1.29222222262613573e+00
68 103 1.30820015474805573e+00
69 103 1.32395569760743337e+00
70 103 1.33948506225560382e+00
71 103 1.35478457772913163e+00
72 103 1.36985069392245817e+00
73 103 1.38467998430253680e+00
74 103 1.39926914846117079e+00
75 103 1.41361501450114546e+00
76 103 1.42771454125264907e+00
77 103 1.44156482031691602e+00
78 103 1.45516307793439204e+00
79 103 1.46850667667522439e+00
80 103 1.48159311695022389e+00
81 103 1.49442003834095072e+00
82 103 1.50698522074794217e+00
83 103 1.51928658535659467e+00
84 103 1.53132219542058712e+00
85 103 1.54309025686316525e+00
86 103 1.55458911869706040e+00
87 103 1.56581727326417508e+00
88 103 1.57677335629657867e+00
89 103 1.58745614680079949e+00
90 103 1.59786456676767963e+00
91 103 1.60799768071052318e+00
92 103 1.61785469503455359e+00
93 103 1.62743495724107801e+00
94 103 1.63673795497001495e+00
95 103 1.64576331488484606e+00
96 103 1.65451080140423690e+00
97 103 1.66298031528489854e+00
98 103 1.67117189206050831e+00
99 103 1.67908570034172921e+00
100 103 1.68672203998256642e+00
101 103 1.69408134011853706e+00
102 103 1.70116415708223245e+00
103 103 1.70797117220209649e+00
104 103 1.71450318949025915e+00
105 103 1.72076113322550972e+00
106 103 1.72674604543745969e+00
107 103 1.73245908329811349e+00
108 103 1.73790151642707213e+00
109 103 1.74307472411663378e+00
110 103 1.74798019248307734e+00
111 103 1.75261951155043838e+00
112 103 1.75699437227300037e+00
113 103 1.76110656350276273e+00
114 103 1.76495796890806789e+00
115 103 1.76855056384946963e+00
116 103 1.77188641221889864e+00
117 103 1.77496766324806110e+00
118 103 1.77779654829186939e+00
119 103 1.78037537759264519e+00
120 103 1.78270653703064919e+00
121 103 1.78479248486637387e+00
122 103 1.78663574847988493e+00
123 103 1.78823892111232885e+00
124 103 1.78960465861455331e+00
125 103 1.79073567620763918e+00
126 103 1.79163474525990951e+00
127 103 1.79230469008485604e+00
128 103 1.79274838476418275e+00
129 103 1.79296875000000000e+00
130 103 1.79296874999999889e+00
1 104 0.00000000000000000e+00
2 104 9.97082046099702704e-03
3 104 2.99564611820319834e-02
4 104 5.00285162031076439e-02
5 104 7.01837789921007232e-02
6 104 9.04189490437838778e-02
7 104 1.10730632198068474e-01
8 104 1.31115341070122987e-01
9 104 1.51569495595170856e-01
10 104 1.72089423690635124e-01
11 104 1.92671362038141836e-01
12 104 2.13311456987731990e-01
13 104 2.34005765586453474e-01
14 104 2.54750256733315694e-01
15 104 2.75540812462386708e-01
16 104 2.96373229355594514e-01
17 104 3.17243220086576738e-01
18 104 3.38146415096670039e-01
19 104 3.59078364403897787e-01
20 104 3.80034539545532235e-01
21 104 4.01010335654559680e-01
22 104 4.22001073670078442e-01
23 104 4.43002002681366081e-01
24 104 4.64008302405073347e-01
25 104 4.85015085794669731e-01
26 104 5.06017401780968656e-01
27 104 5.27010238142226695e-01
28 104 5.47988524501997865e-01
29 104 5.68947135452576247e-01
30 104 5.89880893801548623e-01
31 104 6.10784573938615183e-01
32 104 6.31652905319524227e-01
33 104 6.52480576063617645e-01
34 104 6.73262236661139934e-01
35 104 6.93992503786157844e-01
36 104 7.14665964210565607e-01
37 104 7.35277178814379484e-01
38 104 7.55820686687148413e-01
39 104 7.76291009315065228e-01
40 104 7.96682654847983396e-01
41 104 8.16990122440336752e-01
42 104 8.37207906659613643e-01
43 104 8.57330501955814839e-01
44 104 8.77352407185046590e-01
45 104 8.97268130180192469e-01
46 104 9.17072192361350735e-01
47 104 9.36759133378579301e-01
48 104 9.56323515779237354e-01
49 104 9.75759929692123440e-01
50 104 9.95062997520421932e-01
51 104 1.01422737863536305e+00
52 104 1.03324777406241441e+00
53 104 1.05211893115174360e+00
54 104 1.07083564822463750e+00
55 104 1.08939277918755639e+00
56 104 1.10778523810547180e+00
57 104 1.12600800372619281e+00
58 104 1.14405612394743272e+00
59 104 1.16192472021841664e+00
60 104 1.17960899186795554e+00
61 104 1.19710422035105579e+00
62 104 1.21440577340622413e+00
63 104 1.23150910911588318e+00
64 104 1.24840977986243229e+00
65 104 1.26510343617278509e+00
66 104 1.28158583044439101e+00
67 104 1.29785282054607531e+00
68 104 1.31390037328726295e+00
69 104 1.32972456774951353e+00
70 104 1.34532159847458255e+00
71 104 1.36068777850355049e+00
72 104 1.37581954226198966e+00
73 104 1.39071344828642607e+00
74 104 1.40536618178779893e+00
75 104 1.41977455704799160e+00
76 104 1.43393551964590671e+00
77 104 1.44784614851001803e+00
78 104 1.46150365779467251e+00
79 104 1.47490539857794856e+00
80 104 1.48804886037920081e+00
81 104 1.50093167249494197e+00
82 104 1.51355160515207254e+00
83 104 1.52590657047797440e+00
84 104 1.53799462328734360e+00
85 104 1.54981396168609820e+00
86 104 1.56136292749312600e+00
87 104 1.57264000648101265e+00
88 104 1.58364382843730445e+00
89 104 1.59437316704829746e+00
90 104 1.60482693960762601e+00
91 104 1.61500420655239907e+00
92 104 1.62490417082991101e+00
93 104 1.63452617709833747e+00
94 104 1.64386971076509125e+00
95 104 1.65293439686691501e+00
96 104 1.66171999879597654e+00
97 104 1.67022641687655371e+00
98 104 1.67845368679715556e+00
99 104 1.68640197790313096e+00
100 104 1.69407159135503926e+00
101 104 1.70146295815826920e+00
102 104 1.70857663706951901e+00
103 104 1.71541331238598360e+00
104 104 1.72197379162311437e+00
105 104 1.72825900308705882e+00
106 104 1.73426999334786269e+00
107 104 1.74000792461967402e+00
108 104 1.74547407205420546e+00
109 104 1.75066982095374324e+00
110 104 1.75559666391001890e+00
111 104 1.76025619787527710e+00
112 104 1.76465012117179310e+00
113 104 1.76878023044612975e+00
114 104 1.77264841757433400e+00
115 104 1.77625666652419500e+00
116 104 1.77960705018063670e+00
117 104 1.78270172714020947e+00
118 104 1.78554293848050505e+00
119 104 1.78813300451026014e+00
120 104 1.79047432150572838e+00
121 104 1.79256935843877629e+00
122 104 1.79442065370201953e+00
123 104 1.79603081183612989e+00
124 104 1.79740250026428994e+00
125 104 1.79853844603860935e+00
126 104 1.79944143260309009e+00
127 104 1.80011429657760047e+00
128 104 1.80055992456707670e+00
129 104 1.80078125000000000e+00
130 104 1.80078124999999889e+00
1 105 0.00000000000000000e+00
2 105 1.00140778165761883e-02
3 105 3.00864241372685651e-02
4 105 5.02455596573510577e-02
5 105 7.04882639334981215e-02
6 105 9.08112221415876969e-02
7 105 1.11211025396324742e-01
8 105 1.31684171183225479e-01
9 105 1.52227063905778948e-01
10 105 1.72836015550464323e-01
11 105 1.93507246472146816e-01
12 105 2.14236886302212409e-01
13 105 2.35020974981622471e-01
14 105 2.55855463920878934e-01
15 105 2.76736217288687802e-01
16 105 2.97659013430889963e-01
17 105 3.18619546421008759e-01
18 105 3.39613427743510277e-01
19 105 3.60636188110639244e-01
20 105 3.81683279413408738e-01
21 105 4.02750076807074087e-01
22 105 4.23831880931120009e-01
23 105 4.44923920263497863e-01
24 105 4.66021353608566113e-01
25 105 4.87119272717856988e-01
26 105 5.08212705042491275e-01
27 105 5.29296616615728688e-01
28 105 5.50365915063828703e-01
29 105 5.71415452743042840e-01
30 105 5.92440030000253803e-01
31 105 6.13434398554400850e-01
32 105 6.34393264995530726e-01
33 105 6.55311294397949995e-01
34 105 6.76183114043617861e-01
35 105 6.97003317251607690e-01
36 105 7.17766467309092993e-01
37 105 7.38467101499040490e-01
38 105 7.59099735219413652e-01
39 105 7.79658866188449595e-01
40 105 8.00138978730187245e-01
41 105 8.20534548134221109e-01
42 105 8.40840045083299570e-01
43 105 8.61049940142174064e-01
44 105 8.81158708300816884e-01
45 105 9.01160833564922048e-01
46 105 9.21050813586345773e-01
47 105 9.40823164325991779e-01
48 105 9.60472424741403263e-01
49 105 9.79993161491221620e-01
50 105 9.99379973648493181e-01
51 105 1.01862749741469227e+00
52 105 1.03773041082624284e+00
53 105 1.05668343844524371e+00
54 105 1.07548135602604611e+00
55 105 1.09411899514932442e+00
56 105 1.11259124781525687e+00
57 105 1.13089307098747782e+00
58 105 1.14901949107952572e+00
59 105 1.16696560837554641e+00
60 105 1.18472660137714403e+00
61 105 1.20229773106841398e+00
62 105 1.21967434509128370e+00
63 105 1.23685188182354411e+00
64 105 1.25382587435207382e+00
65 105 1.27059195433405514e+00
66 105 1.28714585573916040e+00
67 105 1.30348341846601468e+00
68 105 1.31960059182647016e+00
69 105 1.33549343789159369e+00
70 105 1.35115813469356105e+00
71 105 1.36659097927796935e+00
72 105 1.38178839060152092e+00
73 105 1.39674691227031511e+00
74 105 1.41146321511442707e+00
75 105 1.42593409959483752e+00
76 105 1.44015649803916435e+00
77 105 1.45412747670312026e+00
78 105 1.46784423765495320e+00
79 105 1.48130412048067295e+00
80 105 1.49450460380817773e+00
81 105 1.50744330664893300e+00
82 105 1.52011798955620292e+00
83 105 1.53252655559935391e+00
84 105 1.54466705115410008e+00
85 105 1.55653766650903136e+00
86 105 1.56813673628919159e+00
87 105 1.57946273969784978e+00
88 105 1.59051430057803045e+00
89 105 1.60129018729579542e+00
90 105 1.61178931244757218e+00
91 105 1.62201073239427496e+00
92 105 1.63195364662526843e+00
93 105 1.64161739695559694e+00
94 105 1.65100146656016755e+00
95 105 1.66010547884898418e+00
96 105 1.66892919618771640e+00
97 105 1.67747251846820911e+00
98 105 1.68573548153380282e+00
99 105 1.69371825546453292e+00
100 105 1.70142114272751210e+00
101 105 1.70884457619800112e+00
102 105 1.71598911705680557e+00
103 105 1.72285545256987072e+00
104 105 1.72944439375596959e+00
105 105 1.73575687294860792e+00
106 105 1.74179394125826548e+00
107 105 1.74755676594123455e+00
108 105 1.75304662768133879e+00
109 105 1.75826491779085270e+00
110 105 1.76321313533696022e+00
111 105 1.76789288420011559e+00
112 105 1.77230587007058626e+00
113 105 1.77645389738949699e+00
114 105 1.78033886624060012e+00
115 105 1.78396276919892038e+00
116 105 1.78732768814237497e+00
117 105 1.79043579103235784e+00
118 105 1.79328932866914070e+00
119 105 1.79589063142787531e+00
120 105 1.79824210598080758e+00
121 105 1.80034623201117894e+00
122 105 1.80220555892415391e+00
123 105 1.80382270255993116e+00
124 105 1.80520034191402656e+00
125 105 1.80634121586957952e+00
126 105 1.80724811994627066e+00
127 105 1.80792390307034512e+00
128 105 1.80837146436997065e+00
129 105 1.80859374999999978e+00
130 105 1.80859374999999911e+00
1 106 0.00000000000000000e+00
2 106 1.00573351721553513e-02
3 106 3.02163870925051467e-02
4 106 5.04626031115944784e-02
5 106 7.07927488748955197e-02
6 106 9.12034952393915299e-02
7 106 1.11691418594581010e-01
8 106 1.32253001296327971e-01
9 106 1.52884632216387067e-01
10 106 1.73582607410293549e-01
11 106 1.94343130906151768e-01
12 106 2.15162315616692829e-01
13 106 2.36036184376791497e-01
14 106 2.56960671108442118e-01
15 106 2.77931622114988841e-01
16 106 2.98944797506185356e-01
17 106 3.19995872755440780e-01
18 106 3.41080440390350514e-01
19 106 3.62194011817380646e-01
20 106 3.83332019281285241e-01
21 106 4.04489817959588438e-01
22 106 4.25662688192161520e-01
23 106 4.46845837845629645e-01
24 106 4.68034404812058769e-01
25 106 4.89223459641044300e-01
26 106 5.10408008304013894e-01
27 106 5.31582995089230792e-01
28 106 5.52743305625659542e-01
29 106 5.73883770033509655e-01
30 106 5.94999166198958984e-01
31 106 6.16084223170186629e-01
32 106 6.37133624671537446e-01
33 106 6.58142012732282344e-01
34 106 6.79103991426095677e-01
35 106 7.00014130717057426e-01
36 106 7.20866970407620489e-01
37 106 7.41657024183701719e-01
38 106 7.62378783751678890e-01
39 106 7.83026723061833851e-01
40 106 8.03595302612390983e-01
41 106 8.24078973828105465e-01
42 106 8.44472183506985496e-01
43 106 8.64769378328533400e-01
44 106 8.84965009416587067e-01
45 106 9.05053536949651627e-01
46 106 9.25029434811340812e-01
47 106 9.44887195273404368e-01
48 106 9.64621333703569173e-01
49 106 9.84226393290319690e-01
50 106 1.00369694977656443e+00
51 106 1.02302761619402127e+00
52 106 1.04221304759007127e+00
53 106 1.06124794573874359e+00
54 106 1.08012706382745449e+00
55 106 1.09884521111109246e+00
56 106 1.11739725752504193e+00
57 106 1.13577813824876261e+00
58 106 1.15398285821161872e+00
59 106 1.17200649653267619e+00
60 106 1.18984421088633252e+00
61 106 1.20749124178577216e+00
62 106 1.22494291677634348e+00
63 106 1.24219465453120526e+00
64 106 1.25924196884171535e+00
65 106 1.27608047249532519e+00
66 106 1.29270588103393003e+00
67 106 1.30911401638595404e+00
68 106 1.32530081036567737e+00
69 106 1.34126230803367408e+00
70 106 1.35699467091253978e+00
71 106 1.37249418005238821e+00
72 106 1.38775723894105241e+00
73 106 1.40278037625420415e+00
74 106 1.41756024844105522e+00
75 106 1.43209364214168322e+00
76 106 1.44637747643242220e+00
77 106 1.46040880489622227e+00
78 106 1.47418481751523367e+00
79 106 1.48770284238339756e+00
80 106 1.50096034723715488e+00
81 106 1.51395494080292381e+00
82 106 1.52668437396033330e+00
83 106 1.53914654072073365e+00
84 106 1.55133947902085656e+00
85 106 1.56326137133196452e+00
86 106 1.57491054508525719e+00
87 106 1.58628547291468713e+00
88 106 1.59738477271875623e+00
89 106 1.60820720754329338e+00
90 106 1.61875168528751834e+00
91 106 1.62901725823615084e+00
92 106 1.63900312242062629e+00
93 106 1.64870861681285641e+00
94 106 1.65813322235524407e+00
95 106 1.66727656083105336e+00
96 106 1.67613839357945604e+00
97 106 1.68471862005986428e+00
98 106 1.69301727627044984e+00
99 106 1.70103453302593466e+00
100 106 1.70877069409998517e+00
101 106 1.71622619423773326e+00
102 106 1.72340159704409213e+00
103 106 1.73029759275375783e+00
104 106 1.73691499588882481e+00
105 106 1.74325474281015702e+00
106 106 1.74931788916866848e+00
107 106 1.75510560726279485e+00
108 106 1.76061918330847189e+00
109 106 1.76586001462796216e+00
110 106 1.77082960676390178e+00
111 106 1.77552957052495408e+00
112 106 1.77996161896937921e+00
113 106 1.78412756433286424e+00
114 106 1.78802931490686623e+00
115 106 1.79166887187364576e+00
116 106 1.79504832610411347e+00
117 106 1.79816985492450643e+00
118 106 1.80103571885777636e+00
119 106 1.80364825834549025e+00
120 106 1.80600989045588678e+00
121 106 1.80812310558358158e+00
122 106 1.80999046414628872e+00
123 106 1.81161459328373220e+00
124 106 1.81299818356376297e+00
125 106 1.81414398570054969e+00
126 106 1.81505480728945101e+00
127 106 1.81573350956308976e+00
128 106 1.81618300417286460e+00
129 106 1.81640625000000000e+00
130 106 1.81640624999999933e+00
1 107 0.00000000000000000e+00
2 107 1.01005925277345143e-02
3 107 3.03463500477417318e-02
4 107 5.06796465658378992e-02
5 107 7.10972338162929318e-02
6 107 9.15957683371953629e-02
7 107 1.12171811792837278e-01
8 107 1.32821831409430435e-01
9 107 1.53542200526995187e-01
10 107 1.74329199270122776e-01
11 107 1.95179015340156720e-01
12 107 2.16087744931173220e-01
13 107 2.37051393771960467e-01
14 107 2.58065878296005302e-01
15 107 2.79127026941289880e-01
16 107 3.00230581581480804e-01
17 107 3.21372199089872801e-01
18 107 3.42547453037190752e-01
19 107 3.63751835524122047e-01
20 107 3.84980759149161744e-01
21 107 4.06229559112102845e-01
22 107 4.27493495453203087e-01
23 107 4.48767755427761372e-01
24 107 4.70047456015551479e-01
25 107 4.91327646564231613e-01
26 107 5.12603311565536512e-01
27 107 5.33869373562732896e-01
28 107 5.55120696187490381e-01
29 107 5.76352087323976248e-01
30 107 5.97558302397664276e-01
31 107 6.18734047785972407e-01
32 107 6.39873984347544056e-01
33 107 6.60972731066614694e-01
34 107 6.82024868808573492e-01
35 107 7.03024944182507050e-01
36 107 7.23967473506147985e-01
37 107 7.44846946868362836e-01
38 107 7.65657832283944240e-01
39 107 7.86394579935218108e-01
40 107 8.07051626494594831e-01
41 107 8.27623399521989711e-01
42 107 8.48104321930671423e-01
43 107 8.68488816514892625e-01
44 107 8.88771310532357250e-01
45 107 9.08946240334381317e-01
46 107 9.29008056036335850e-01
47 107 9.48951226220816957e-01
48 107 9.68770242665735082e-01
49 107 9.88459625089417759e-01
50 107 1.00801392590463590e+00
51 107 1.02742773497335027e+00
52 107 1.04669568435389948e+00
53 107 1.06581245303224348e+00
54 107 1.08477277162886288e+00
55 107 1.10357142707286049e+00
56 107 1.12220326723482700e+00
57 107 1.14066320551004763e+00
58 107 1.15894622534371172e+00
59 107 1.17704738468980596e+00
60 107 1.19496182039552101e+00
61 107 1.21268475250313013e+00
62 107 1.23021148846140305e+00
63 107 1.24753742723886618e+00
64 107 1.26465806333135711e+00
65 107 1.28156899065659546e+00
66 107 1.29826590632869987e+00
67 107 1.31474461430589384e+00
68 107 1.33100102890488459e+00
69 107 1.34703117817575446e+00
70 107 1.36283120713151829e+00
71 107 1.37839738082680707e+00
72 107 1.39372608728058367e+00
73 107 1.40881384023809342e+00
74 107 1.42365728176768336e+00
75 107 1.43825318468852914e+00
76 107 1.45259845482568006e+00
77 107 1.46669013308932428e+00
78 107 1.48052539737551436e+00
79 107 1.49410156428612173e+00
80 107 1.50741609066613202e+00
81 107 1.52046657495691506e+00
82 107 1.53325075836446367e+00
83 107 1.54576652584211294e+00
84 107 1.55801190688761304e+00
85 107 1.56998507615489769e+00
86 107 1.58168435388132300e+00
87 107 1.59310820613152426e+00
88 107 1.60425524485948201e+00
89 107 1.61512422779079157e+00
90 107 1.62571405812746450e+00
91 107 1.63602378407802651e+00
92 107 1.64605259821598415e+00
93 107 1.65579983667011632e+00
94 107 1.66526497815032037e+00
95 107 1.67444764281312231e+00
96 107 1.68334759097119546e+00
97 107 1.69196472165151968e+00
98 107 1.70029907100709687e+00
99 107 1.70835081058733662e+00
100 107 1.71612024547245845e+00
101 107 1.72360781227746540e+00
102 107 1.73081407703137868e+00
103 107 1.73773973293764494e+00
104 107 1.74438559802167981e+00
105 107 1.75075261267170634e+00
106 107 1.75684183707907149e+00
107 107 1.76265444858435516e+00
108 107 1.76819173893560500e+00
109 107 1.77345511146507162e+00
110 107 1.77844607819084333e+00
111 107 1.78316625684979280e+00
112 107 1.78761736786817216e+00
113 107 1.79180123127623148e+00
114 107 1.79571976357313234e+00
115 107 1.79937497454837114e+00
116 107 1.80276896406585152e+00
117 107 1.80590391881665502e+00
118 107 1.80878210904641179e+00
119 107 1.81140588526310520e+00
120 107 1.81377767493096576e+00
121 107 1.81589997915598400e+00
122 107 1.81777536936842332e+00
123 107 1.81940648400753302e+00
124 107 1.82079602521349959e+00
125 107 1.82194675553151986e+00
126 107 1.82286149463263158e+00
127 107 1.82354311605583419e+00
128 107 1.82399454397575855e+00
129 107 1.82421875000000000e+00
130 107 1.82421874999999933e+00
1 108 0.00000000000000000e+00
2 108 1.01438498833136773e-02
3 108 3.04763130029783169e-02
4 108 5.08966900200813130e-02
5 108 7.14017187576903162e-02
6 108 9.19880414349991821e-02
7 108 1.12652204991093532e-01
8 108 1.33390661522532927e-01
9 108 1.54199768837603279e-01
10 108 1.75075791129952002e-01
11 108 1.96014899774161672e-01
12 108 2.17013174245653612e-01
13 108 2.38066603167129492e-01
14 108 2.59171085483568542e-01
15 108 2.80322431767590918e-01
16 108 3.01516365656776253e-01
17 108 3.22748525424304822e-01
18 108 3.44014465684031046e-01
19 108 3.65309659230863504e-01
20 108 3.86629499017038247e-01
21 108 4.07969300264617196e-01
22 108 4.29324302714244654e-01
23 108 4.50689673009893099e-01
24 108 4.72060507219044190e-01
25 108 4.93431833487418814e-01
26 108 5.14798614827059242e-01
27 108 5.36155752036235000e-01
28 108 5.57498086749321109e-01
29 108 5.78820404614442952e-01
30 108 6.00117438596369568e-01
31 108 6.21383872401758186e-01
32 108 6.42614344023550665e-01
33 108 6.63803449400947154e-01
34 108 6.84945746191051308e-01
35 108 7.06035757647956785e-01
36 108 7.27067976604675370e-01
37 108 7.48036869553023842e-01
38 108 7.68936880816209589e-01
39 108 7.89762436808602364e-01
40 108 8.10507950376798569e-01
41 108 8.31167825215874068e-01
42 108 8.51736460354357350e-01
43 108 8.72208254701251851e-01
44 108 8.92577611648127545e-01
45 108 9.12838943719110896e-01
46 108 9.32986677261330777e-01
47 108 9.53015257168229546e-01
48 108 9.72919151627900991e-01
49 108 9.92692856888515940e-01
50 108 1.01233090203270715e+00
51 108 1.03182785375267949e+00
52 108 1.05117832111772769e+00
53 108 1.07037696032574359e+00
54 108 1.08941847943027148e+00
55 108 1.10829764303462852e+00
56 108 1.12700927694461206e+00
57 108 1.14554827277133264e+00
58 108 1.16390959247580472e+00
59 108 1.18208827284693574e+00
60 108 1.20007942990470973e+00
61 108 1.21787826322048831e+00
62 108 1.23548006014646239e+00
63 108 1.25288019994652711e+00
64 108 1.27007415782099908e+00
65 108 1.28705750881786574e+00
66 108 1.30382593162346949e+00
67 108 1.32037521222583343e+00
68 108 1.33670124744409180e+00
69 108 1.35280004831783485e+00
70 108 1.36866774335049701e+00
71 108 1.38430058160122615e+00
72 108 1.39969493562011515e+00
73 108 1.41484730422198268e+00
74 108 1.42975431509431172e+00
75 108 1.44441272723537506e+00
76 108 1.45881943321893770e+00
77 108 1.47297146128242651e+00
78 108 1.48686597723579483e+00
79 108 1.50050028618884612e+00
80 108 1.51387183409510895e+00
81 108 1.52697820911090609e+00
82 108 1.53981714276859427e+00
83 108 1.55238651096349245e+00
84 108 1.56468433475436930e+00
85 108 1.57670878097783085e+00
86 108 1.58845816267738860e+00
87 108 1.59993093934836161e+00
88 108 1.61112571700020824e+00
89 108 1.62204124803828953e+00
90 108 1.63267643096741089e+00
91 108 1.64303030991990240e+00
92 108 1.65310207401134202e+00
93 108 1.66289105652737601e+00
94 108 1.67239673394539667e+00
95 108 1.68161872479519126e+00
96 108 1.69055678836293510e+00
97 108 1.69921082324317485e+00
98 108 1.70758086574374390e+00
99 108 1.71566708814873858e+00
100 108 1.72346979684493151e+00
101 108 1.73098943031719776e+00
102 108 1.73822655701866502e+00
103 108 1.74518187312153206e+00
104 108 1.75185620015453503e+00
105 108 1.75825048253325567e+00
106 108 1.76436578498947449e+00
107 108 1.77020328990591547e+00
108 108 1.77576429456273810e+00
109 108 1.78105020830218108e+00
110 108 1.78606254961778488e+00
111 108 1.79080294317463129e+00
112 108 1.79527311676696533e+00
113 108 1.79947489821959894e+00
114 108 1.80341021223939868e+00
115 108 1.80708107722309652e+00
116 108 1.81048960202758979e+00
117 108 1.81363798270880361e+00
118 108 1.81652849923504767e+00
119 108 1.81916351218072037e+00
120 108 1.82154545940604495e+00
121 108 1.82367685272838687e+00
122 108 1.82556027459055792e+00
123 108 1.82719837473133428e+00
124 108 1.82859386686323599e+00
125 108 1.82974952536249003e+00
126 108 1.83066818197581194e+00
127 108 1.83135272254857839e+00
128 108 1.83180608377865251e+00
129 108 1.83203125000000022e+00
130 108 1.83203124999999933e+00
1 109 0.00000000000000000e+00
2 109 1.01871072388928421e-02
3 109 3.06062759582148985e-02
4 109 5.11137334743247199e-02
5 109 7.17062036990877144e-02
6 109 9.23803145328030151e-02
7 109 1.13132598189349787e-01
8 109 1.33959491635635419e-01
9 109 1.54857337148211399e-01
10 109 1.75822382989781228e-01
11 109 1.96850784208166624e-01
12 109 2.17938603560134031e-01
13 109 2.39081812562298490e-01
14 109 2.60276292671131726e-01
15 109 2.81517836593891957e-01
16 109 3.02802149732071646e-01
17 109 3.24124851758736843e-01
18 109 3.45481478330871283e-01
19 109 3.66867482937604961e-01
20 109 3.88278238884914695e-01
21 109 4.09709041417131548e-01
22 109 4.31155109975286222e-01
23 109 4.52611590592024826e-01
24 109 4.74073558422536900e-01
25 109 4.95536020410606126e-01
26 109 5.16993918088581861e-01
27 109 5.38442130509737105e-01
28 109 5.59875477311151948e-01
29 109 5.81288721904909655e-01
30 109 6.02676574795074749e-01
31 109 6.24033697017543854e-01
32 109 6.45354703699557164e-01
33 109 6.66634167735279504e-01
34 109 6.87866623573529123e-01
35 109 7.09046571113406521e-01
36 109 7.30168479703202866e-01
37 109 7.51226792237684959e-01
38 109 7.72215929348474828e-01
39 109 7.93130293681986620e-01
40 109 8.13964274259002418e-01
41 109 8.34712250909758313e-01
42 109 8.55368598778043387e-01
43 109 8.75927692887611187e-01
44 109 8.96383912763897839e-01
45 109 9.16731647103840586e-01
46 109 9.36965298486325815e-01
47 109 9.57079288115642024e-01
48 109 9.77068060590066900e-01
49 109 9.96926088687614009e-01
50 109 1.01664787816077840e+00
51 109 1.03622797253200871e+00
52 109 1.05566095788155589e+00
53 109 1.07494146761924347e+00
54 109 1.09406418723167986e+00
55 109 1.11302385899639678e+00
56 109 1.13181528665439712e+00
57 109 1.15043334003261766e+00
58 109 1.16887295960789794e+00
59 109 1.18712916100406551e+00
60 109 1.20519703941389844e+00
61 109 1.22307177393784627e+00
62 109 1.24074863183152173e+00
63 109 1.25822297265418825e+00
64 109 1.27549025231064084e+00
65 109 1.29254602697913623e+00
66 109 1.30938595691823911e+00
67 109 1.32600581014577301e+00
68 109 1.34240146598329901e+00
69 109 1.35856891845991501e+00
70 109 1.37450427956947574e+00
71 109 1.39020378237564501e+00
72 109 1.40566378395964664e+00
73 109 1.42088076820587150e+00
74 109 1.43585134842093987e+00
75 109 1.45057226978222098e+00
76 109 1.46504041161219556e+00
77 109 1.47925278947552852e+00
78 109 1.49320655709607530e+00
79 109 1.50689900809157029e+00
80 109 1.52032757752408632e+00
81 109 1.53348984326489712e+00
82 109 1.54638352717272465e+00
83 109 1.55900649608487196e+00
84 109 1.57135676262112600e+00
85 109 1.58343248580076401e+00
86 109 1.59523197147345441e+00
87 109 1.60675367256519919e+00
88 109 1.61799618914093402e+00
89 109 1.62895826828578749e+00
90 109 1.63963880380735727e+00
91 109 1.65003683576177829e+00
92 109 1.66015154980669943e+00
93 109 1.66998227638463526e+00
94 109 1.67952848974047275e+00
95 109 1.68878980677726021e+00
96 109 1.69776598575467452e+00
97 109 1.70645692483483002e+00
98 109 1.71486266048039071e+00
99 109 1.72298336571014032e+00
100 109 1.73081934821740435e+00
101 109 1.73837104835692968e+00
102 109 1.74563903700595136e+00
103 109 1.75262401330541917e+00
104 109 1.75932680228739025e+00
105 109 1.76574835239480477e+00
106 109 1.77188973289987728e+00
107 109 1.77775213122747577e+00
108 109 1.78333685018987120e+00
109 109 1.78864530513929054e+00
110 109 1.79367902104472621e+00
111 109 1.79843962949947000e+00
112 109 1.80292886566575827e+00
113 109 1.80714856516296596e+00
114 109 1.81110066090566479e+00
115 109 1.81478717989782212e+00
116 109 1.81821023998932785e+00
117 109 1.82137204660095198e+00
118 109 1.82427488942368332e+00
119 109 1.82692113909833553e+00
120 109 1.82931324388112415e+00
121 109 1.83145372630078929e+00
122 109 1.83334517981269252e+00
123 109 1.83499026545513533e+00
124 109 1.83639170851297262e+00
125 109 1.83755229519345997e+00
126 109 1.83847486931899251e+00
127 109 1.83916232904132304e+00
128 109 1.83961762358154646e+00
129 109 1.83984375000000022e+00
130 109 1.83984374999999933e+00
1 110 0.00000000000000000e+00
2 110 1.02303645944720051e-02
3 110 3.07362389134514767e-02
4 110 5.13307769285681406e-02
5 110 7.20106886404851126e-02
6 110 9.27725876306068481e-02
7 110 1.13612991387606055e-01
8 110 1.34528321748737911e-01
9 110 1.55514905458819547e-01
10 110 1.76568974849610427e-01
11 110 1.97686668642171576e-01
12 110 2.18864032874614423e-01
13 110 2.40097021957467488e-01
14 110 2.61381499858694910e-01
15 110 2.82713241420192940e-01
16 110 3.04087933807367039e-01
17 110 3.25501178093168864e-01
18 110 3.46948490977711521e-01
19 110 3.68425306644346418e-01
20 110 3.89926978752791142e-01
21 110 4.11448782569645899e-01
22 110 4.32985917236327844e-01
23 110 4.54533508174156553e-01
24 110 4.76086609626029611e-01
25 110 4.97640207333793438e-01
26 110 5.19189221350104479e-01
27 110 5.40728508983239098e-01
28 110 5.62252867872982787e-01
29 110 5.83757039195376359e-01
30 110 6.05235710993779930e-01
31 110 6.26683521633329632e-01
32 110 6.48095063375563774e-01
33 110 6.69464886069611964e-01
34 110 6.90787500956006939e-01
35 110 7.12057384578856256e-01
36 110 7.33268982801730251e-01
37 110 7.54416714922345966e-01
38 110 7.75494977880740066e-01
39 110 7.96498150555370876e-01
40 110 8.17420598141206156e-01
41 110 8.38256676603642781e-01
42 110 8.59000737201729314e-01
43 110 8.79647131073970523e-01
44 110 9.00190213879668133e-01
45 110 9.20624350488570165e-01
46 110 9.40943919711320853e-01
47 110 9.61143319063054613e-01
48 110 9.81216969552232698e-01
49 110 1.00115932048671219e+00
50 110 1.02096485428884942e+00
51 110 1.04062809131133793e+00
52 110 1.06014359464538410e+00
53 110 1.07950597491274336e+00
54 110 1.09870989503308825e+00
55 110 1.11775007495816503e+00
56 110 1.13662129636418219e+00
57 110 1.15531840729390267e+00
58 110 1.17383632673999094e+00
59 110 1.19217004916119507e+00
60 110 1.21031464892308693e+00
61 110 1.22826528465520446e+00
62 110 1.24601720351658130e+00
63 110 1.26356574536184940e+00
64 110 1.28090634680028259e+00
65 110 1.29803454514040650e+00
66 110 1.31494598221300873e+00
67 110 1.33163640806571237e+00
68 110 1.34810168452250623e+00
69 110 1.36433778860199539e+00
70 110 1.38034081578845447e+00
71 110 1.39610698315006387e+00
72 110 1.41163263229917790e+00
73 110 1.42691423218976055e+00
74 110 1.44194838174756823e+00
75 110 1.45673181232906690e+00
76 110 1.47126139000545297e+00
77 110 1.48553411766863031e+00
78 110 1.49954713695635578e+00
79 110 1.51329772999429446e+00
80 110 1.52678332095306346e+00
81 110 1.54000147741888793e+00
82 110 1.55294991157685502e+00
83 110 1.56562648120625147e+00
84 110 1.57802919048788226e+00
85 110 1.59015619062369717e+00
86 110 1.60200578026952023e+00
87 110 1.61357640578203676e+00
88 110 1.62486666128165980e+00
89 110 1.63587528853328545e+00
90 110 1.64660117664730343e+00
91 110 1.65704336160365395e+00
92 110 1.66720102560205685e+00
93 110 1.67707349624189517e+00
94 110 1.68666024553554927e+00
95 110 1.69596088875932960e+00
96 110 1.70497518314641416e+00
97 110 1.71370302642648542e+00
98 110 1.72214445521703796e+00
99 110 1.73029964327154206e+00
100 110 1.73816889958987764e+00
101 110 1.74575266639666160e+00
102 110 1.75305151699323791e+00
103 110 1.76006615348930651e+00
104 110 1.76679740442024547e+00
105 110 1.77324622225635387e+00
106 110 1.77941368081028006e+00
107 110 1.78530097254903630e+00
108 110 1.79090940581700431e+00
109 110 1.79624040197640000e+00
110 110 1.80129549247166776e+00
111 110 1.80607631582430850e+00
112 110 1.81058461456455122e+00
113 110 1.81482223210633298e+00
114 110 1.81879110957193091e+00
115 110 1.82249328257254728e+00
116 110 1.82593087795106612e+00
117 110 1.82910611049310012e+00
118 110 1.83202127961231898e+00
119 110 1.83467876601595070e+00
120 110 1.83708102835620335e+00
121 110 1.83923059987319171e+00
122 110 1.84113008503482734e+00
123 110 1.84278215617893637e+00
124 110 1.84418955016270925e+00
125 110 1.84535506502443036e+00
126 110 1.84628155666217308e+00
127 110 1.84697193553406769e+00
128 110 1.84742916338444063e+00
129 110 1.84765625000000022e+00
130 110 1.84765624999999933e+00
1 111 0.00000000000000000e+00
2 111 1.02736219500511681e-02
3 111 3.08662018686880549e-02
4 111 5.15478203828115614e-02
5 111 7.23151735818825109e-02
6 111 9.31648607284106811e-02
7 111 1.14093384585862323e-01
8 111 1.35097151861840403e-01
9 111 1.56172473769427639e-01
10 111 1.77315566709439654e-01
11 111 1.98522553076176528e-01
12 111 2.19789462189094814e-01
13 111 2.41112231352636514e-01
14 111 2.62486707046258094e-01
15 111 2.83908646246493979e-01
16 111 3.05373717882662432e-01
17 111 3.26877504427600885e-01
18 111 3.48415503624551759e-01
19 111 3.69983130351087819e-01
20 111 3.91575718620667645e-01
21 111 4.13188523722160195e-01
22 111 4.34816724497369411e-01
23 111 4.56455425756288280e-01
24 111 4.78099660829522377e-01
25 111 4.99744394256980751e-01
26 111 5.21384524611627209e-01
27 111 5.43014887456741091e-01
28 111 5.64630258434813515e-01
29 111 5.86225356485843174e-01
30 111 6.07794847192485110e-01
31 111 6.29333346249115411e-01
32 111 6.50835423051570383e-01
33 111 6.72295604403944314e-01
34 111 6.93708378338484866e-01
35 111 7.15068198044305881e-01
36 111 7.36369485900257748e-01
37 111 7.57606637607006972e-01
38 111 7.78774026413005305e-01
39 111 7.99866007428755021e-01
40 111 8.20876922023410005e-01
41 111 8.41801102297527137e-01
42 111 8.62632875625415241e-01
43 111 8.83366569260329748e-01
44 111 9.03996514995438427e-01
45 111 9.24517053873299965e-01
46 111 9.44922540936315891e-01
47 111 9.65207350010467091e-01
48 111 9.85365878514398608e-01
49 111 1.00539255228581026e+00
50 111 1.02528183041692067e+00
51 111 1.04502821009066715e+00
52 111 1.06462623140921231e+00
53 111 1.08407048220624325e+00
54 111 1.10335560283449663e+00
55 111 1.12247629091993306e+00
56 111 1.14142730607396725e+00
57 111 1.16020347455518769e+00
58 111 1.17879969387208394e+00
59 111 1.19721093731832484e+00
60 111 1.21543225843227543e+00
61 111 1.23345879537256287e+00
62 111 1.25128577520164086e+00
63 111 1.26890851806951033e+00
64 111 1.28632244128992457e+00
65 111 1.30352306330167655e+00
66 111 1.32050600750777858e+00
67 111 1.33726700598565196e+00
68 111 1.35380190306171344e+00
69 111 1.37010665874407578e+00
70 111 1.38617735200743319e+00
71 111 1.40201018392448273e+00
72 111 1.41760148063870939e+00
73 111 1.43294769617364959e+00
74 111 1.44804541507419660e+00
75 111 1.46289135487591304e+00
76 111 1.47748236839871083e+00
77 111 1.49181544586173231e+00
78 111 1.50588771681663602e+00
79 111 1.51969645189701885e+00
80 111 1.53323906438204061e+00
81 111 1.54651311157287896e+00
82 111 1.55951629598098540e+00
83 111 1.57224646632763099e+00
84 111 1.58470161835463874e+00
85 111 1.59687989544663034e+00
86 111 1.60877958906558582e+00
87 111 1.62039913899887411e+00
88 111 1.63173713342238558e+00
89 111 1.64279230878078364e+00
90 111 1.65356354948724982e+00
91 111 1.66404988744552984e+00
92 111 1.67425050139741449e+00
93 111 1.68416471609915464e+00
94 111 1.69379200133062557e+00
95 111 1.70313197074139877e+00
96 111 1.71218438053815381e+00
97 111 1.72094912801814082e+00
98 111 1.72942624995368521e+00
99 111 1.73761592083294403e+00
100 111 1.74551845096235070e+00
101 111 1.75313428443639374e+00
102 111 1.76046399698052469e+00
103 111 1.76750829367319384e+00
104 111 1.77426800655310068e+00
105 111 1.78074409211790274e+00
106 111 1.78693762872068285e+00
107 111 1.79284981387059683e+00
108 111 1.79848196144413741e+00
109 111 1.80383549881350946e+00
110 111 1.80891196389860909e+00
111 111 1.81371300214914699e+00
112 111 1.81824036346334417e+00
113 111 1.82249589904970000e+00
114 111 1.82648155823819702e+00
115 111 1.83019938524727266e+00
116 111 1.83365151591280440e+00
117 111 1.83684017438524849e+00
118 111 1.83976766980095463e+00
119 111 1.84243639293356565e+00
120 111 1.84484881283128255e+00
121 111 1.84700747344559413e+00
122 111 1.84891499025696193e+00
123 111 1.85057404690273763e+00
124 111 1.85198739181244609e+00
125 111 1.85315783485540053e+00
126 111 1.85408824400535366e+00
127 111 1.85478154202681234e+00
128 111 1.85524070318733458e+00
129 111 1.85546875000000022e+00
130 111 1.85546874999999933e+00
1 112 0.00000000000000000e+00
2 112 1.03168793056303311e-02
3 112 3.09961648239246365e-02
4 112 5.17648638370549752e-02
5 112 7.26196585232798952e-02
6 112 9.35571338262145141e-02
7 112 1.14573777784118577e-01
8 112 1.35665981974942867e-01
9 112 1.56830042080035759e-01
10 112 1.78062158569268852e-01
11 112 1.99358437510181480e-01
12 112 2.20714891503575206e-01
13 112 2.42127440747805511e-01
14 112 2.63591914233821278e-01
15 112 2.85104051072795017e-01
16 112 3.06659501957957881e-01
17 112 3.28253830762032850e-01
18 112 3.49882516271391997e-01
19 112 3.71540954057829276e-01
20 112 3.93224458488544093e-01
21 112 4.14928264874674602e-01
22 112 4.36647531758410978e-01
23 112 4.58377343338420007e-01
24 112 4.80112712033015088e-01
25 112 5.01848581180168063e-01
26 112 5.23579827873149828e-01
27 112 5.45301265930243195e-01
28 112 5.67007648996644353e-01
29 112 5.88693673776309878e-01
30 112 6.10353983391190291e-01
31 112 6.31983170864901189e-01
32 112 6.53575782727576882e-01
33 112 6.75126322738276663e-01
34 112 6.96629255720962681e-01
35 112 7.18079011509755505e-01
36 112 7.39469988998785244e-01
37 112 7.60796560291667978e-01
38 112 7.82053074945270654e-01
39 112 8.03233864302139278e-01
40 112 8.24333245905613965e-01
41 112 8.45345527991411383e-01
42 112 8.66265014049101167e-01
43 112 8.87086007446688973e-01
44 112 9.07802816111208721e-01
45 112 9.28409757258029544e-01
46 112 9.48901162161310929e-01
47 112 9.69271380957879569e-01
48 112 9.89514787476564517e-01
49 112 1.00962578408490833e+00
50 112 1.02959880654499192e+00
51 112 1.04942832886999637e+00
52 112 1.06910886817304052e+00
53 112 1.08863498949974336e+00
54 112 1.10800131063590501e+00
55 112 1.12720250688170109e+00
56 112 1.14623331578375232e+00
57 112 1.16508854181647292e+00
58 112 1.18376306100417672e+00
59 112 1.20225182547545462e+00
60 112 1.22054986794146392e+00
61 112 1.23865230608992083e+00
62 112 1.25655434688670065e+00
63 112 1.27425129077717170e+00
64 112 1.29173853577956654e+00
65 112 1.30901158146294683e+00
66 112 1.32606603280254820e+00
67 112 1.34289760390559154e+00
68 112 1.35950212160092065e+00
69 112 1.37587552888615616e+00
70 112 1.39201388822641170e+00
71 112 1.40791338469890159e+00
72 112 1.42357032897824065e+00
73 112 1.43898116015753863e+00
74 112 1.45414244840082496e+00
75 112 1.46905089742275918e+00
76 112 1.48370334679196869e+00
77 112 1.49809677405483432e+00
78 112 1.51222829667691649e+00
79 112 1.52609517379974302e+00
80 112 1.53969480781101775e+00
81 112 1.55302474572686999e+00
82 112 1.56608268038511556e+00
83 112 1.57886645144901050e+00
84 112 1.59137404622139478e+00
85 112 1.60360360026956350e+00
86 112 1.61555339786165142e+00
87 112 1.62722187221571124e+00
88 112 1.63860760556311158e+00
89 112 1.64970932902828182e+00
90 112 1.66052592232719620e+00
91 112 1.67105641328740595e+00
92 112 1.68129997719277191e+00
93 112 1.69125593595641432e+00
94 112 1.70092375712570187e+00
95 112 1.71030305272346794e+00
96 112 1.71939357792989345e+00
97 112 1.72819522960979643e+00
98 112 1.73670804469033224e+00
99 112 1.74493219839434599e+00
100 112 1.75286800233482376e+00
101 112 1.76051590247612588e+00
102 112 1.76787647696781125e+00
103 112 1.77495043385708096e+00
104 112 1.78173860868595590e+00
105 112 1.78824196197945184e+00
106 112 1.79446157663108585e+00
107 112 1.80039865519215736e+00
108 112 1.80605451707127074e+00
109 112 1.81143059565061892e+00
110 112 1.81652843532555064e+00
111 112 1.82134968847398548e+00
112 112 1.82589611236213711e+00
113 112 1.83016956599306724e+00
114 112 1.83417200690446314e+00
115 112 1.83790548792199804e+00
116 112 1.84137215387454245e+00
117 112 1.84457423827739708e+00
118 112 1.84751405998959006e+00
119 112 1.85019401985118059e+00
120 112 1.85261659730636175e+00
121 112 1.85478434701799655e+00
122 112 1.85669989547909631e+00
123 112 1.85836593762653868e+00
124 112 1.85978523346218272e+00
125 112 1.86096060468637070e+00
126 112 1.86189493134853401e+00
127 112 1.86259114851955676e+00
128 112 1.86305224299022876e+00
129 112 1.86328125000000000e+00
130 112 1.86328124999999933e+00
1 113 0.00000000000000000e+00
2 113 1.03601366612094924e-02
3 113 3.11261277791612181e-02
4 113 5.19819072912983890e-02
5 113 7.29241434646773073e-02
6 113 9.39494069240183471e-02
7 113 1.15054170982374845e-01
8 113 1.36234812088045332e-01
9 113 1.57487610390643851e-01
10 113 1.78808750429098079e-01
11 113 2.00194321944186432e-01
12 113 2.21640320818055625e-01
13 113 2.43142650142974509e-01
14 113 2.64697121421384463e-01
15 113 2.86299455899096056e-01
16 113 3.07945286033253329e-01
17 113 3.29630157096464871e-01
18 113 3.51349528918232235e-01
19 113 3.73098777764570733e-01
20 113 3.94873198356420596e-01
21 113 4.16668006027188953e-01
22 113 4.38478339019452545e-01
23 113 4.60299260920551734e-01
24 113 4.82125763236507798e-01
25 113 5.03952768103355320e-01
26 113 5.25775131134672447e-01
27 113 5.47587644403745299e-01
28 113 5.69385039558475192e-01
29 113 5.91161991066776693e-01
30 113 6.12913119589895472e-01
31 113 6.34632995480686968e-01
32 113 6.56316142403583491e-01
33 113 6.77957041072609012e-01
34 113 6.99550133103440497e-01
35 113 7.21089824975205240e-01
36 113 7.42570492097312518e-01
37 113 7.63986482976329095e-01
38 113 7.85332123477536004e-01
39 113 8.06601721175523534e-01
40 113 8.27789569787817814e-01
41 113 8.48889953685295628e-01
42 113 8.69897152472787094e-01
43 113 8.90805445633048198e-01
44 113 9.11609117226978904e-01
45 113 9.32302460642759123e-01
46 113 9.52879783386305967e-01
47 113 9.73335411905292047e-01
48 113 9.93663696438730315e-01
49 113 1.01385901588400662e+00
50 113 1.03391578267306317e+00
51 113 1.05382844764932559e+00
52 113 1.07359150493686872e+00
53 113 1.09319949679324324e+00
54 113 1.11264701843731340e+00
55 113 1.13192872284346935e+00
56 113 1.15103932549353738e+00
57 113 1.16997360907775794e+00
58 113 1.18872642813626950e+00
59 113 1.20729271363258439e+00
60 113 1.22566747745065241e+00
61 113 1.24384581680727901e+00
62 113 1.26182291857176021e+00
63 113 1.27959406348483284e+00
64 113 1.29715463026920808e+00
65 113 1.31450009962421688e+00
66 113 1.33162605809731782e+00
67 113 1.34852820182553135e+00
68 113 1.36520234014012765e+00
69 113 1.38164439902823655e+00
70 113 1.39785042444539043e+00
71 113 1.41381658547332023e+00
72 113 1.42953917731777214e+00
73 113 1.44501462414142767e+00
74 113 1.46023948172745333e+00
75 113 1.47521043996960510e+00
76 113 1.48992432518522655e+00
77 113 1.50437810224793611e+00
78 113 1.51856887653719719e+00
79 113 1.53249389570246719e+00
80 113 1.54615055123999490e+00
81 113 1.55953637988086102e+00
82 113 1.57264906478924593e+00
83 113 1.58548643657039001e+00
84 113 1.59804647408815104e+00
85 113 1.61032730509249689e+00
86 113 1.62232720665771724e+00
87 113 1.63404460543254837e+00
88 113 1.64547807770383736e+00
89 113 1.65662634927577979e+00
90 113 1.66748829516714259e+00
91 113 1.67806293912928184e+00
92 113 1.68834945298812933e+00
93 113 1.69834715581367401e+00
94 113 1.70805551292077795e+00
95 113 1.71747413470553689e+00
96 113 1.72660277532163309e+00
97 113 1.73544133120145183e+00
98 113 1.74398983942697927e+00
99 113 1.75224847595574773e+00
100 113 1.76021755370729660e+00
101 113 1.76789752051585802e+00
102 113 1.77528895695509759e+00
103 113 1.78239257404096829e+00
104 113 1.78920921081881112e+00
105 113 1.79573983184100094e+00
106 113 1.80198552454148886e+00
107 113 1.80794749651371767e+00
108 113 1.81362707269840406e+00
109 113 1.81902569248772839e+00
110 113 1.82414490675249219e+00
111 113 1.82898637479882398e+00
112 113 1.83355186126093028e+00
113 113 1.83784323293643426e+00
114 113 1.84186245557072925e+00
115 113 1.84561159059672319e+00
116 113 1.84909279183628050e+00
117 113 1.85230830216954545e+00
118 113 1.85526045017822550e+00
119 113 1.85795164676879554e+00
120 113 1.86038438178144072e+00
121 113 1.86256122059039897e+00
122 113 1.86448480070123113e+00
123 113 1.86615782835033950e+00
124 113 1.86758307511191934e+00
125 113 1.86876337451734087e+00
126 113 1.86970161869171436e+00
127 113 1.87040075501230141e+00
128 113 1.87086378279312293e+00
129 113 1.87109375000000000e+00
130 113 1.87109374999999933e+00
1 114 0.00000000000000000e+00
2 114 1.04033940167886554e-02
3 114 3.12560907343977998e-02
4 114 5.21989507455418028e-02
5 114 7.32286284060747195e-02
6 114 9.43416800218221802e-02
7 114 1.15534564180631100e-01
8 114 1.36803642201147796e-01
9 114 1.58145178701251971e-01
10 114 1.79555342288927305e-01
11 114 2.01030206378191384e-01
12 114 2.22565750132536044e-01
13 114 2.44157859538143507e-01
14 114 2.65802328608947647e-01
15 114 2.87494860725397094e-01
16 114 3.09231070108548722e-01
17 114 3.31006483430896892e-01
18 114 3.52816541565072528e-01
19 114 3.74656601471312134e-01
20 114 3.96521938224297044e-01
21 114 4.18407747179703304e-01
22 114 4.40309146280494168e-01
23 114 4.62221178502683461e-01
24 114 4.84138814440000509e-01
25 114 5.06056955026542687e-01
26 114 5.27970434396195065e-01
27 114 5.49874022877247404e-01
28 114 5.71762430120306031e-01
29 114 5.93630308357243397e-01
30 114 6.15472255788600653e-01
31 114 6.37282820096472746e-01
32 114 6.59056502079590101e-01
33 114 6.80787759406941473e-01
34 114 7.02471010485918312e-01
35 114 7.24100638440654976e-01
36 114 7.45670995195839792e-01
37 114 7.67176405660990102e-01
38 114 7.88611172009801353e-01
39 114 8.09969578048907679e-01
40 114 8.31245893670021552e-01
41 114 8.52434379379179985e-01
42 114 8.73529290896473243e-01
43 114 8.94524883819407535e-01
44 114 9.15415418342748977e-01
45 114 9.36195164027488813e-01
46 114 9.56858404611301006e-01
47 114 9.77399442852704636e-01
48 114 9.97812605400896113e-01
49 114 1.01809224768310491e+00
50 114 1.03823275880113464e+00
51 114 1.05822856642865482e+00
52 114 1.07807414170069693e+00
53 114 1.09776400408674313e+00
54 114 1.11729272623872178e+00
55 114 1.13665493880523760e+00
56 114 1.15584533520332244e+00
57 114 1.17485867633904295e+00
58 114 1.19368979526836250e+00
59 114 1.21233360178971417e+00
60 114 1.23078508695984090e+00
61 114 1.24903932752463720e+00
62 114 1.26709149025682000e+00
63 114 1.28493683619249399e+00
64 114 1.30257072475885005e+00
65 114 1.31998861778548715e+00
66 114 1.33718608339208722e+00
67 114 1.35415879974547071e+00
68 114 1.37090255867933486e+00
69 114 1.38741326917031671e+00
70 114 1.40368696066436915e+00
71 114 1.41971978624773931e+00
72 114 1.43550802565730340e+00
73 114 1.45104808812531672e+00
74 114 1.46633651505408147e+00
75 114 1.48136998251645080e+00
76 114 1.49614530357848441e+00
77 114 1.51065943044103834e+00
78 114 1.52490945639747788e+00
79 114 1.53889261760519136e+00
80 114 1.55260629466897182e+00
81 114 1.56604801403485228e+00
82 114 1.57921544919337653e+00
83 114 1.59210642169176952e+00
84 114 1.60471890195490707e+00
85 114 1.61705100991543005e+00
86 114 1.62910101545378283e+00
87 114 1.64086733864938550e+00
88 114 1.65234854984456336e+00
89 114 1.66354336952327775e+00
90 114 1.67445066800708919e+00
91 114 1.68506946497115750e+00
92 114 1.69539892878348697e+00
93 114 1.70543837567093348e+00
94 114 1.71518726871585425e+00
95 114 1.72464521668760584e+00
96 114 1.73381197271337251e+00
97 114 1.74268743279310723e+00
98 114 1.75127163416362608e+00
99 114 1.75956475351714969e+00
100 114 1.76756710507976944e+00
101 114 1.77527913855559016e+00
102 114 1.78270143694238414e+00
103 114 1.78983471422485541e+00
104 114 1.79667981295166612e+00
105 114 1.80323770170255004e+00
106 114 1.80950947245189164e+00
107 114 1.81549633783527797e+00
108 114 1.82119962832553717e+00
109 114 1.82662078932483785e+00
110 114 1.83176137817943374e+00
111 114 1.83662306112366225e+00
112 114 1.84120761015972345e+00
113 114 1.84551689987980150e+00
114 114 1.84955290423699559e+00
115 114 1.85331769327144857e+00
116 114 1.85681342979801878e+00
117 114 1.86004236606169382e+00
118 114 1.86300684036686115e+00
119 114 1.86570927368641049e+00
120 114 1.86815216625651970e+00
121 114 1.87033809416280139e+00
122 114 1.87226970592336572e+00
123 114 1.87394971907414032e+00
124 114 1.87538091676165619e+00
125 114 1.87656614434831082e+00
126 114 1.87750830603489471e+00
127 114 1.87821036150504583e+00
128 114 1.87867532259601711e+00
129 114 1.87890625000000000e+00
130 114 1.87890624999999933e+00
1 115 0.00000000000000000e+00
2 115 1.04466513723678201e-02
3 115 3.13860536896343814e-02
4 115 5.24159941997852166e-02
5 115 7.35331133474721038e-02
6 115 9.47339531196260132e-02
7 115 1.16014957378887354e-01
8 115 1.37372472314250288e-01
9 115 1.58802747011860090e-01
10 115 1.80301934148756504e-01
11 115 2.01866090812196364e-01
12 115 2.23491179447016464e-01
13 115 2.45173068933312505e-01
14 115 2.66907535796510831e-01
15 115 2.88690265551698078e-01
16 115 3.10516854183844171e-01
17 115 3.32382809765328857e-01
18 115 3.54283554211912766e-01
19 115 3.76214425178053591e-01
20 115 3.98170678092173547e-01
21 115 4.20147488332217656e-01
22 115 4.42139953541535735e-01
23 115 4.64143096084815243e-01
24 115 4.86151865643493164e-01
25 115 5.08161141949730055e-01
26 115 5.30165737657717684e-01
27 115 5.52160401350749508e-01
28 115 5.74139820682136759e-01
29 115 5.96098625647710101e-01
30 115 6.18031391987305834e-01
31 115 6.39932644712258414e-01
32 115 6.61796861755596710e-01
33 115 6.83618477741273822e-01
34 115 7.05391887868396128e-01
35 115 7.27111451906104711e-01
36 115 7.48771498294367177e-01
37 115 7.70366328345651108e-01
38 115 7.91890220542066703e-01
39 115 8.13337434922291824e-01
40 115 8.34702217552225401e-01
41 115 8.55978805073064231e-01
42 115 8.77161429320159169e-01
43 115 8.98244322005766760e-01
44 115 9.19221719458519271e-01
45 115 9.40087867412218392e-01
46 115 9.60837025836296044e-01
47 115 9.81463473800117114e-01
48 115 1.00196151436306202e+00
49 115 1.02232547948220298e+00
50 115 1.04254973492920588e+00
51 115 1.06262868520798404e+00
52 115 1.08255677846452514e+00
53 115 1.10232851138024324e+00
54 115 1.12193843404013016e+00
55 115 1.14138115476700586e+00
56 115 1.16065134491310751e+00
57 115 1.17974374360032774e+00
58 115 1.19865316240045550e+00
59 115 1.21737448994684394e+00
60 115 1.23590269646902939e+00
61 115 1.25423283824199561e+00
62 115 1.27236006194187956e+00
63 115 1.29027960890015492e+00
64 115 1.30798681924849203e+00
65 115 1.32547713594675765e+00
66 115 1.34274610868685684e+00
67 115 1.35978939766541029e+00
68 115 1.37660277721854207e+00
69 115 1.39318213931239709e+00
70 115 1.40952349688334788e+00
71 115 1.42562298702215817e+00
72 115 1.44147687399683488e+00
73 115 1.45708155210920576e+00
74 115 1.47243354838070961e+00
75 115 1.48752952506329694e+00
76 115 1.50236628197174227e+00
77 115 1.51694075863414035e+00
78 115 1.53125003625775857e+00
79 115 1.54529133950791575e+00
80 115 1.55906203809794897e+00
81 115 1.57255964818884353e+00
82 115 1.58578183359750691e+00
83 115 1.59872640681314926e+00
84 115 1.61139132982166333e+00
85 115 1.62377471473836321e+00
86 115 1.63587482424984842e+00
87 115 1.64769007186622285e+00
88 115 1.65921902198528937e+00
89 115 1.67046038977077593e+00
90 115 1.68141304084703536e+00
91 115 1.69207599081303339e+00
92 115 1.70244840457884439e+00
93 115 1.71252959552819317e+00
94 115 1.72231902451093055e+00
95 115 1.73181629866967501e+00
96 115 1.74102117010511193e+00
97 115 1.74993353438476240e+00
98 115 1.75855342890027289e+00
99 115 1.76688103107855143e+00
100 115 1.77491665645224250e+00
101 115 1.78266075659532230e+00
102 115 1.79011391692967070e+00
103 115 1.79727685440874252e+00
104 115 1.80415041508452134e+00
105 115 1.81073557156409937e+00
106 115 1.81703342036229465e+00
107 115 1.82304517915683850e+00
108 115 1.82877218395267049e+00
109 115 1.83421588616194731e+00
110 115 1.83937784960637529e+00
111 115 1.84425974744850096e+00
112 115 1.84886335905851662e+00
113 115 1.85319056682316896e+00
114 115 1.85724335290326170e+00
115 115 1.86102379594617395e+00
116 115 1.86453406775975661e+00
117 115 1.86777642995384241e+00
118 115 1.87075323055549703e+00
119 115 1.87346690060402565e+00
120 115 1.87591995073159890e+00
121 115 1.87811496773520403e+00
122 115 1.88005461114550054e+00
123 115 1.88174160979794136e+00
124 115 1.88317875841139282e+00
125 115 1.88436891417928076e+00
126 115 1.88531499337807529e+00
127 115 1.88601996799779048e+00
128 115 1.88648686239891128e+00
129 115 1.88671875000000022e+00
130 115 1.88671874999999956e+00
1 116 0.00000000000000000e+00
2 116 1.04899087279469831e-02
3 116 3.15160166448709630e-02
4 116 5.26330376540286374e-02
5 116 7.38375982888695021e-02
6 116 9.51262262174298462e-02
7 116 1.16495350577143608e-01
8 116 1.37941302427352780e-01
9 116 1.59460315322468238e-01
10 116 1.81048526008585703e-01
11 116 2.02701975246201316e-01
12 116 2.24416608761496855e-01
13 116 2.46188278328481502e-01
14 116 2.68012742984074015e-01
15 116 2.89885670377999116e-01
16 116 3.11802638259139564e-01
17 116 3.33759136099760823e-01
18 116 3.55750566858753003e-01
19 116 3.77772248884795048e-01
20 116 3.99819417960049994e-01
21 116 4.21887229484732063e-01
22 116 4.43970760802577302e-01
23 116 4.66065013666946970e-01
24 116 4.88164916846985875e-01
25 116 5.10265328872917312e-01
26 116 5.32361040919240303e-01
27 116 5.54446779824251501e-01
28 116 5.76517211243967487e-01
29 116 5.98566942938176805e-01
30 116 6.20590528186011015e-01
31 116 6.42582469328044192e-01
32 116 6.64537221431603320e-01
33 116 6.86449196075606283e-01
34 116 7.08312765250873944e-01
35 116 7.30122265371554446e-01
36 116 7.51872001392894562e-01
37 116 7.73556251030312225e-01
38 116 7.95169269074332052e-01
39 116 8.16705291795676080e-01
40 116 8.38158541434429250e-01
41 116 8.59523230766948587e-01
42 116 8.80793567743845096e-01
43 116 9.01963760192125985e-01
44 116 9.23028020574289565e-01
45 116 9.43980570796948082e-01
46 116 9.64815647061291193e-01
47 116 9.85527504747529592e-01
48 116 1.00611042332522804e+00
49 116 1.02655871128130105e+00
50 116 1.04686671105727713e+00
51 116 1.06702880398731326e+00
52 116 1.08703941522835357e+00
53 116 1.10689301867374312e+00
54 116 1.12658414184153854e+00
55 116 1.14610737072877389e+00
56 116 1.16545735462289279e+00
57 116 1.18462881086161276e+00
58 116 1.20361652953254850e+00
59 116 1.22241537810397349e+00
60 116 1.24102030597821811e+00
61 116 1.25942634895935379e+00
62 116 1.27762863362693913e+00
63 116 1.29562238160781606e+00
64 116 1.31340291373813378e+00
65 116 1.33096565410802770e+00
66 116 1.34830613398162646e+00
67 116 1.36541999558534988e+00
68 116 1.38230299575774906e+00
69 116 1.39895100945447726e+00
70 116 1.41536003310232639e+00
71 116 1.43152618779657703e+00
72 116 1.44744572233636637e+00
73 116 1.46311501609309458e+00
74 116 1.47853058170733753e+00
75 116 1.49368906761014308e+00
76 116 1.50858726036500013e+00
77 116 1.52322208682724236e+00
78 116 1.53759061611803927e+00
79 116 1.55169006141063992e+00
80 116 1.56551778152692589e+00
81 116 1.57907128234283478e+00
82 116 1.59234821800163751e+00
83 116 1.60534639193452877e+00
84 116 1.61806375768841981e+00
85 116 1.63049841956129615e+00
86 116 1.64264863304591380e+00
87 116 1.65451280508306020e+00
88 116 1.66608949412601492e+00
89 116 1.67737741001827390e+00
90 116 1.68837541368698174e+00
91 116 1.69908251665490928e+00
92 116 1.70949788037420181e+00
93 116 1.71962081538545264e+00
94 116 1.72945078030600685e+00
95 116 1.73898738065174419e+00
96 116 1.74823036749685157e+00
97 116 1.75717963597641758e+00
98 116 1.76583522363691992e+00
99 116 1.77419730863995317e+00
100 116 1.78226620782471556e+00
101 116 1.79004237463505467e+00
102 116 1.79752639691695704e+00
103 116 1.80471899459262963e+00
104 116 1.81162101721737678e+00
105 116 1.81823344142564847e+00
106 116 1.82455736827269743e+00
107 116 1.83059402047839903e+00
108 116 1.83634473957980382e+00
109 116 1.84181098299905677e+00
110 116 1.84699432103331662e+00
111 116 1.85189643377333946e+00
112 116 1.85651910795730979e+00
113 116 1.86086423376653620e+00
114 116 1.86493380156952782e+00
115 116 1.86872989862089911e+00
116 116 1.87225470572149466e+00
117 116 1.87551049384599078e+00
118 116 1.87849962074413268e+00
119 116 1.88122452752164082e+00
120 116 1.88368773520667787e+00
121 116 1.88589184130760645e+00
122 116 1.88783951636763536e+00
123 116 1.88953350052174240e+00
124 116 1.89097660006112944e+00
125 116 1.89217168401025093e+00
126 116 1.89312168072125564e+00
127 116 1.89382957449053491e+00
128 116 1.89429840220180545e+00
129 116 1.89453125000000000e+00
130 116 1.89453124999999978e+00
1 117 0.00000000000000000e+00
2 117 1.05331660835261461e-02
3 117 3.16459796001075516e-02
4 117 5.28500811082720512e-02
5 117 7.41420832302669003e-02
6 117 9.55184993152336792e-02
7 117 1.16975743775399876e-01
8 117 1.38510132540455272e-01
9 117 1.60117883633076358e-01
10 117 1.81795117868414902e-01
11 117 2.03537859680206268e-01
12 117 2.25342038075977247e-01
13 117 2.47203487723650500e-01
14 117 2.69117950171637199e-01
15 117 2.91081075204300099e-01
16 117 3.13088422334435013e-01
17 117 3.35135462434192843e-01
18 117 3.57217579505593241e-01
19 117 3.79330072591536505e-01
20 117 4.01468157827926497e-01
21 117 4.23626970637246469e-01
22 117 4.45801568063618869e-01
23 117 4.67986931249078697e-01
24 117 4.90177968050478641e-01
25 117 5.12369515796104569e-01
26 117 5.34556344180762921e-01
27 117 5.56733158297753605e-01
28 117 5.78894601805798215e-01
29 117 6.01035260228643620e-01
30 117 6.23149664384716195e-01
31 117 6.45232293943829860e-01
32 117 6.67277581107610041e-01
33 117 6.89279914409938743e-01
34 117 7.11233642633351870e-01
35 117 7.33133078837004182e-01
36 117 7.54972504491422058e-01
37 117 7.76746173714973231e-01
38 117 7.98448317606597402e-01
39 117 8.20073148669060226e-01
40 117 8.41614865316633098e-01
41 117 8.63067656460832944e-01
42 117 8.84425706167531023e-01
43 117 9.05683198378485321e-01
44 117 9.26834321690059970e-01
45 117 9.47873274181677661e-01
46 117 9.68794268286286231e-01
47 117 9.89591535694942182e-01
48 117 1.01025933228739384e+00
49 117 1.03079194308039934e+00
50 117 1.05118368718534838e+00
51 117 1.07142892276664248e+00
52 117 1.09152205199218177e+00
53 117 1.11145752596724301e+00
54 117 1.13122984964294693e+00
55 117 1.15083358669054214e+00
56 117 1.17026336433267786e+00
57 117 1.18951387812289755e+00
58 117 1.20857989666464150e+00
59 117 1.22745626626110327e+00
60 117 1.24613791548740682e+00
61 117 1.26461985967671198e+00
62 117 1.28289720531199891e+00
63 117 1.30096515431547721e+00
64 117 1.31881900822777554e+00
65 117 1.33645417226929797e+00
66 117 1.35386615927639609e+00
67 117 1.37105059350528946e+00
68 117 1.38800321429695628e+00
69 117 1.40471987959655764e+00
70 117 1.42119656932130511e+00
71 117 1.43742938857099611e+00
72 117 1.45341457067589785e+00
73 117 1.46914848007698384e+00
74 117 1.48462761503396590e+00
75 117 1.49984861015698900e+00
76 117 1.51480823875825799e+00
77 117 1.52950341502034437e+00
78 117 1.54393119597831974e+00
79 117 1.55808878331336409e+00
80 117 1.57197352495590281e+00
81 117 1.58558291649682581e+00
82 117 1.59891460240576788e+00
83 117 1.61196637705590828e+00
84 117 1.62473618555517629e+00
85 117 1.63722212438422932e+00
86 117 1.64942244184197961e+00
87 117 1.66133553829989755e+00
88 117 1.67295996626674048e+00
89 117 1.68429443026577186e+00
90 117 1.69533778652692813e+00
91 117 1.70608904249678539e+00
92 117 1.71654735616955922e+00
93 117 1.72671203524271233e+00
94 117 1.73658253610108315e+00
95 117 1.74615846263381336e+00
96 117 1.75543956488859121e+00
97 117 1.76442573756807275e+00
98 117 1.77311701837356694e+00
99 117 1.78151358620135514e+00
100 117 1.78961575919718863e+00
101 117 1.79742399267478659e+00
102 117 1.80493887690424337e+00
103 117 1.81216113477651675e+00
104 117 1.81909161935023200e+00
105 117 1.82573131128719757e+00
106 117 1.83208131618310044e+00
107 117 1.83814286179995934e+00
108 117 1.84391729520693715e+00
109 117 1.84940607983616645e+00
110 117 1.85461079246025795e+00
111 117 1.85953312009817795e+00
112 117 1.86417485685610274e+00
113 117 1.86853790070990322e+00
114 117 1.87262425023579393e+00
115 117 1.87643600129562449e+00
116 117 1.87997534368323271e+00
117 117 1.88324455773813892e+00
118 117 1.88624601093276834e+00
119 117 1.88898215443925577e+00
120 117 1.89145551968175685e+00
121 117 1.89366871488000910e+00
122 117 1.89562442158976996e+00
123 117 1.89732539124554322e+00
124 117 1.89877444171086607e+00
125 117 1.89997445384122110e+00
126 117 1.90092836806443621e+00
127 117 1.90163918098327955e+00
128 117 1.90210994200469963e+00
129 117 1.90234375000000022e+00
130 117 1.90234375000000000e+00
1 118 0.00000000000000000e+00
2 118 1.05764234391053074e-02
3 118 3.17759425553441333e-02
4 118 5.30671245625154719e-02
5 118 7.44465681716642985e-02
6 118 9.59107724130375122e-02
7 118 1.17456136973656131e-01
8 118 1.39078962653557736e-01
9 118 1.60775451943684478e-01
10 118 1.82541709728244128e-01
11 118 2.04373744114211220e-01
12 118 2.26267467390457666e-01
13 118 2.48218697118819526e-01
14 118 2.70223157359200383e-01
15 118 2.92276480030601138e-01
16 118 3.14374206409730461e-01
17 118 3.36511788768624864e-01
18 118 3.58684592152433535e-01
19 118 3.80887896298277906e-01
20 118 4.03116897695803000e-01
21 118 4.25366711789760876e-01
22 118 4.47632375324660436e-01
23 118 4.69908848831210424e-01
24 118 4.92191019253971407e-01
25 118 5.14473702719291826e-01
26 118 5.36751647442285540e-01
27 118 5.59019536771255710e-01
28 118 5.81271992367628942e-01
29 118 6.03503577519110213e-01
30 118 6.25708800583421376e-01
31 118 6.47882118559615527e-01
32 118 6.70017940783616761e-01
33 118 6.92110632744271093e-01
34 118 7.14154520015829797e-01
35 118 7.36143892302453917e-01
36 118 7.58073007589949444e-01
37 118 7.79936096399634238e-01
38 118 8.01727366138862751e-01
39 118 8.23441005542444482e-01
40 118 8.45071189198836947e-01
41 118 8.66612082154717189e-01
42 118 8.88057844591216949e-01
43 118 9.09402636564844657e-01
44 118 9.30640622805830264e-01
45 118 9.51765977566407240e-01
46 118 9.72772889511281158e-01
47 118 9.93655566642354660e-01
48 118 1.01440824124955964e+00
49 118 1.03502517487949763e+00
50 118 1.05550066331341963e+00
51 118 1.07582904154597148e+00
52 118 1.09600468875600998e+00
53 118 1.11602203326074290e+00
54 118 1.13587555744435553e+00
55 118 1.15555980265231018e+00
56 118 1.17506937404246314e+00
57 118 1.19439894538418234e+00
58 118 1.21354326379673472e+00
59 118 1.23249715441823327e+00
60 118 1.25125552499659531e+00
61 118 1.26981337039407038e+00
62 118 1.28816577699705848e+00
63 118 1.30630792702313814e+00
64 118 1.32423510271741751e+00
65 118 1.34194269043056802e+00
66 118 1.35942618457116571e+00
67 118 1.37668119142522927e+00
68 118 1.39370343283616327e+00
69 118 1.41048874973863803e+00
70 118 1.42703310554028406e+00
71 118 1.44333258934541497e+00
72 118 1.45938341901542934e+00
73 118 1.47518194406087289e+00
74 118 1.49072464836059404e+00
75 118 1.50600815270383492e+00
76 118 1.52102921715151584e+00
77 118 1.53578474321344638e+00
78 118 1.55027177583860021e+00
79 118 1.56448750521608848e+00
80 118 1.57842926838487996e+00
81 118 1.59209455065081684e+00
82 118 1.60548098680989848e+00
83 118 1.61858636217728802e+00
84 118 1.63140861342193277e+00
85 118 1.64394582920716226e+00
86 118 1.65619625063804543e+00
87 118 1.66815827151673490e+00
88 118 1.67983043840746649e+00
89 118 1.69121145051326982e+00
90 118 1.70230015936687451e+00
91 118 1.71309556833866128e+00
92 118 1.72359683196491686e+00
93 118 1.73380325509997202e+00
94 118 1.74371429189615945e+00
95 118 1.75332954461588209e+00
96 118 1.76264876228033085e+00
97 118 1.77167183915972815e+00
98 118 1.78039881311021397e+00
99 118 1.78882986376275710e+00
100 118 1.79696531056966169e+00
101 118 1.80480561071451873e+00
102 118 1.81235135689152971e+00
103 118 1.81960327496040408e+00
104 118 1.82656222148308744e+00
105 118 1.83322918114874667e+00
106 118 1.83960526409350322e+00
107 118 1.84569170312151987e+00
108 118 1.85148985083407003e+00
109 118 1.85700117667327591e+00
110 118 1.86222726388719950e+00
111 118 1.86716980642301644e+00
112 118 1.87183060575489568e+00
113 118 1.87621156765327046e+00
114 118 1.88031469890206027e+00
115 118 1.88414210397034987e+00
116 118 1.88769598164497099e+00
117 118 1.89097862163028729e+00
118 118 1.89399240112140399e+00
119 118 1.89673978135687094e+00
120 118 1.89922330415683582e+00
121 118 1.90144558845241174e+00
122 118 1.90340932681190456e+00
123 118 1.90511728196934405e+00
124 118 1.90657228336060269e+00
125 118 1.90777722367219127e+00
126 118 1.90873505540761679e+00
127 118 1.90944878747602398e+00
128 118 1.90992148180759380e+00
129 118 1.91015625000000000e+00
130 118 1.91015625000000000e+00
1 119 0.00000000000000000e+00
2 119 1.06196807946844704e-02
3 119 3.19059055105807218e-02
4 119 5.32841680167588858e-02
5 119 7.47510531130617106e-02
6 119 9.63030455108413452e-02
7 119 1.17936530171912399e-01
8 119 1.39647792766660200e-01
9 119 1.61433020254292597e-01
10 119 1.83288301588073382e-01
11 119 2.05209628548216172e-01
12 119 2.27192896704938085e-01
13 119 2.49233906513988496e-01
14 119 2.71328364546763623e-01
15 119 2.93471884856902177e-01
16 119 3.15659990485025965e-01
17 119 3.37888115103056830e-01
18 119 3.60151604799273772e-01
19 119 3.82445720005019252e-01
20 119 4.04765637563679503e-01
21 119 4.27106452942275172e-01
22 119 4.49463182585701948e-01
23 119 4.71830766413342095e-01
24 119 4.94204070457464117e-01
25 119 5.16577889642479082e-01
26 119 5.38946950703808159e-01
27 119 5.61305915244757814e-01
28 119 5.83649382929459781e-01
29 119 6.05971894809576916e-01
30 119 6.28267936782126557e-01
31 119 6.50531943175401306e-01
32 119 6.72758300459623260e-01
33 119 6.94941351078603442e-01
34 119 7.17075397398307612e-01
35 119 7.39154705767903653e-01
36 119 7.61173510688476829e-01
37 119 7.83126019084295355e-01
38 119 8.05006414671127990e-01
39 119 8.26808862415828627e-01
40 119 8.48527513081040796e-01
41 119 8.70156507848601324e-01
42 119 8.91689983014902987e-01
43 119 9.13122074751203883e-01
44 119 9.34446923921600558e-01
45 119 9.55658680951136930e-01
46 119 9.76751510736276085e-01
47 119 9.97719597589767138e-01
48 119 1.01855715021172544e+00
49 119 1.03925840667859593e+00
50 119 1.05981763944149088e+00
51 119 1.08022916032530070e+00
52 119 1.10048732551983819e+00
53 119 1.12058654055424278e+00
54 119 1.14052126524576392e+00
55 119 1.16028601861407843e+00
56 119 1.17987538375224821e+00
57 119 1.19928401264546736e+00
58 119 1.21850663092882772e+00
59 119 1.23753804257536304e+00
60 119 1.25637313450578381e+00
61 119 1.27500688111142857e+00
62 119 1.29343434868211804e+00
63 119 1.31165069973079906e+00
64 119 1.32965119720705949e+00
65 119 1.34743120859183829e+00
66 119 1.36498620986593511e+00
67 119 1.38231178934516885e+00
68 119 1.39940365137537048e+00
69 119 1.41625761988071841e+00
70 119 1.43286964175926279e+00
71 119 1.44923579011983383e+00
72 119 1.46535226735496038e+00
73 119 1.48121540804476193e+00
74 119 1.49682168168722218e+00
75 119 1.51216769525068084e+00
76 119 1.52725019554477370e+00
77 119 1.54206607140654817e+00
78 119 1.55661235569888068e+00
79 119 1.57088622711881265e+00
80 119 1.58488501181385688e+00
81 119 1.59860618480480809e+00
82 119 1.61204737121402886e+00
83 119 1.62520634729866753e+00
84 119 1.63808104128868903e+00
85 119 1.65066953403009564e+00
86 119 1.66297005943411103e+00
87 119 1.67498100473357225e+00
88 119 1.68670091054819227e+00
89 119 1.69812847076076801e+00
90 119 1.70926253220682067e+00
91 119 1.72010209418053717e+00
92 119 1.73064630776027428e+00
93 119 1.74089447495723149e+00
94 119 1.75084604769123597e+00
95 119 1.76050062659795103e+00
96 119 1.76985795967207049e+00
97 119 1.77891794075138332e+00
98 119 1.78768060784686100e+00
99 119 1.79614614132415906e+00
100 119 1.80431486194213475e+00
101 119 1.81218722875425087e+00
102 119 1.81976383687881604e+00
103 119 1.82704541514429120e+00
104 119 1.83403282361594244e+00
105 119 1.84072705101029555e+00
106 119 1.84712921200390601e+00
107 119 1.85324054444308017e+00
108 119 1.85906240646120313e+00
109 119 1.86459627351038537e+00
110 119 1.86984373531414083e+00
111 119 1.87480649274785494e+00
112 119 1.87948635465368885e+00
113 119 1.88388523459663748e+00
114 119 1.88800514756832660e+00
115 119 1.89184820664507525e+00
116 119 1.89541661960670926e+00
117 119 1.89871268552243588e+00
118 119 1.90173879131003942e+00
119 119 1.90449740827448610e+00
120 119 1.90699108863191502e+00
121 119 1.90922246202481438e+00
122 119 1.91119423203403915e+00
123 119 1.91290917269314531e+00
124 119 1.91437012501033932e+00
125 119 1.91557999350316122e+00
126 119 1.91654174275079736e+00
127 119 1.91725839396876840e+00
128 119 1.91773302161048798e+00
129 119 1.91796875000000000e+00
130 119 1.91796874999999978e+00
1 120 0.00000000000000000e+00
2 120 1.06629381502636334e-02
3 120 3.20358684658172965e-02
4 120 5.35012114710023134e-02
5 120 7.50555380544590950e-02
6 120 9.66953186086451782e-02
7 120 1.18416923370168667e-01
8 120 1.40216622879762692e-01
9 120 1.62090588564900717e-01
10 120 1.84034893447902581e-01
11 120 2.06045512982221152e-01
12 120 2.28118326019418477e-01
13 120 2.50249115909157493e-01
14 120 2.72433571734326807e-01
15 120 2.94667289683203215e-01
16 120 3.16945774560321358e-01
17 120 3.39264441437488851e-01
18 120 3.61618617446113955e-01
19 120 3.84003543711760653e-01
20 120 4.06414377431556006e-01
21 120 4.28846194094789579e-01
22 120 4.51293989846743515e-01
23 120 4.73752683995473767e-01
24 120 4.96217121660956828e-01
25 120 5.18682076565666450e-01
26 120 5.41142253965330888e-01
27 120 5.63592293718259807e-01
28 120 5.86026773491290731e-01
29 120 6.08440212100043620e-01
30 120 6.30827072980831738e-01
31 120 6.53181767791187085e-01
32 120 6.75498660135629980e-01
33 120 6.97772069412935791e-01
34 120 7.19996274780785428e-01
35 120 7.42165519233353277e-01
36 120 7.64274013787004214e-01
37 120 7.86315941768956472e-01
38 120 8.08285463203393229e-01
39 120 8.30176719289212883e-01
40 120 8.51983836963244645e-01
41 120 8.73700933542485569e-01
42 120 8.95322121438588914e-01
43 120 9.16841512937563108e-01
44 120 9.38253225037370853e-01
45 120 9.59551384335866620e-01
46 120 9.80730131961271234e-01
47 120 1.00178362853717950e+00
48 120 1.02270605917389124e+00
49 120 1.04349163847769399e+00
50 120 1.06413461556956213e+00
51 120 1.08462927910462970e+00
52 120 1.10496996228366662e+00
53 120 1.12515104784774267e+00
54 120 1.14516697304717230e+00
55 120 1.16501223457584668e+00
56 120 1.18468139346203327e+00
57 120 1.20416907990675237e+00
58 120 1.22346999806092072e+00
59 120 1.24257893073249259e+00
60 120 1.26149074401497252e+00
61 120 1.28020039182878675e+00
62 120 1.29870292036717760e+00
63 120 1.31699347243846043e+00
64 120 1.33506729169670102e+00
65 120 1.35291972675310834e+00
66 120 1.37054623516070451e+00
67 120 1.38794238726510866e+00
68 120 1.40510386991457770e+00
69 120 1.42202649002279857e+00
70 120 1.43870617797824174e+00
71 120 1.45513899089425247e+00
72 120 1.47132111569449187e+00
73 120 1.48724887202865075e+00
74 120 1.50291871501385010e+00
75 120 1.51832723779752676e+00
76 120 1.53347117393803112e+00
77 120 1.54834739959964995e+00
78 120 1.56295293555916137e+00
79 120 1.57728494902153682e+00
80 120 1.59134075524283403e+00
81 120 1.60511781895879913e+00
82 120 1.61861375561815946e+00
83 120 1.63182633242004727e+00
84 120 1.64475346915544529e+00
85 120 1.65739323885302881e+00
86 120 1.66974386823017640e+00
87 120 1.68180373795040961e+00
88 120 1.69357138268891805e+00
89 120 1.70504549100826619e+00
90 120 1.71622490504676706e+00
91 120 1.72710862002241305e+00
92 120 1.73769578355563215e+00
93 120 1.74798569481449095e+00
94 120 1.75797780348631227e+00
95 120 1.76767170858001998e+00
96 120 1.77706715706380991e+00
97 120 1.78616404234303849e+00
98 120 1.79496240258350825e+00
99 120 1.80346241888556102e+00
100 120 1.81166441331460804e+00
101 120 1.81956884679398301e+00
102 120 1.82717631686610260e+00
103 120 1.83448755532817809e+00
104 120 1.84150342574879766e+00
105 120 1.84822492087184465e+00
106 120 1.85465315991430879e+00
107 120 1.86078938576464048e+00
108 120 1.86663496208833646e+00
109 120 1.87219137034749461e+00
110 120 1.87746020674108238e+00
111 120 1.88244317907269365e+00
112 120 1.88714210355248158e+00
113 120 1.89155890154000472e+00
114 120 1.89569559623459272e+00
115 120 1.89955430931980040e+00
116 120 1.90313725756844732e+00
117 120 1.90644674941458425e+00
118 120 1.90948518149867508e+00
119 120 1.91225503519210105e+00
120 120 1.91475887310699422e+00
121 120 1.91699933559721680e+00
122 120 1.91897913725617375e+00
123 120 1.92070106341694635e+00
124 120 1.92216796666007617e+00
125 120 1.92338276333413116e+00
126 120 1.92434843009397771e+00
127 120 1.92506800046151283e+00
128 120 1.92554456141338215e+00
129 120 1.92578125000000000e+00
130 120 1.92578125000000000e+00
1 121 0.00000000000000000e+00
2 121 1.07061955058427947e-02
3 121 3.21658314210538782e-02
4 121 5.37182549252457273e-02
5 121 7.53600229958564932e-02
6 121 9.70875917064490113e-02
7 121 1.18897316568424935e-01
8 121 1.40785452992865184e-01
9 121 1.62748156875508809e-01
10 121 1.84781485307731780e-01
11 121 2.06881397416226104e-01
12 121 2.29043755333898869e-01
13 121 2.51264325304326464e-01
14 121 2.73538778921889991e-01
15 121 2.95862694509504254e-01
16 121 3.18231558635616751e-01
17 121 3.40640767771920816e-01
18 121 3.63085630092954137e-01
19 121 3.85561367418502055e-01
20 121 4.08063117299432510e-01
21 121 4.30585935247303986e-01
22 121 4.53124797107785082e-01
23 121 4.75674601577605549e-01
24 121 4.98230172864449594e-01
25 121 5.20786263488853818e-01
26 121 5.43337557226853507e-01
27 121 5.65878672191761800e-01
28 121 5.88404164053121570e-01
29 121 6.10908529390510435e-01
30 121 6.33386209179536808e-01
31 121 6.55831592406972863e-01
32 121 6.78239019811636479e-01
33 121 7.00602787747268141e-01
34 121 7.22917152163263355e-01
35 121 7.45176332698803012e-01
36 121 7.67374516885531710e-01
37 121 7.89505864453617590e-01
38 121 8.11564511735658467e-01
39 121 8.33544576162597139e-01
40 121 8.55440160845448383e-01
41 121 8.77245359236369815e-01
42 121 8.98954259862274840e-01
43 121 9.20560951123922333e-01
44 121 9.42059526153141147e-01
45 121 9.63444087720596309e-01
46 121 9.84708753186266272e-01
47 121 1.00584765948459198e+00
48 121 1.02685496813605703e+00
49 121 1.04772487027679206e+00
50 121 1.06845159169763337e+00
51 121 1.08902939788395892e+00
52 121 1.10945259904749505e+00
53 121 1.12971555514124256e+00
54 121 1.14981268084858068e+00
55 121 1.16973845053761494e+00
56 121 1.18948740317181834e+00
57 121 1.20905414716803739e+00
58 121 1.22843336519301349e+00
59 121 1.24761981888962237e+00
60 121 1.26660835352416101e+00
61 121 1.28539390254614494e+00
62 121 1.30397149205223739e+00
63 121 1.32233624514612158e+00
64 121 1.34048338618634255e+00
65 121 1.35840824491437884e+00
66 121 1.37610626045547435e+00
67 121 1.39357298518504824e+00
68 121 1.41080408845378469e+00
69 121 1.42779536016487896e+00
70 121 1.44454271419722025e+00
71 121 1.46104219166867133e+00
72 121 1.47728996403402313e+00
73 121 1.49328233601253957e+00
74 121 1.50901574834047825e+00
75 121 1.52448678034437268e+00
76 121 1.53969215233128875e+00
77 121 1.55462872779275196e+00
78 121 1.56929351541944206e+00
79 121 1.58368367092426121e+00
80 121 1.59779649867181117e+00
81 121 1.61162945311279016e+00
82 121 1.62518014002228983e+00
83 121 1.63844631754142678e+00
84 121 1.65142589702220155e+00
85 121 1.66411694367596197e+00
86 121 1.67651767702624199e+00
87 121 1.68862647116724696e+00
88 121 1.70044185482964383e+00
89 121 1.71196251125576393e+00
90 121 1.72318727788671344e+00
91 121 1.73411514586428894e+00
92 121 1.74474525935098979e+00
93 121 1.75507691467175042e+00
94 121 1.76510955928138857e+00
95 121 1.77484279056208916e+00
96 121 1.78427635445554955e+00
97 121 1.79341014393469389e+00
98 121 1.80224419732015551e+00
99 121 1.81077869644696277e+00
100 121 1.81901396468708132e+00
101 121 1.82695046483371493e+00
102 121 1.83458879685338894e+00
103 121 1.84192969551206498e+00
104 121 1.84897402788165288e+00
105 121 1.85572279073339375e+00
106 121 1.86217710782471180e+00
107 121 1.86833822708620101e+00
108 121 1.87420751771546956e+00
109 121 1.87978646718460429e+00
110 121 1.88507667816802371e+00
111 121 1.89007986539753214e+00
112 121 1.89479785245127474e+00
113 121 1.89923256848337196e+00
114 121 1.90338604490085905e+00
115 121 1.90726041199452556e+00
116 121 1.91085789553018537e+00
117 121 1.91418081330673262e+00
118 121 1.91723157168731051e+00
119 121 1.92001266210971577e+00
120 121 1.92252665758207320e+00
121 121 1.92477620916961922e+00
122 121 1.92676404247830835e+00
123 121 1.92849295414074717e+00
124 121 1.92996580830981279e+00
125 121 1.93118553316510155e+00
126 121 1.93215511743715829e+00
127 121 1.93287760695425748e+00
128 121 1.93335610121627610e+00
129 121 1.93359375000000000e+00
130 121 1.93359375000000000e+00
1 122 0.00000000000000000e+00
2 122 1.07494528614219560e-02
3 122 3.22957943762904598e-02
4 122 5.39352983794891480e-02
5 122 7.56645079372538915e-02
6 122 9.74798648042528443e-02
7 122 1.19377709766681203e-01
8 122 1.41354283105967676e-01
9 122 1.63405725186116929e-01
10 122 1.85528077167561006e-01
11 122 2.07717281850231084e-01
12 122 2.29969184648379260e-01
13 122 2.52279534699495434e-01
14 122 2.74643986109453231e-01
15 122 2.97058099335805292e-01
16 122 3.19517342710912200e-01
17 122 3.42017094106352781e-01
18 122 3.64552642739794375e-01
19 122 3.87119191125243456e-01
20 122 4.09711857167309013e-01
21 122 4.32325676399818393e-01
22 122 4.54955604368826594e-01
23 122 4.77596519159737276e-01
24 122 5.00243224067942305e-01
25 122 5.22890450412041186e-01
26 122 5.45532860488376237e-01
27 122 5.68165050665263904e-01
28 122 5.90781554614952298e-01
29 122 6.13376846680977139e-01
30 122 6.35945345378241988e-01
31 122 6.58481417022758531e-01
32 122 6.80979379487643088e-01
33 122 7.03433506081600601e-01
34 122 7.25838029545741170e-01
35 122 7.48187146164252748e-01
36 122 7.70475019984059095e-01
37 122 7.92695787138278707e-01
38 122 8.14843560267923706e-01
39 122 8.36912433035981396e-01
40 122 8.58896484727652121e-01
41 122 8.80789784930254172e-01
42 122 9.02586398285960878e-01
43 122 9.24280389310281558e-01
44 122 9.45865827268911330e-01
45 122 9.67336791105325999e-01
46 122 9.88687374411261310e-01
47 122 1.00991169043200446e+00
48 122 1.03100387709822283e+00
49 122 1.05195810207589013e+00
50 122 1.07276856782570462e+00
51 122 1.09342951666328791e+00
52 122 1.11393523581132325e+00
53 122 1.13428006243474244e+00
54 122 1.15445838864998906e+00
55 122 1.17446466649938319e+00
56 122 1.19429341288160362e+00
57 122 1.21393921442932240e+00
58 122 1.23339673232510649e+00
59 122 1.25266070704675214e+00
60 122 1.27172596303334950e+00
61 122 1.29058741326350290e+00
62 122 1.30924006373729696e+00
63 122 1.32767901785378273e+00
64 122 1.34589948067598431e+00
65 122 1.36389676307564889e+00
66 122 1.38166628575024397e+00
67 122 1.39920358310498760e+00
68 122 1.41650430699299190e+00
69 122 1.43356423030695956e+00
70 122 1.45037925041619875e+00
71 122 1.46694539244309019e+00
72 122 1.48325881237355461e+00
73 122 1.49931579999642839e+00
74 122 1.51511278166710639e+00
75 122 1.53064632289121860e+00
76 122 1.54591313072454661e+00
77 122 1.56091005598585419e+00
78 122 1.57563409527972276e+00
79 122 1.59008239282698560e+00
80 122 1.60425224210078787e+00
81 122 1.61814108726678119e+00
82 122 1.63174652442642021e+00
83 122 1.64506630266280629e+00
84 122 1.65809832488895803e+00
85 122 1.67084064849889513e+00
86 122 1.68329148582230759e+00
87 122 1.69544920438408409e+00
88 122 1.70731232697036961e+00
89 122 1.71887953150326211e+00
90 122 1.73014965072665983e+00
91 122 1.74112167170616461e+00
92 122 1.75179473514634765e+00
93 122 1.76216813452900989e+00
94 122 1.77224131507646465e+00
95 122 1.78201387254415833e+00
96 122 1.79148555184728919e+00
97 122 1.80065624552634929e+00
98 122 1.80952599205680276e+00
99 122 1.81809497400836473e+00
100 122 1.82636351605955438e+00
101 122 1.83433208287344707e+00
102 122 1.84200127684067549e+00
103 122 1.84937183569595209e+00
104 122 1.85644463001450810e+00
105 122 1.86322066059494307e+00
106 122 1.86970105573511458e+00
107 122 1.87588706840776132e+00
108 122 1.88178007334260267e+00
109 122 1.88738156402171353e+00
110 122 1.89269314959496548e+00
111 122 1.89771655172237064e+00
112 122 1.90245360135006769e+00
113 122 1.90690623542673920e+00
114 122 1.91107649356712517e+00
115 122 1.91496651466925094e+00
116 122 1.91857853349192364e+00
117 122 1.92191487719888099e+00
118 122 1.92497796187594616e+00
119 122 1.92777028902733072e+00
120 122 1.93029444205715239e+00
121 122 1.93255308274202164e+00
122 122 1.93454894770044294e+00
123 122 1.93628484486454822e+00
124 122 1.93776364995954964e+00
125 122 1.93898830299607150e+00
126 122 1.93996180478033886e+00
127 122 1.94068721344700212e+00
128 122 1.94116764101917005e+00
129 122 1.94140625000000000e+00
130 122 1.94140624999999978e+00
1 123 0.00000000000000000e+00
2 123 1.07927102170011190e-02
3 123 3.24257573315270345e-02
4 123 5.41523418337325618e-02
5 123 7.59689928786512897e-02
6 123 9.78721379020566773e-02
7 123 1.19858102964937457e-01
8 123 1.41923113219070168e-01
9 123 1.64063293496725049e-01
10 123 1.86274669027390233e-01
11 123 2.08553166284236036e-01
12 123 2.30894613962859652e-01
13 123 2.53294744094664459e-01
14 123 2.75749193297016415e-01
15 123 2.98253504162106275e-01
16 123 3.20803126786207593e-01
17 123 3.43393420440784802e-01
18 123 3.66019655386634613e-01
19 123 3.88677014831984913e-01
20 123 4.11360597035185460e-01
21 123 4.34065417552332744e-01
22 123 4.56786411629868161e-01
23 123 4.79518436741869059e-01
24 123 5.02256275271435015e-01
25 123 5.24994637335228442e-01
26 123 5.47728163749898855e-01
27 123 5.70451429138765898e-01
28 123 5.93158945176783026e-01
29 123 6.15845163971443843e-01
30 123 6.38504481576947280e-01
31 123 6.61131241638544309e-01
32 123 6.83719739163649698e-01
33 123 7.06264224415932951e-01
34 123 7.28758906928218986e-01
35 123 7.51197959629702372e-01
36 123 7.73575523082586591e-01
37 123 7.95885709822939824e-01
38 123 8.18122608800189055e-01
39 123 8.40280289909365652e-01
40 123 8.62352808609855970e-01
41 123 8.84334210624138528e-01
42 123 9.06218536709646805e-01
43 123 9.27999827496640894e-01
44 123 9.49672128384681735e-01
45 123 9.71229494490055689e-01
46 123 9.92665995636256460e-01
47 123 1.01397572137941694e+00
48 123 1.03515278606038885e+00
49 123 1.05619133387498820e+00
50 123 1.07708554395377587e+00
51 123 1.09782963544261691e+00
52 123 1.11841787257515146e+00
53 123 1.13884456972824233e+00
54 123 1.15910409645139745e+00
55 123 1.17919088246115122e+00
56 123 1.19909942259138869e+00
57 123 1.21882428169060719e+00
58 123 1.23836009945719949e+00
59 123 1.25770159520388192e+00
60 123 1.27684357254253822e+00
61 123 1.29578092398086109e+00
62 123 1.31450863542235652e+00
63 123 1.33302179056144388e+00
64 123 1.35131557516562628e+00
65 123 1.36938528123691916e+00
66 123 1.38722631104501359e+00
67 123 1.40483418102492719e+00
68 123 1.42220452553219912e+00
69 123 1.43933310044903995e+00
70 123 1.45621578663517748e+00
71 123 1.47284859321750905e+00
72 123 1.48922766071308588e+00
73 123 1.50534926398031743e+00
74 123 1.52120981499373475e+00
75 123 1.53680586543806430e+00
76 123 1.55213410911780425e+00
77 123 1.56719138417895598e+00
78 123 1.58197467514000323e+00
79 123 1.59648111472970955e+00
80 123 1.61070798552976480e+00
81 123 1.62465272142077244e+00
82 123 1.63831290883055081e+00
83 123 1.65168628778418602e+00
84 123 1.66477075275571451e+00
85 123 1.67756435332182829e+00
86 123 1.69006529461837340e+00
87 123 1.70227193760092121e+00
88 123 1.71418279911109539e+00
89 123 1.72579655175076008e+00
90 123 1.73711202356660577e+00
91 123 1.74812819754804050e+00
92 123 1.75884421094170529e+00
93 123 1.76925935438626958e+00
94 123 1.77937307087154095e+00
95 123 1.78918495452622750e+00
96 123 1.79869474923902883e+00
97 123 1.80790234711800468e+00
98 123 1.81680778679344979e+00
99 123 1.82541125156976625e+00
100 123 1.83371306743202744e+00
101 123 1.84171370091317943e+00
102 123 1.84941375682796183e+00
103 123 1.85681397587983921e+00
104 123 1.86391523214736310e+00
105 123 1.87071853045649195e+00
106 123 1.87722500364551759e+00
107 123 1.88343590972932162e+00
108 123 1.88935262896973599e+00
109 123 1.89497666085882299e+00
110 123 1.90030962102190681e+00
111 123 1.90535323804720913e+00
112 123 1.91010935024886086e+00
113 123 1.91457990237010645e+00
114 123 1.91876694223339128e+00
115 123 1.92267261734397632e+00
116 123 1.92629917145366192e+00
117 123 1.92964894109102958e+00
118 123 1.93272435206458160e+00
119 123 1.93552791594494589e+00
120 123 1.93806222653223115e+00
121 123 1.94032995631442429e+00
122 123 1.94233385292257776e+00
123 123 1.94407673558834926e+00
124 123 1.94556149160928604e+00
125 123 1.94679107282704167e+00
126 123 1.94776849212351943e+00
127 123 1.94849681993974655e+00
128 123 1.94897918082206401e+00
129 123 1.94921875000000000e+00
130 123 1.94921875000000000e+00
1 124 0.00000000000000000e+00
2 124 1.08359675725802820e-02
3 124 3.25557202867636161e-02
4 124 5.43693852879759756e-02
5 124 7.62734778200487018e-02
6 124 9.82644109998605103e-02
7 124 1.20338496163193712e-01
8 124 1.42491943332172660e-01
9 124 1.64720861807333141e-01
10 124 1.87021260887219459e-01
11 124 2.09389050718240988e-01
12 124 2.31820043277340015e-01
13 124 2.54309953489833429e-01
14 124 2.76854400484579599e-01
15 124 2.99448908988407314e-01
16 124 3.22088910861502986e-01
17 124 3.44769746775216768e-01
18 124 3.67486668033474850e-01
19 124 3.90234838538726425e-01
20 124 4.13009336903061963e-01
21 124 4.35805158704847095e-01
22 124 4.58617218890909673e-01
23 124 4.81440354324000785e-01
24 124 5.04269326474927726e-01
25 124 5.27098824258415699e-01
26 124 5.49923467011421474e-01
27 124 5.72737807612268002e-01
28 124 5.95536335738613753e-01
29 124 6.18313481261910547e-01
30 124 6.41063617775652461e-01
31 124 6.63781066254329977e-01
32 124 6.86460098839656307e-01
33 124 7.09094942750265300e-01
34 124 7.31679784310696801e-01
35 124 7.54208773095151996e-01
36 124 7.76676026181113976e-01
37 124 7.99075632507600830e-01
38 124 8.21401657332454405e-01
39 124 8.43648146782749908e-01
40 124 8.65809132492059819e-01
41 124 8.87878636318022885e-01
42 124 9.09850675133332731e-01
43 124 9.31719265683000231e-01
44 124 9.53478429500452029e-01
45 124 9.75122197874785379e-01
46 124 9.96644616861251498e-01
47 124 1.01803975232682964e+00
48 124 1.03930169502255487e+00
49 124 1.06042456567408627e+00
50 124 1.08140252008184712e+00
51 124 1.10222975422194591e+00
52 124 1.12290050933897967e+00
53 124 1.14340907702174222e+00
54 124 1.16374980425280583e+00
55 124 1.18391709842291926e+00
56 124 1.20390543230117375e+00
57 124 1.22370934895189221e+00
58 124 1.24332346658929249e+00
59 124 1.26274248336101169e+00
60 124 1.28196118205172671e+00
61 124 1.30097443469821927e+00
62 124 1.31977720710741608e+00
63 124 1.33836456326910502e+00
64 124 1.35673166965526804e+00
65 124 1.37487379939818921e+00
66 124 1.39278633633978322e+00
67 124 1.41046477894486677e+00
68 124 1.42790474407140633e+00
69 124 1.44510197059112033e+00
70 124 1.46205232285415598e+00
71 124 1.47875179399192813e+00
72 124 1.49519650905261714e+00
73 124 1.51138272796420647e+00
74 124 1.52730684832036312e+00
75 124 1.54296540798491022e+00
76 124 1.55835508751106211e+00
77 124 1.57347271237205799e+00
78 124 1.58831525500028348e+00
79 124 1.60287983663243372e+00
80 124 1.61716372895874172e+00
81 124 1.63116435557476347e+00
82 124 1.64487929323468118e+00
83 124 1.65830627290556554e+00
84 124 1.67144318062247077e+00
85 124 1.68428805814476168e+00
86 124 1.69683910341443878e+00
87 124 1.70909467081775857e+00
88 124 1.72105327125182139e+00
89 124 1.73271357199825804e+00
90 124 1.74407439640655193e+00
91 124 1.75513472338991638e+00
92 124 1.76589368673706271e+00
93 124 1.77635057424352927e+00
94 124 1.78650482666661725e+00
95 124 1.79635603650829645e+00
96 124 1.80590394663076848e+00
97 124 1.81514844870965986e+00
98 124 1.82408958153009704e+00
99 124 1.83272752913116821e+00
100 124 1.84106261880450051e+00
101 124 1.84909531895291179e+00
102 124 1.85682623681524817e+00
103 124 1.86425611606372632e+00
104 124 1.87138583428021854e+00
105 124 1.87821640031804105e+00
106 124 1.88474895155592037e+00
107 124 1.89098475105088215e+00
108 124 1.89692518459686910e+00
109 124 1.90257175769593223e+00
110 124 1.90792609244884859e+00
111 124 1.91298992437204785e+00
112 124 1.91776509914765403e+00
113 124 1.92225356931347369e+00
114 124 1.92645739089965717e+00
115 124 1.93037872001870170e+00
116 124 1.93401980941540019e+00
117 124 1.93738300498317795e+00
118 124 1.94047074225321703e+00
119 124 1.94328554286256083e+00
120 124 1.94583001100731012e+00
121 124 1.94810682988682693e+00
122 124 1.95011875814471214e+00
123 124 1.95186862631215030e+00
124 124 1.95335933325902267e+00
125 124 1.95459384265801184e+00
126 124 1.95557517946669979e+00
127 124 1.95630642643249097e+00
128 124 1.95679072062495774e+00
129 124 1.95703125000000022e+00
130 124 1.95703125000000000e+00
1 125 0.00000000000000000e+00
2 125 1.08792249281594432e-02
3 125 3.26856832420001908e-02
4 125 5.45864287422193895e-02
5 125 7.65779627614460862e-02
6 125 9.86566840976643572e-02
7 125 1.20818889361449980e-01
8 125 1.43060773445275152e-01
9 125 1.65378430117941233e-01
10 125 1.87767852747048658e-01
11 125 2.10224935152245940e-01
12 125 2.32745472591820435e-01
13 125 2.55325162885002399e-01
14 125 2.77959607672142783e-01
15 125 3.00644313814708297e-01
16 125 3.23374694936798435e-01
17 125 3.46146073109648844e-01
18 125 3.68953680680315033e-01
19 125 3.91792662245467882e-01
20 125 4.14658076770938466e-01
21 125 4.37544899857361447e-01
22 125 4.60448026151951184e-01
23 125 4.83362271906132568e-01
24 125 5.06282377678420437e-01
25 125 5.29203011181602956e-01
26 125 5.52118770272944093e-01
27 125 5.75024186085770106e-01
28 125 5.97913726300444481e-01
29 125 6.20781798552377251e-01
30 125 6.43622753974357642e-01
31 125 6.66430890870115755e-01
32 125 6.89200458515662917e-01
33 125 7.11925661084597761e-01
34 125 7.34600661693174617e-01
35 125 7.57219586560601621e-01
36 125 7.79776529279641362e-01
37 125 8.02265555192261948e-01
38 125 8.24680705864719754e-01
39 125 8.47016003656134164e-01
40 125 8.69265456374263668e-01
41 125 8.91423062011907241e-01
42 125 9.13482813557018658e-01
43 125 9.35438703869359567e-01
44 125 9.57284730616222435e-01
45 125 9.79014901259515069e-01
46 125 1.00062323808624654e+00
47 125 1.02210378327424212e+00
48 125 1.04345060398472067e+00
49 125 1.06465779747318434e+00
50 125 1.08571949620991837e+00
51 125 1.10662987300127491e+00
52 125 1.12738314610280788e+00
53 125 1.14797358431524210e+00
54 125 1.16839551205421421e+00
55 125 1.18864331438468751e+00
56 125 1.20871144201095904e+00
57 125 1.22859441621317722e+00
58 125 1.24828683372138549e+00
59 125 1.26778337151814147e+00
60 125 1.28707879156091543e+00
61 125 1.30616794541557768e+00
62 125 1.32504577879247565e+00
63 125 1.34370733597676617e+00
64 125 1.36214776414490979e+00
65 125 1.38036231755945948e+00
66 125 1.39834636163455284e+00
67 125 1.41609537686480635e+00
68 125 1.43360496261061332e+00
69 125 1.45087084073320050e+00
70 125 1.46788885907313449e+00
71 125 1.48465499476634699e+00
72 125 1.50116535739214862e+00
73 125 1.51741619194809529e+00
74 125 1.53340388164699148e+00
75 125 1.54912495053175614e+00
76 125 1.56457606590431997e+00
77 125 1.57975404056516000e+00
78 125 1.59465583486056417e+00
79 125 1.60927855853515811e+00
80 125 1.62361947238771887e+00
81 125 1.63767598972875450e+00
82 125 1.65144567763881178e+00
83 125 1.66492625802694505e+00
84 125 1.67811560848922725e+00
85 125 1.69101176296769484e+00
86 125 1.70361291221050437e+00
87 125 1.71591740403459592e+00
88 125 1.72792374339254717e+00
89 125 1.73963059224575622e+00
90 125 1.75103676924649831e+00
91 125 1.76214124923179227e+00
92 125 1.77294316253242035e+00
93 125 1.78344179410078874e+00
94 125 1.79363658246169355e+00
95 125 1.80352711849036540e+00
96 125 1.81311314402250789e+00
97 125 1.82239455030131503e+00
98 125 1.83137137626674407e+00
99 125 1.84004380669256995e+00
100 125 1.84841217017697357e+00
101 125 1.85647693699264393e+00
102 125 1.86423871680253450e+00
103 125 1.87169825624761343e+00
104 125 1.87885643641307354e+00
105 125 1.88571427017959015e+00
106 125 1.89227289946632338e+00
107 125 1.89853359237244268e+00
108 125 1.90449774022400242e+00
109 125 1.91016685453304169e+00
110 125 1.91554256387579014e+00
111 125 1.92062661069688634e+00
112 125 1.92542084804644720e+00
113 125 1.92992723625684071e+00
114 125 1.93414783956592351e+00
115 125 1.93808482269342708e+00
116 125 1.94174044737713825e+00
117 125 1.94511706887532654e+00
118 125 1.94821713244185268e+00
119 125 1.95104316978017600e+00
120 125 1.95359779548238910e+00
121 125 1.95588370345922913e+00
122 125 1.95790366336684674e+00
123 125 1.95966051703595112e+00
124 125 1.96115717490875929e+00
125 125 1.96239661248898201e+00
126 125 1.96338186680988014e+00
127 125 1.96411603292523540e+00
128 125 1.96460226042785169e+00
129 125 1.96484375000000000e+00
130 125 1.96484375000000000e+00
1 126 0.00000000000000000e+00
2 126 1.09224822837386062e-02
3 126 3.28156461972367725e-02
4 126 5.48034721964628033e-02
5 126 7.68824477028434844e-02
6 126 9.90489571954681763e-02
7 126 1.21299282559706234e-01
8 126 1.43629603558377644e-01
9 126 1.66035998428549353e-01
10 126 1.88514444606877885e-01
11 126 2.11060819586250864e-01
12 126 2.33670901906300826e-01
13 126 2.56340372280171425e-01
14 126 2.79064814859706023e-01
15 126 3.01839718641009336e-01
16 126 3.24660479012093883e-01
17 126 3.47522399444080865e-01
18 126 3.70420693327155270e-01
19 126 3.93350485952209283e-01
20 126 4.16306816638814969e-01
21 126 4.39284641009875798e-01
22 126 4.62278833412992696e-01
23 126 4.85284189488264350e-01
24 126 5.08295428881913147e-01
25 126 5.31307198104790213e-01
26 126 5.54314073534466711e-01
27 126 5.77310564559272210e-01
28 126 6.00291116862275320e-01
29 126 6.23250115842843955e-01
30 126 6.46181890173062934e-01
31 126 6.69080715485901423e-01
32 126 6.91940818191669527e-01
33 126 7.14756379418930110e-01
34 126 7.37521539075652433e-01
35 126 7.60230400026051467e-01
36 126 7.82877032378168747e-01
37 126 8.05455477876923065e-01
38 126 8.27959754396985104e-01
39 126 8.50383860529518421e-01
40 126 8.72721780256467516e-01
41 126 8.94967487705791487e-01
42 126 9.17114951980704696e-01
43 126 9.39158142055718792e-01
44 126 9.61091031731992729e-01
45 126 9.82907604644244759e-01
46 126 1.00460185931124157e+00
47 126 1.02616781422165460e+00
48 126 1.04759951294688647e+00
49 126 1.06889102927228263e+00
50 126 1.09003647233798961e+00
51 126 1.11102999178060413e+00
52 126 1.13186578286663608e+00
53 126 1.15253809160874199e+00
54 126 1.17304121985562260e+00
55 126 1.19336953034645576e+00
56 126 1.21351745172074388e+00
57 126 1.23347948347446223e+00
58 126 1.25325020085347827e+00
59 126 1.27282425967527146e+00
60 126 1.29219640107010392e+00
61 126 1.31136145613293564e+00
62 126 1.33031435047753521e+00
63 126 1.34905010868442710e+00
64 126 1.36756385863455177e+00
65 126 1.38585083572072976e+00
66 126 1.40390638692932246e+00
67 126 1.42172597478474594e+00
68 126 1.43930518114982053e+00
69 126 1.45663971087528088e+00
70 126 1.47372539529211299e+00
71 126 1.49055819554076563e+00
72 126 1.50713420573168011e+00
73 126 1.52344965593198434e+00
74 126 1.53950091497361941e+00
75 126 1.55528449307860206e+00
76 126 1.57079704429757783e+00
77 126 1.58603536875826223e+00
78 126 1.60099641472084464e+00
79 126 1.61567728043788250e+00
80 126 1.63007521581669579e+00
81 126 1.64418762388274531e+00
82 126 1.65801206204294238e+00
83 126 1.67154624314832434e+00
84 126 1.68478803635598373e+00
85 126 1.69773546779062778e+00
86 126 1.71038672100656997e+00
87 126 1.72274013725143327e+00
88 126 1.73479421553327295e+00
89 126 1.74654761249325441e+00
90 126 1.75799914208644448e+00
91 126 1.76914777507366816e+00
92 126 1.77999263832777777e+00
93 126 1.79053301395804842e+00
94 126 1.80076833825677007e+00
95 126 1.81069820047243435e+00
96 126 1.82032234141424754e+00
97 126 1.82964065189297043e+00
98 126 1.83865317100339110e+00
99 126 1.84736008425397169e+00
100 126 1.85576172154944663e+00
101 126 1.86385855503237630e+00
102 126 1.87165119678982106e+00
103 126 1.87914039643150055e+00
104 126 1.88632703854592876e+00
105 126 1.89321214004113925e+00
106 126 1.89979684737672594e+00
107 126 1.90608243369400276e+00
108 126 1.91207029585113575e+00
109 126 1.91776195137015115e+00
110 126 1.92315903530273169e+00
111 126 1.92826329702172483e+00
112 126 1.93307659694524037e+00
113 126 1.93760090320020817e+00
114 126 1.94183828823218962e+00
115 126 1.94579092536815246e+00
116 126 1.94946108533887608e+00
117 126 1.95285113276747491e+00
118 126 1.95596352263048834e+00
119 126 1.95880079669779072e+00
120 126 1.96136557995746807e+00
121 126 1.96366057703163177e+00
122 126 1.96568856858898111e+00
123 126 1.96745240775975216e+00
124 126 1.96895501655849592e+00
125 126 1.97019938231995217e+00
126 126 1.97118855415306071e+00
127 126 1.97192563941797983e+00
128 126 1.97241380023074564e+00
129 126 1.97265625000000000e+00
130 126 1.97265625000000000e+00
1 127 0.00000000000000000e+00
2 127 1.09657396393177693e-02
3 127 3.29456091524733471e-02
4 127 5.50205156507062240e-02
5 127 7.71869326442408826e-02
6 127 9.94412302932720094e-02
7 127 1.21779675757962488e-01
8 127 1.44198433671480108e-01
9 127 1.66693566739157473e-01
10 127 1.89261036466707111e-01
11 127 2.11896704020255816e-01
12 127 2.34596331220781218e-01
13 127 2.57355581675340395e-01
14 127 2.80170022047269207e-01
15 127 3.03035123467310374e-01
16 127 3.25946263087389332e-01
17 127 3.48898725778512886e-01
18 127 3.71887705973995508e-01
19 127 3.94908309658950685e-01
20 127 4.17955556506691417e-01
21 127 4.41024382162390149e-01
22 127 4.64109640674034263e-01
23 127 4.87206107070396133e-01
24 127 5.10308480085405858e-01
25 127 5.33411385027977469e-01
26 127 5.56509376795989330e-01
27 127 5.79596943032774203e-01
28 127 6.02668507424106048e-01
29 127 6.25718433133310659e-01
30 127 6.48741026371768226e-01
31 127 6.71730540101687201e-01
32 127 6.94681177867676136e-01
33 127 7.17587097753262571e-01
34 127 7.40442416458130248e-01
35 127 7.63241213491501092e-01
36 127 7.85977535476696132e-01
37 127 8.08645400561584071e-01
38 127 8.31238802929250564e-01
39 127 8.53751717402902677e-01
40 127 8.76178104138671365e-01
41 127 8.98511913399675843e-01
42 127 9.20747090404390733e-01
43 127 9.42877580242078128e-01
44 127 9.64897332847763023e-01
45 127 9.86800308028974560e-01
46 127 1.00858048053623661e+00
47 127 1.03023184516906707e+00
48 127 1.05174842190905249e+00
49 127 1.07312426107138070e+00
50 127 1.09435344846606086e+00
51 127 1.11543011055993313e+00
52 127 1.13634841963046429e+00
53 127 1.15710259890224210e+00
54 127 1.17768692765703098e+00
55 127 1.19809574630822402e+00
56 127 1.21832346143052872e+00
57 127 1.23836455073574725e+00
58 127 1.25821356798557149e+00
59 127 1.27786514783240124e+00
60 127 1.29731401057929241e+00
61 127 1.31655496685029383e+00
62 127 1.33558292216259455e+00
63 127 1.35439288139208824e+00
64 127 1.37297995312419352e+00
65 127 1.39133935388200003e+00
66 127 1.40946641222409208e+00
67 127 1.42735657270468552e+00
68 127 1.44500539968902753e+00
69 127 1.46240858101736104e+00
70 127 1.47956193151109172e+00
71 127 1.49646139631518449e+00
72 127 1.51310305407121137e+00
73 127 1.52948311991587338e+00
74 127 1.54559794830024755e+00
75 127 1.56144403562544776e+00
76 127 1.57701802269083569e+00
77 127 1.59231669695136424e+00
78 127 1.60733699458112511e+00
79 127 1.62207600234060667e+00
80 127 1.63653095924567271e+00
81 127 1.65069925803673634e+00
82 127 1.66457844644707276e+00
83 127 1.67816622826970385e+00
84 127 1.69146046422273999e+00
85 127 1.70445917261356095e+00
86 127 1.71716052980263578e+00
87 127 1.72956287046827040e+00
88 127 1.74166468767399873e+00
89 127 1.75346463274075259e+00
90 127 1.76496151492639064e+00
91 127 1.77615430091554405e+00
92 127 1.78704211412313563e+00
93 127 1.79762423381530834e+00
94 127 1.80790009405184637e+00
95 127 1.81786928245450352e+00
96 127 1.82753153880598695e+00
97 127 1.83688675348462582e+00
98 127 1.84593496574003813e+00
99 127 1.85467636181537321e+00
100 127 1.86311127292191991e+00
101 127 1.87124017307210844e+00
102 127 1.87906367677710762e+00
103 127 1.88658253661538766e+00
104 127 1.89379764067878398e+00
105 127 1.90071000990268835e+00
106 127 1.90732079528712895e+00
107 127 1.91363127501556307e+00
108 127 1.91964285147826907e+00
109 127 1.92535704820726061e+00
110 127 1.93077550672967302e+00
111 127 1.93589998334656332e+00
112 127 1.94073234584403331e+00
113 127 1.94527457014357541e+00
114 127 1.94952873689845552e+00
115 127 1.95349702804287784e+00
116 127 1.95718172330061413e+00
117 127 1.96058519665962327e+00
118 127 1.96370991281912421e+00
119 127 1.96655842361540589e+00
120 127 1.96913336443254727e+00
121 127 1.97143745060403419e+00
122 127 1.97347347381111571e+00
123 127 1.97524429848355298e+00
124 127 1.97675285820823254e+00
125 127 1.97800215215092234e+00
126 127 1.97899524149624106e+00
127 127 1.97973524591072425e+00
128 127 1.98022534003363959e+00
129 127 1.98046875000000000e+00
130 127 1.98046875000000000e+00
1 128 0.00000000000000000e+00
2 128 1.10089969948969305e-02
3 128 3.30755721077099218e-02
4 128 5.52375591049496378e-02
5 128 7.74914175856382809e-02
6 128 9.98335033910758424e-02
7 128 1.22260068956218756e-01
8 128 1.44767263784582600e-01
9 128 1.67351135049765593e-01
10 128 1.90007628326536310e-01
11 128 2.12732588454260796e-01
12 128 2.35521760535261609e-01
13 128 2.58370791070509365e-01
14 128 2.81275229234832391e-01
15 128 3.04230528293611413e-01
16 128 3.27232047162684780e-01
17 128 3.50275052112944851e-01
18 128 3.73354718620835691e-01
19 128 3.96466133365692086e-01
20 128 4.19604296374567864e-01
21 128 4.42764123314904501e-01
22 128 4.65940447935075830e-01
23 128 4.89128024652527804e-01
24 128 5.12321531288898679e-01
25 128 5.35515571951164726e-01
26 128 5.58704680057512060e-01
27 128 5.81883321506276308e-01
28 128 6.05045897985936776e-01
29 128 6.28186750423777363e-01
30 128 6.51300162570473518e-01
31 128 6.74380364717472869e-01
32 128 6.97421537543682746e-01
33 128 7.20417816087594920e-01
34 128 7.43363293840608064e-01
35 128 7.66252026956950938e-01
36 128 7.89078038575223628e-01
37 128 8.11835323246245077e-01
38 128 8.34517851461515803e-01
39 128 8.57119574276286822e-01
40 128 8.79634428020875214e-01
41 128 9.02056339093560200e-01
42 128 9.24379228828076660e-01
43 128 9.46597018428437242e-01
44 128 9.68703633963533317e-01
45 128 9.90693011413704250e-01
46 128 1.01255910176123165e+00
47 128 1.03429587611647955e+00
48 128 1.05589733087121829e+00
49 128 1.07735749287047877e+00
50 128 1.09867042459413211e+00
51 128 1.11983022933926213e+00
52 128 1.14083105639429250e+00
53 128 1.16166710619574198e+00
54 128 1.18233263545843936e+00
55 128 1.20282196226999205e+00
56 128 1.22312947114031378e+00
57 128 1.24324961799703204e+00
58 128 1.26317693511766427e+00
59 128 1.28290603598953079e+00
60 128 1.30243162008848112e+00
61 128 1.32174847756765201e+00
62 128 1.34085149384765412e+00
63 128 1.35973565409974939e+00
64 128 1.37839604761383527e+00
65 128 1.39682787204327030e+00
66 128 1.41502643751886170e+00
67 128 1.43298717062462511e+00
68 128 1.45070561822823474e+00
69 128 1.46817745115944143e+00
70 128 1.48539846773007045e+00
71 128 1.50236459708960335e+00
72 128 1.51907190241074286e+00
73 128 1.53551658389976220e+00
74 128 1.55169498162687569e+00
75 128 1.56760357817229368e+00
76 128 1.58323900108409332e+00
77 128 1.59859802514446625e+00
78 128 1.61367757444140558e+00
79 128 1.62847472424333084e+00
80 128 1.64298670267464986e+00
81 128 1.65721089219072737e+00
82 128 1.67114483085120336e+00
83 128 1.68478621339108336e+00
84 128 1.69813289208949647e+00
85 128 1.71118287743649411e+00
86 128 1.72393433859870138e+00
87 128 1.73638560368510775e+00
88 128 1.74853515981472429e+00
89 128 1.76038165298825056e+00
90 128 1.77192388776633702e+00
91 128 1.78316082675741994e+00
92 128 1.79409158991849305e+00
93 128 1.80471545367256780e+00
94 128 1.81503184984692245e+00
95 128 1.82504036443657247e+00
96 128 1.83474073619772660e+00
97 128 1.84413285507628100e+00
98 128 1.85321676047668538e+00
99 128 1.86199263937677517e+00
100 128 1.87046082429439298e+00
101 128 1.87862179111184080e+00
102 128 1.88647615676439395e+00
103 128 1.89402467679927478e+00
104 128 1.90126824281163920e+00
105 128 1.90820787976423745e+00
106 128 1.91484474319753173e+00
107 128 1.92118011633712338e+00
108 128 1.92721540710540218e+00
109 128 1.93295214504437007e+00
110 128 1.93839197815661457e+00
111 128 1.94353666967140160e+00
112 128 1.94838809474282626e+00
113 128 1.95294823708694265e+00
114 128 1.95721918556472163e+00
115 128 1.96120313071760344e+00
116 128 1.96490236126235240e+00
117 128 1.96831926055177187e+00
118 128 1.97145630300775965e+00
119 128 1.97431605053302084e+00
120 128 1.97690114890762647e+00
121 128 1.97921432417643661e+00
122 128 1.98125837903325008e+00
123 128 1.98303618920735381e+00
124 128 1.98455069985796939e+00
125 128 1.98580492198189251e+00
126 128 1.98680192883942142e+00
127 128 1.98754485240346890e+00
128 128 1.98803687983653377e+00
129 128 1.98828125000000000e+00
130 128 1.98828125000000000e+00
1 129 0.00000000000000000e+00
2 129 1.10522543504760935e-02
3 129 3.32055350629465035e-02
4 129 5.54546025591930586e-02
5 129 7.77959025270356791e-02
6 129 1.00225776488879689e-01
7 129 1.22740462154475025e-01
8 129 1.45336093897685065e-01
9 129 1.68008703360373685e-01
10 129 1.90754220186365564e-01
11 129 2.13568472888265748e-01
12 129 2.36447189849742029e-01
13 129 2.59386000465678390e-01
14 129 2.82380436422395575e-01
15 129 3.05425933119912396e-01
16 129 3.28517831237980173e-01
17 129 3.51651378447376872e-01
18 129 3.74821731267675928e-01
19 129 3.98023957072433487e-01
20 129 4.21253036242444368e-01
21 129 4.44503864467418852e-01
22 129 4.67771255196117397e-01
23 129 4.91049942234659587e-01
24 129 5.14334582492391390e-01
25 129 5.37619758874351983e-01
26 129 5.60899983319034678e-01
27 129 5.84169699979778412e-01
28 129 6.07423288547767504e-01
29 129 6.30655067714244066e-01
30 129 6.53859298769178698e-01
31 129 6.77030189333258647e-01
32 129 7.00161897219689355e-01
33 129 7.23248534421927380e-01
34 129 7.46284171223085990e-01
35 129 7.69262840422400562e-01
36 129 7.92178541673751124e-01
37 129 8.15025245930906084e-01
38 129 8.37796899993781041e-01
39 129 8.60487431149671078e-01
40 129 8.83090751903079063e-01
41 129 9.05600764787444557e-01
42 129 9.28011367251762476e-01
43 129 9.50316456614796468e-01
44 129 9.72509935079303500e-01
45 129 9.94585714798434051e-01
46 129 1.01653772298622669e+00
47 129 1.03835990706389203e+00
48 129 1.06004623983338431e+00
49 129 1.08159072466957706e+00
50 129 1.10298740072220358e+00
51 129 1.12423034811859135e+00
52 129 1.14531369315812070e+00
53 129 1.16623161348924187e+00
54 129 1.18697834325984752e+00
55 129 1.20754817823176008e+00
56 129 1.22793548085009885e+00
57 129 1.24813468525831706e+00
58 129 1.26814030224975749e+00
59 129 1.28794692414666057e+00
60 129 1.30754922959766962e+00
61 129 1.32694198828501020e+00
62 129 1.34612006553271368e+00
63 129 1.36507842680741054e+00
64 129 1.38381214210347725e+00
65 129 1.40231639020454057e+00
66 129 1.42058646281363155e+00
67 129 1.43861776854456469e+00
68 129 1.45640583676744195e+00
69 129 1.47394632130152181e+00
70 129 1.49123500394904895e+00
71 129 1.50826779786402221e+00
72 129 1.52504075075027412e+00
73 129 1.54155004788365146e+00
74 129 1.55779201495350383e+00
75 129 1.57376312071913982e+00
76 129 1.58945997947735096e+00
77 129 1.60487935333756826e+00
78 129 1.62001815430168628e+00
79 129 1.63487344614605523e+00
80 129 1.64944244610362678e+00
81 129 1.66372252634471862e+00
82 129 1.67771121525533418e+00
83 129 1.69140619851246266e+00
84 129 1.70480531995625273e+00
85 129 1.71790658225942727e+00
86 129 1.73070814739476719e+00
87 129 1.74320833690194532e+00
88 129 1.75540563195545030e+00
89 129 1.76729867323574874e+00
90 129 1.77888626060628341e+00
91 129 1.79016735259929605e+00
92 129 1.80114106571385069e+00
93 129 1.81180667352982749e+00
94 129 1.82216360564199875e+00
95 129 1.83221144641864164e+00
96 129 1.84194993358946624e+00
97 129 1.85137895666793617e+00
98 129 1.86049855521333263e+00
99 129 1.86930891693817691e+00
100 129 1.87781037566686604e+00
101 129 1.88600340915157294e+00
102 129 1.89388863675168029e+00
103 129 1.90146681698316189e+00
104 129 1.90873884494449442e+00
105 129 1.91570574962578655e+00
106 129 1.92236869110793474e+00
107 129 1.92872895765868413e+00
108 129 1.93478796273253550e+00
109 129 1.94054724188147953e+00
110 129 1.94600844958355590e+00
111 129 1.95117335599624009e+00
112 129 1.95604384364161921e+00
113 129 1.96062190403030967e+00
114 129 1.96490963423098752e+00
115 129 1.96890923339232882e+00
116 129 1.97262299922409046e+00
117 129 1.97605332444392046e+00
118 129 1.97920269319639530e+00
119 129 1.98207367745063578e+00
120 129 1.98466893338270567e+00
121 129 1.98699119774883926e+00
122 129 1.98904328425538468e+00
123 129 1.99082807993115485e+00
124 129 1.99234854150770602e+00
125 129 1.99360769181286268e+00
126 129 1.99460861618260177e+00
127 129 1.99535445889621332e+00
128 129 1.99584841963942794e+00
129 129 1.99609375000000000e+00
130 129 1.99609375000000000e+00
1 130 0.00000000000000000e+00
2 130 1.10738830282656742e-02
3 130 3.32705165405647943e-02
4 130 5.55631242863147620e-02
5 130 7.79481449977343782e-02
6 130 1.00421913037781613e-01
7 130 1.22980658753603159e-01
8 130 1.45620508954236283e-01
9 130 1.68337487515677731e-01
10 130 1.91127516116280177e-01
11 130 2.13986415105268224e-01
12 130 2.36909904506982238e-01
13 130 2.59893605163262875e-01
14 130 2.82933040016177251e-01
15 130 3.06023635533062888e-01
16 130 3.29160723275627898e-01
17 130 3.52339541614592855e-01
18 130 3.75555237591096047e-01
19 130 3.98802868925804188e-01
20 130 4.22077406176382619e-01
21 130 4.45373735043676056e-01
22 130 4.68686658826638181e-01
23 130 4.92010901025725422e-01
24 130 5.15341108094137690e-01
25 130 5.38671852335945611e-01
26 130 5.61997634949795932e-01
27 130 5.85312889216529464e-01
28 130 6.08611983828682868e-01
29 130 6.31889226359477418e-01
30 130 6.55138866868531289e-01
31 130 6.78355101641151537e-01
32 130 7.01532077057692827e-01
33 130 7.24663893589093444e-01
34 130 7.47744609914324898e-01
35 130 7.70768247155125374e-01
36 130 7.93728793223014817e-01
37 130 8.16620207273236587e-01
38 130 8.39436424259913716e-01
39 130 8.62171359586363151e-01
40 130 8.84818913844181099e-01
41 130 9.07372977634386624e-01
42 130 9.29827436463605439e-01
43 130 9.52176175707976191e-01
44 130 9.74413085637188647e-01
45 130 9.96532066490798951e-01
46 130 1.01852703359872421e+00
47 130 1.04039192253759816e+00
48 130 1.06212069431446721e+00
49 130 1.08370734056912621e+00
50 130 1.10514588878623909e+00
51 130 1.12643040750825585e+00
52 130 1.14755501154003481e+00
53 130 1.16851386713599181e+00
54 130 1.18930119716055160e+00
55 130 1.20991128621264399e+00
56 130 1.23033848570499149e+00
57 130 1.25057721888895945e+00
58 130 1.27062198581580388e+00
59 130 1.29046736822522568e+00
60 130 1.31010803435226375e+00
61 130 1.32953874364368940e+00
62 130 1.34875435137524335e+00
63 130 1.36774981316124111e+00
64 130 1.38652018934829813e+00
65 130 1.40506064928517560e+00
66 130 1.42336647546101647e+00
67 130 1.44143306750453437e+00
68 130 1.45925594603704556e+00
69 130 1.47683075637256200e+00
70 130 1.49415327205853821e+00
71 130 1.51121939825123142e+00
72 130 1.52802517492003997e+00
73 130 1.54456677987559599e+00
74 130 1.56084053161681791e+00
75 130 1.57684289199256278e+00
76 130 1.59257046867397967e+00
77 130 1.60802001743411926e+00
78 130 1.62318844423182673e+00
79 130 1.63807280709741732e+00
80 130 1.65267031781811546e+00
81 130 1.66697834342171425e+00
82 130 1.68099440745739948e+00
83 130 1.69471619107315230e+00
84 130 1.70814153388963086e+00
85 130 1.72126843467089419e+00
86 130 1.73409505179279999e+00
87 130 1.74661970351036433e+00
88 130 1.75884086802581319e+00
89 130 1.77075718335949750e+00
90 130 1.78236744702625671e+00
91 130 1.79367061552023399e+00
92 130 1.80466580361152928e+00
93 130 1.81535228345845723e+00
94 130 1.82572948353953701e+00
95 130 1.83579698740967623e+00
96 130 1.84555453228533595e+00
97 130 1.85500200746376387e+00
98 130 1.86413945258165592e+00
99 130 1.87296705571887800e+00
100 130 1.88148515135310257e+00
101 130 1.88969421817143912e+00
102 130 1.89759487674532346e+00
103 130 1.90518788707510556e+00
104 130 1.91247414601092203e+00
105 130 1.91945468455656076e+00
106 130 1.92613066506313602e+00
107 130 1.93250337831946406e+00
108 130 1.93857424054610195e+00
109 130 1.94434479030003393e+00
110 130 1.94981668529702690e+00
111 130 1.95499169915865934e+00
112 130 1.95987171809101546e+00
113 130 1.96445873750199329e+00
114 130 1.96875485856412036e+00
115 130 1.97276228472969151e+00
116 130 1.97648331820495970e+00
117 130 1.97992035638999475e+00
118 130 1.98307588829071291e+00
119 130 1.98595249090944326e+00
120 130 1.98855282562024493e+00
121 130 1.99087963453504035e+00
122 130 1.99293573686645198e+00
123 130 1.99472402529305515e+00
124 130 1.99624746233257433e+00
125 130 1.99750907672834765e+00
126 130 1.99851195985419205e+00
127 130 1.99925926214258554e+00
128 130 1.99975418954087503e+00
129 130 2.00000000000000000e+00
130 130 2.00000000000000000e+00
