%%MatrixMarket matrix coordinate  real general
130 130 16900
1 1 1.00000000000000000e+00
2 1 9.97711771728019947e-01
3 1 9.93206822317559190e-01
4 1 9.88773380040597560e-01
5 1 9.84411444897135501e-01
6 1 9.80121016887172902e-01
7 1 9.75902096010709430e-01
8 1 9.71754682267745529e-01
9 1 9.67678775658280976e-01
10 1 9.63674376182315773e-01
11 1 9.59741483839849918e-01
12 1 9.55880098630883523e-01
13 1 9.52090220555416478e-01
14 1 9.48371849613448781e-01
15 1 9.44724985804980433e-01
16 1 9.41149629130011545e-01
17 1 9.37645779588542005e-01
18 1 9.34213437180571926e-01
19 1 9.30852601906101196e-01
20 1 9.27563273765129814e-01
21 1 9.24345452757657782e-01
22 1 9.21199138883685098e-01
23 1 9.18124332143211985e-01
24 1 9.15121032536238110e-01
25 1 9.12189240062763584e-01
26 1 9.09328954722788407e-01
27 1 9.06540176516312690e-01
28 1 9.03822905443336322e-01
29 1 9.01177141503859302e-01
30 1 8.98602884697881743e-01
31 1 8.96100135025403421e-01
32 1 8.93668892486424449e-01
33 1 8.91309157080944936e-01
34 1 8.89020928808964772e-01
35 1 8.86804207670484068e-01
36 1 8.84658993665502713e-01
37 1 8.82585286794020818e-01
38 1 8.80583087056038161e-01
39 1 8.78652394451554852e-01
40 1 8.76793208980571004e-01
41 1 8.75005530643086615e-01
42 1 8.73289359439101576e-01
43 1 8.71644695368615996e-01
44 1 8.70071538431629654e-01
45 1 8.68569888628142661e-01
46 1 8.67139745958155128e-01
47 1 8.65781110421666944e-01
48 1 8.64493982018678109e-01
49 1 8.63278360749188733e-01
50 1 8.62134246613198707e-01
51 1 8.61061639610708029e-01
52 1 8.60060539741716701e-01
53 1 8.59130947006224721e-01
54 1 8.58272861404232201e-01
55 1 8.57486282935739030e-01
56 1 8.56771211600745319e-01
57 1 8.56127647399250957e-01
58 1 8.55555590331255944e-01
59 1 8.55055040396760280e-01
60 1 8.54625997595763964e-01
61 1 8.54268461928267109e-01
62 1 8.53982433394269602e-01
63 1 8.53767911993771444e-01
64 1 8.53624897726772636e-01
65 1 8.53553390593273287e-01
66 1 8.53553390593273287e-01
67 1 8.53624897726772636e-01
68 1 8.53767911993771333e-01
69 1 8.53982433394269491e-01
70 1 8.54268461928267109e-01
71 1 8.54625997595763964e-01
72 1 8.55055040396760169e-01
73 1 8.55555590331255833e-01
74 1 8.56127647399250846e-01
75 1 8.56771211600745208e-01
76 1 8.57486282935738919e-01
77 1 8.58272861404232090e-01
78 1 8.59130947006224610e-01
79 1 8.60060539741716590e-01
80 1 8.61061639610707918e-01
81 1 8.62134246613198596e-01
82 1 8.63278360749188622e-01
83 1 8.64493982018677998e-01
84 1 8.65781110421666833e-01
85 1 8.67139745958155017e-01
86 1 8.68569888628142550e-01
87 1 8.70071538431629432e-01
88 1 8.71644695368615774e-01
89 1 8.73289359439101465e-01
90 1 8.75005530643086615e-01
91 1 8.76793208980571115e-01
92 1 8.78652394451554963e-01
93 1 8.80583087056038161e-01
94 1 8.82585286794020707e-01
95 1 8.84658993665502602e-01
96 1 8.86804207670483957e-01
97 1 8.89020928808964772e-01
98 1 8.91309157080944936e-01
99 1 8.93668892486424449e-01
100 1 8.96100135025403310e-01
101 1 8.98602884697881521e-01
102 1 9.01177141503859080e-01
103 1 9.03822905443336100e-01
104 1 9.06540176516312468e-01
105 1 9.09328954722788185e-01
106 1 9.12189240062763362e-01
107 1 9.15121032536237888e-01
108 1 9.18124332143211763e-01
109 1 9.21199138883684987e-01
110 1 9.24345452757657671e-01
111 1 9.27563273765129703e-01
112 1 9.30852601906101196e-01
113 1 9.34213437180572037e-01
114 1 9.37645779588542228e-01
115 1 9.41149629130011878e-01
116 1 9.44724985804980766e-01
117 1 9.48371849613449114e-01
118 1 9.52090220555416811e-01
119 1 9.55880098630883857e-01
120 1 9.59741483839850251e-01
121 1 9.63674376182316106e-01
122 1 9.67678775658281198e-01
123 1 9.71754682267745751e-01
124 1 9.75902096010709652e-01
125 1 9.80121016887173013e-01
126 1 9.84411444897135723e-01
127 1 9.88773380040597671e-01
128 1 9.93206822317559079e-01
129 1 9.97711771728019947e-01
130 1 1.00000000000000000e+00
1 2 1.00000000000000000e+00
2 2 9.97711771728020058e-01
3 2 9.93206822317559190e-01
4 2 9.88773380040597671e-01
5 2 9.84411444897135501e-01
6 2 9.80121016887173013e-01
7 2 9.75902096010709541e-01
8 2 9.71754682267745640e-01
9 2 9.67678775658280976e-01
10 2 9.63674376182315884e-01
11 2 9.59741483839849918e-01
12 2 9.55880098630883634e-01
13 2 9.52090220555416478e-01
14 2 9.48371849613448781e-01
15 2 9.44724985804980433e-01
16 2 9.41149629130011656e-01
17 2 9.37645779588542116e-01
18 2 9.34213437180572037e-01
19 2 9.30852601906101307e-01
20 2 9.27563273765129814e-01
21 2 9.24345452757657782e-01
22 2 9.21199138883685209e-01
23 2 9.18124332143211985e-01
24 2 9.15121032536238221e-01
25 2 9.12189240062763584e-01
26 2 9.09328954722788518e-01
27 2 9.06540176516312690e-01
28 2 9.03822905443336433e-01
29 2 9.01177141503859414e-01
30 2 8.98602884697881743e-01
31 2 8.96100135025403421e-01
32 2 8.93668892486424449e-01
33 2 8.91309157080945047e-01
34 2 8.89020928808964883e-01
35 2 8.86804207670484068e-01
36 2 8.84658993665502824e-01
37 2 8.82585286794020929e-01
38 2 8.80583087056038272e-01
39 2 8.78652394451554963e-01
40 2 8.76793208980571004e-01
41 2 8.75005530643086615e-01
42 2 8.73289359439101576e-01
43 2 8.71644695368616107e-01
44 2 8.70071538431629765e-01
45 2 8.68569888628142772e-01
46 2 8.67139745958155128e-01
47 2 8.65781110421667055e-01
48 2 8.64493982018678109e-01
49 2 8.63278360749188844e-01
50 2 8.62134246613198707e-01
51 2 8.61061639610708029e-01
52 2 8.60060539741716812e-01
53 2 8.59130947006224721e-01
54 2 8.58272861404232201e-01
55 2 8.57486282935739030e-01
56 2 8.56771211600745319e-01
57 2 8.56127647399250957e-01
58 2 8.55555590331255944e-01
59 2 8.55055040396760391e-01
60 2 8.54625997595764075e-01
61 2 8.54268461928267109e-01
62 2 8.53982433394269602e-01
63 2 8.53767911993771556e-01
64 2 8.53624897726772747e-01
65 2 8.53553390593273287e-01
66 2 8.53553390593273287e-01
67 2 8.53624897726772747e-01
68 2 8.53767911993771333e-01
69 2 8.53982433394269602e-01
70 2 8.54268461928267109e-01
71 2 8.54625997595764075e-01
72 2 8.55055040396760280e-01
73 2 8.55555590331255944e-01
74 2 8.56127647399250957e-01
75 2 8.56771211600745319e-01
76 2 8.57486282935739030e-01
77 2 8.58272861404232090e-01
78 2 8.59130947006224721e-01
79 2 8.60060539741716701e-01
80 2 8.61061639610708029e-01
81 2 8.62134246613198707e-01
82 2 8.63278360749188733e-01
83 2 8.64493982018678109e-01
84 2 8.65781110421666833e-01
85 2 8.67139745958155128e-01
86 2 8.68569888628142661e-01
87 2 8.70071538431629543e-01
88 2 8.71644695368615885e-01
89 2 8.73289359439101576e-01
90 2 8.75005530643086615e-01
91 2 8.76793208980571226e-01
92 2 8.78652394451554963e-01
93 2 8.80583087056038272e-01
94 2 8.82585286794020818e-01
95 2 8.84658993665502602e-01
96 2 8.86804207670484068e-01
97 2 8.89020928808964883e-01
98 2 8.91309157080945047e-01
99 2 8.93668892486424449e-01
100 2 8.96100135025403421e-01
101 2 8.98602884697881632e-01
102 2 9.01177141503859191e-01
103 2 9.03822905443336211e-01
104 2 9.06540176516312579e-01
105 2 9.09328954722788296e-01
106 2 9.12189240062763362e-01
107 2 9.15121032536237888e-01
108 2 9.18124332143211763e-01
109 2 9.21199138883685098e-01
110 2 9.24345452757657782e-01
111 2 9.27563273765129814e-01
112 2 9.30852601906101307e-01
113 2 9.34213437180572148e-01
114 2 9.37645779588542228e-01
115 2 9.41149629130011878e-01
116 2 9.44724985804980877e-01
117 2 9.48371849613449225e-01
118 2 9.52090220555416922e-01
119 2 9.55880098630883968e-01
120 2 9.59741483839850362e-01
121 2 9.63674376182316106e-01
122 2 9.67678775658281309e-01
123 2 9.71754682267745862e-01
124 2 9.75902096010709763e-01
125 2 9.80121016887173013e-01
126 2 9.84411444897135834e-01
127 2 9.88773380040597782e-01
128 2 9.93206822317559190e-01
129 2 9.97711771728020058e-01
130 2 1.00000000000000000e+00
1 3 1.00000000000000000e+00
2 3 9.97711771728020169e-01
3 3 9.93206822317559301e-01
4 3 9.88773380040597782e-01
5 3 9.84411444897135501e-01
6 3 9.80121016887173013e-01
7 3 9.75902096010709652e-01
8 3 9.71754682267745640e-01
9 3 9.67678775658280976e-01
10 3 9.63674376182315884e-01
11 3 9.59741483839849918e-01
12 3 9.55880098630883634e-01
13 3 9.52090220555416478e-01
14 3 9.48371849613448781e-01
15 3 9.44724985804980433e-01
16 3 9.41149629130011656e-01
17 3 9.37645779588542228e-01
18 3 9.34213437180572148e-01
19 3 9.30852601906101418e-01
20 3 9.27563273765129814e-01
21 3 9.24345452757657782e-01
22 3 9.21199138883685320e-01
23 3 9.18124332143211985e-01
24 3 9.15121032536238221e-01
25 3 9.12189240062763584e-01
26 3 9.09328954722788518e-01
27 3 9.06540176516312579e-01
28 3 9.03822905443336433e-01
29 3 9.01177141503859525e-01
30 3 8.98602884697881743e-01
31 3 8.96100135025403532e-01
32 3 8.93668892486424449e-01
33 3 8.91309157080945047e-01
34 3 8.89020928808964994e-01
35 3 8.86804207670484068e-01
36 3 8.84658993665502935e-01
37 3 8.82585286794020929e-01
38 3 8.80583087056038272e-01
39 3 8.78652394451554963e-01
40 3 8.76793208980571004e-01
41 3 8.75005530643086615e-01
42 3 8.73289359439101576e-01
43 3 8.71644695368616107e-01
44 3 8.70071538431629765e-01
45 3 8.68569888628142772e-01
46 3 8.67139745958155128e-01
47 3 8.65781110421667055e-01
48 3 8.64493982018678109e-01
49 3 8.63278360749188955e-01
50 3 8.62134246613198707e-01
51 3 8.61061639610708029e-01
52 3 8.60060539741716923e-01
53 3 8.59130947006224721e-01
54 3 8.58272861404232090e-01
55 3 8.57486282935739030e-01
56 3 8.56771211600745319e-01
57 3 8.56127647399250957e-01
58 3 8.55555590331255944e-01
59 3 8.55055040396760502e-01
60 3 8.54625997595764186e-01
61 3 8.54268461928267109e-01
62 3 8.53982433394269602e-01
63 3 8.53767911993771556e-01
64 3 8.53624897726772858e-01
65 3 8.53553390593273287e-01
66 3 8.53553390593273287e-01
67 3 8.53624897726772858e-01
68 3 8.53767911993771333e-01
69 3 8.53982433394269491e-01
70 3 8.54268461928267109e-01
71 3 8.54625997595764186e-01
72 3 8.55055040396760280e-01
73 3 8.55555590331255944e-01
74 3 8.56127647399250957e-01
75 3 8.56771211600745319e-01
76 3 8.57486282935739030e-01
77 3 8.58272861404232090e-01
78 3 8.59130947006224721e-01
79 3 8.60060539741716701e-01
80 3 8.61061639610708029e-01
81 3 8.62134246613198707e-01
82 3 8.63278360749188955e-01
83 3 8.64493982018678109e-01
84 3 8.65781110421666833e-01
85 3 8.67139745958155128e-01
86 3 8.68569888628142772e-01
87 3 8.70071538431629543e-01
88 3 8.71644695368615885e-01
89 3 8.73289359439101576e-01
90 3 8.75005530643086615e-01
91 3 8.76793208980571226e-01
92 3 8.78652394451554963e-01
93 3 8.80583087056038272e-01
94 3 8.82585286794020929e-01
95 3 8.84658993665502602e-01
96 3 8.86804207670484068e-01
97 3 8.89020928808964994e-01
98 3 8.91309157080945047e-01
99 3 8.93668892486424449e-01
100 3 8.96100135025403421e-01
101 3 8.98602884697881743e-01
102 3 9.01177141503859191e-01
103 3 9.03822905443336211e-01
104 3 9.06540176516312579e-01
105 3 9.09328954722788296e-01
106 3 9.12189240062763362e-01
107 3 9.15121032536237888e-01
108 3 9.18124332143211763e-01
109 3 9.21199138883685320e-01
110 3 9.24345452757657782e-01
111 3 9.27563273765129814e-01
112 3 9.30852601906101418e-01
113 3 9.34213437180572148e-01
114 3 9.37645779588542228e-01
115 3 9.41149629130011878e-01
116 3 9.44724985804980877e-01
117 3 9.48371849613449225e-01
118 3 9.52090220555417033e-01
119 3 9.55880098630883968e-01
120 3 9.59741483839850362e-01
121 3 9.63674376182316106e-01
122 3 9.67678775658281420e-01
123 3 9.71754682267745862e-01
124 3 9.75902096010709874e-01
125 3 9.80121016887173124e-01
126 3 9.84411444897135945e-01
127 3 9.88773380040597893e-01
128 3 9.93206822317559190e-01
129 3 9.97711771728020169e-01
130 3 1.00000000000000000e+00
1 4 1.00000000000000000e+00
2 4 9.97711771728020058e-01
3 4 9.93206822317559301e-01
4 4 9.88773380040597782e-01
5 4 9.84411444897135501e-01
6 4 9.80121016887173013e-01
7 4 9.75902096010709763e-01
8 4 9.71754682267745640e-01
9 4 9.67678775658280976e-01
10 4 9.63674376182315884e-01
11 4 9.59741483839849918e-01
12 4 9.55880098630883523e-01
13 4 9.52090220555416478e-01
14 4 9.48371849613448781e-01
15 4 9.44724985804980433e-01
16 4 9.41149629130011656e-01
17 4 9.37645779588542228e-01
18 4 9.34213437180572148e-01
19 4 9.30852601906101418e-01
20 4 9.27563273765129814e-01
21 4 9.24345452757657782e-01
22 4 9.21199138883685320e-01
23 4 9.18124332143211985e-01
24 4 9.15121032536238221e-01
25 4 9.12189240062763695e-01
26 4 9.09328954722788518e-01
27 4 9.06540176516312690e-01
28 4 9.03822905443336433e-01
29 4 9.01177141503859636e-01
30 4 8.98602884697881854e-01
31 4 8.96100135025403643e-01
32 4 8.93668892486424449e-01
33 4 8.91309157080945047e-01
34 4 8.89020928808964994e-01
35 4 8.86804207670484068e-01
36 4 8.84658993665502935e-01
37 4 8.82585286794020929e-01
38 4 8.80583087056038272e-01
39 4 8.78652394451554963e-01
40 4 8.76793208980571004e-01
41 4 8.75005530643086615e-01
42 4 8.73289359439101576e-01
43 4 8.71644695368616107e-01
44 4 8.70071538431629765e-01
45 4 8.68569888628142772e-01
46 4 8.67139745958155239e-01
47 4 8.65781110421667055e-01
48 4 8.64493982018678109e-01
49 4 8.63278360749188955e-01
50 4 8.62134246613198707e-01
51 4 8.61061639610708141e-01
52 4 8.60060539741716923e-01
53 4 8.59130947006224721e-01
54 4 8.58272861404232201e-01
55 4 8.57486282935739030e-01
56 4 8.56771211600745430e-01
57 4 8.56127647399250957e-01
58 4 8.55555590331255944e-01
59 4 8.55055040396760391e-01
60 4 8.54625997595764186e-01
61 4 8.54268461928267220e-01
62 4 8.53982433394269602e-01
63 4 8.53767911993771556e-01
64 4 8.53624897726772858e-01
65 4 8.53553390593273287e-01
66 4 8.53553390593273287e-01
67 4 8.53624897726772858e-01
68 4 8.53767911993771333e-01
69 4 8.53982433394269380e-01
70 4 8.54268461928267220e-01
71 4 8.54625997595764186e-01
72 4 8.55055040396760280e-01
73 4 8.55555590331255944e-01
74 4 8.56127647399250735e-01
75 4 8.56771211600745319e-01
76 4 8.57486282935738808e-01
77 4 8.58272861404232090e-01
78 4 8.59130947006224721e-01
79 4 8.60060539741716701e-01
80 4 8.61061639610707918e-01
81 4 8.62134246613198707e-01
82 4 8.63278360749188955e-01
83 4 8.64493982018677998e-01
84 4 8.65781110421666833e-01
85 4 8.67139745958155017e-01
86 4 8.68569888628142772e-01
87 4 8.70071538431629543e-01
88 4 8.71644695368615774e-01
89 4 8.73289359439101576e-01
90 4 8.75005530643086615e-01
91 4 8.76793208980571226e-01
92 4 8.78652394451554963e-01
93 4 8.80583087056038272e-01
94 4 8.82585286794020818e-01
95 4 8.84658993665502713e-01
96 4 8.86804207670484068e-01
97 4 8.89020928808964994e-01
98 4 8.91309157080945047e-01
99 4 8.93668892486424449e-01
100 4 8.96100135025403421e-01
101 4 8.98602884697881743e-01
102 4 9.01177141503859191e-01
103 4 9.03822905443336211e-01
104 4 9.06540176516312579e-01
105 4 9.09328954722788296e-01
106 4 9.12189240062763362e-01
107 4 9.15121032536237999e-01
108 4 9.18124332143211874e-01
109 4 9.21199138883685320e-01
110 4 9.24345452757657782e-01
111 4 9.27563273765129592e-01
112 4 9.30852601906101418e-01
113 4 9.34213437180572148e-01
114 4 9.37645779588542228e-01
115 4 9.41149629130011989e-01
116 4 9.44724985804980988e-01
117 4 9.48371849613449225e-01
118 4 9.52090220555417144e-01
119 4 9.55880098630884079e-01
120 4 9.59741483839850362e-01
121 4 9.63674376182316217e-01
122 4 9.67678775658281420e-01
123 4 9.71754682267745862e-01
124 4 9.75902096010709874e-01
125 4 9.80121016887173124e-01
126 4 9.84411444897135834e-01
127 4 9.88773380040597782e-01
128 4 9.93206822317559190e-01
129 4 9.97711771728020058e-01
130 4 1.00000000000000000e+00
1 5 1.00000000000000000e+00
2 5 9.97711771728020058e-01
3 5 9.93206822317559301e-01
4 5 9.88773380040597782e-01
5 5 9.84411444897135501e-01
6 5 9.80121016887173013e-01
7 5 9.75902096010709874e-01
8 5 9.71754682267745640e-01
9 5 9.67678775658280976e-01
10 5 9.63674376182315884e-01
11 5 9.59741483839849918e-01
12 5 9.55880098630883523e-01
13 5 9.52090220555416589e-01
14 5 9.48371849613448892e-01
15 5 9.44724985804980433e-01
16 5 9.41149629130011656e-01
17 5 9.37645779588542228e-01
18 5 9.34213437180572148e-01
19 5 9.30852601906101418e-01
20 5 9.27563273765129814e-01
21 5 9.24345452757657782e-01
22 5 9.21199138883685320e-01
23 5 9.18124332143211985e-01
24 5 9.15121032536238221e-01
25 5 9.12189240062763806e-01
26 5 9.09328954722788518e-01
27 5 9.06540176516312690e-01
28 5 9.03822905443336433e-01
29 5 9.01177141503859636e-01
30 5 8.98602884697881965e-01
31 5 8.96100135025403643e-01
32 5 8.93668892486424449e-01
33 5 8.91309157080945047e-01
34 5 8.89020928808964994e-01
35 5 8.86804207670484068e-01
36 5 8.84658993665502935e-01
37 5 8.82585286794020929e-01
38 5 8.80583087056038383e-01
39 5 8.78652394451554963e-01
40 5 8.76793208980571004e-01
41 5 8.75005530643086615e-01
42 5 8.73289359439101576e-01
43 5 8.71644695368616107e-01
44 5 8.70071538431629765e-01
45 5 8.68569888628142772e-01
46 5 8.67139745958155239e-01
47 5 8.65781110421667055e-01
48 5 8.64493982018678109e-01
49 5 8.63278360749188955e-01
50 5 8.62134246613198707e-01
51 5 8.61061639610708252e-01
52 5 8.60060539741716923e-01
53 5 8.59130947006224721e-01
54 5 8.58272861404232201e-01
55 5 8.57486282935739141e-01
56 5 8.56771211600745541e-01
57 5 8.56127647399251068e-01
58 5 8.55555590331256055e-01
59 5 8.55055040396760391e-01
60 5 8.54625997595764186e-01
61 5 8.54268461928267220e-01
62 5 8.53982433394269602e-01
63 5 8.53767911993771556e-01
64 5 8.53624897726772969e-01
65 5 8.53553390593273398e-01
66 5 8.53553390593273398e-01
67 5 8.53624897726772969e-01
68 5 8.53767911993771333e-01
69 5 8.53982433394269380e-01
70 5 8.54268461928267220e-01
71 5 8.54625997595764186e-01
72 5 8.55055040396760280e-01
73 5 8.55555590331255944e-01
74 5 8.56127647399250735e-01
75 5 8.56771211600745319e-01
76 5 8.57486282935738808e-01
77 5 8.58272861404232090e-01
78 5 8.59130947006224721e-01
79 5 8.60060539741716701e-01
80 5 8.61061639610707918e-01
81 5 8.62134246613198707e-01
82 5 8.63278360749188955e-01
83 5 8.64493982018677998e-01
84 5 8.65781110421666833e-01
85 5 8.67139745958154906e-01
86 5 8.68569888628142772e-01
87 5 8.70071538431629543e-01
88 5 8.71644695368615774e-01
89 5 8.73289359439101576e-01
90 5 8.75005530643086615e-01
91 5 8.76793208980571226e-01
92 5 8.78652394451554963e-01
93 5 8.80583087056038383e-01
94 5 8.82585286794020818e-01
95 5 8.84658993665502713e-01
96 5 8.86804207670484068e-01
97 5 8.89020928808964994e-01
98 5 8.91309157080945047e-01
99 5 8.93668892486424449e-01
100 5 8.96100135025403421e-01
101 5 8.98602884697881743e-01
102 5 9.01177141503859191e-01
103 5 9.03822905443336211e-01
104 5 9.06540176516312579e-01
105 5 9.09328954722788296e-01
106 5 9.12189240062763473e-01
107 5 9.15121032536237999e-01
108 5 9.18124332143211874e-01
109 5 9.21199138883685320e-01
110 5 9.24345452757657782e-01
111 5 9.27563273765129592e-01
112 5 9.30852601906101418e-01
113 5 9.34213437180572148e-01
114 5 9.37645779588542339e-01
115 5 9.41149629130011989e-01
116 5 9.44724985804981099e-01
117 5 9.48371849613449225e-01
118 5 9.52090220555417144e-01
119 5 9.55880098630884079e-01
120 5 9.59741483839850362e-01
121 5 9.63674376182316217e-01
122 5 9.67678775658281420e-01
123 5 9.71754682267745862e-01
124 5 9.75902096010709874e-01
125 5 9.80121016887173124e-01
126 5 9.84411444897135834e-01
127 5 9.88773380040597782e-01
128 5 9.93206822317559190e-01
129 5 9.97711771728020058e-01
130 5 1.00000000000000000e+00
1 6 1.00000000000000000e+00
2 6 9.97711771728020058e-01
3 6 9.93206822317559301e-01
4 6 9.88773380040597782e-01
5 6 9.84411444897135501e-01
6 6 9.80121016887173013e-01
7 6 9.75902096010709874e-01
8 6 9.71754682267745640e-01
9 6 9.67678775658280976e-01
10 6 9.63674376182315884e-01
11 6 9.59741483839849918e-01
12 6 9.55880098630883634e-01
13 6 9.52090220555416700e-01
14 6 9.48371849613448892e-01
15 6 9.44724985804980433e-01
16 6 9.41149629130011656e-01
17 6 9.37645779588542228e-01
18 6 9.34213437180572259e-01
19 6 9.30852601906101418e-01
20 6 9.27563273765129814e-01
21 6 9.24345452757657893e-01
22 6 9.21199138883685320e-01
23 6 9.18124332143211985e-01
24 6 9.15121032536238221e-01
25 6 9.12189240062763806e-01
26 6 9.09328954722788629e-01
27 6 9.06540176516312690e-01
28 6 9.03822905443336433e-01
29 6 9.01177141503859636e-01
30 6 8.98602884697881965e-01
31 6 8.96100135025403643e-01
32 6 8.93668892486424560e-01
33 6 8.91309157080945158e-01
34 6 8.89020928808964883e-01
35 6 8.86804207670484068e-01
36 6 8.84658993665502935e-01
37 6 8.82585286794021040e-01
38 6 8.80583087056038494e-01
39 6 8.78652394451554963e-01
40 6 8.76793208980571004e-01
41 6 8.75005530643086615e-01
42 6 8.73289359439101576e-01
43 6 8.71644695368616107e-01
44 6 8.70071538431629765e-01
45 6 8.68569888628142772e-01
46 6 8.67139745958155239e-01
47 6 8.65781110421667055e-01
48 6 8.64493982018678220e-01
49 6 8.63278360749189067e-01
50 6 8.62134246613198707e-01
51 6 8.61061639610708252e-01
52 6 8.60060539741717034e-01
53 6 8.59130947006224832e-01
54 6 8.58272861404232201e-01
55 6 8.57486282935739141e-01
56 6 8.56771211600745541e-01
57 6 8.56127647399251068e-01
58 6 8.55555590331256055e-01
59 6 8.55055040396760280e-01
60 6 8.54625997595764075e-01
61 6 8.54268461928267220e-01
62 6 8.53982433394269602e-01
63 6 8.53767911993771556e-01
64 6 8.53624897726772969e-01
65 6 8.53553390593273287e-01
66 6 8.53553390593273287e-01
67 6 8.53624897726772969e-01
68 6 8.53767911993771333e-01
69 6 8.53982433394269380e-01
70 6 8.54268461928267220e-01
71 6 8.54625997595764075e-01
72 6 8.55055040396760280e-01
73 6 8.55555590331255944e-01
74 6 8.56127647399250735e-01
75 6 8.56771211600745319e-01
76 6 8.57486282935738808e-01
77 6 8.58272861404232090e-01
78 6 8.59130947006224832e-01
79 6 8.60060539741716701e-01
80 6 8.61061639610708029e-01
81 6 8.62134246613198707e-01
82 6 8.63278360749189067e-01
83 6 8.64493982018677887e-01
84 6 8.65781110421666944e-01
85 6 8.67139745958154906e-01
86 6 8.68569888628142772e-01
87 6 8.70071538431629543e-01
88 6 8.71644695368615885e-01
89 6 8.73289359439101576e-01
90 6 8.75005530643086615e-01
91 6 8.76793208980571226e-01
92 6 8.78652394451554963e-01
93 6 8.80583087056038494e-01
94 6 8.82585286794020707e-01
95 6 8.84658993665502713e-01
96 6 8.86804207670484068e-01
97 6 8.89020928808964883e-01
98 6 8.91309157080945158e-01
99 6 8.93668892486424560e-01
100 6 8.96100135025403532e-01
101 6 8.98602884697881743e-01
102 6 9.01177141503859191e-01
103 6 9.03822905443336211e-01
104 6 9.06540176516312690e-01
105 6 9.09328954722788296e-01
106 6 9.12189240062763584e-01
107 6 9.15121032536237999e-01
108 6 9.18124332143211874e-01
109 6 9.21199138883685320e-01
110 6 9.24345452757657893e-01
111 6 9.27563273765129592e-01
112 6 9.30852601906101418e-01
113 6 9.34213437180572259e-01
114 6 9.37645779588542339e-01
115 6 9.41149629130011989e-01
116 6 9.44724985804981099e-01
117 6 9.48371849613449225e-01
118 6 9.52090220555417144e-01
119 6 9.55880098630884079e-01
120 6 9.59741483839850362e-01
121 6 9.63674376182316217e-01
122 6 9.67678775658281420e-01
123 6 9.71754682267745862e-01
124 6 9.75902096010709874e-01
125 6 9.80121016887173124e-01
126 6 9.84411444897135945e-01
127 6 9.88773380040597782e-01
128 6 9.93206822317559301e-01
129 6 9.97711771728020058e-01
130 6 1.00000000000000000e+00
1 7 1.00000000000000000e+00
2 7 9.97711771728019947e-01
3 7 9.93206822317559301e-01
4 7 9.88773380040597782e-01
5 7 9.84411444897135501e-01
6 7 9.80121016887173013e-01
7 7 9.75902096010709763e-01
8 7 9.71754682267745640e-01
9 7 9.67678775658280976e-01
10 7 9.63674376182315884e-01
11 7 9.59741483839849918e-01
12 7 9.55880098630883523e-01
13 7 9.52090220555416700e-01
14 7 9.48371849613448892e-01
15 7 9.44724985804980433e-01
16 7 9.41149629130011656e-01
17 7 9.37645779588542228e-01
18 7 9.34213437180572148e-01
19 7 9.30852601906101418e-01
20 7 9.27563273765129814e-01
21 7 9.24345452757657893e-01
22 7 9.21199138883685209e-01
23 7 9.18124332143211985e-01
24 7 9.15121032536238221e-01
25 7 9.12189240062763806e-01
26 7 9.09328954722788518e-01
27 7 9.06540176516312690e-01
28 7 9.03822905443336433e-01
29 7 9.01177141503859636e-01
30 7 8.98602884697881854e-01
31 7 8.96100135025403643e-01
32 7 8.93668892486424449e-01
33 7 8.91309157080945158e-01
34 7 8.89020928808964772e-01
35 7 8.86804207670484068e-01
36 7 8.84658993665502935e-01
37 7 8.82585286794021040e-01
38 7 8.80583087056038494e-01
39 7 8.78652394451554963e-01
40 7 8.76793208980571004e-01
41 7 8.75005530643086615e-01
42 7 8.73289359439101576e-01
43 7 8.71644695368615996e-01
44 7 8.70071538431629765e-01
45 7 8.68569888628142772e-01
46 7 8.67139745958155128e-01
47 7 8.65781110421666944e-01
48 7 8.64493982018678109e-01
49 7 8.63278360749189067e-01
50 7 8.62134246613198707e-01
51 7 8.61061639610708252e-01
52 7 8.60060539741716923e-01
53 7 8.59130947006224832e-01
54 7 8.58272861404232090e-01
55 7 8.57486282935739030e-01
56 7 8.56771211600745541e-01
57 7 8.56127647399250957e-01
58 7 8.55555590331255944e-01
59 7 8.55055040396760280e-01
60 7 8.54625997595763964e-01
61 7 8.54268461928267109e-01
62 7 8.53982433394269602e-01
63 7 8.53767911993771556e-01
64 7 8.53624897726772858e-01
65 7 8.53553390593273287e-01
66 7 8.53553390593273287e-01
67 7 8.53624897726772858e-01
68 7 8.53767911993771333e-01
69 7 8.53982433394269380e-01
70 7 8.54268461928267109e-01
71 7 8.54625997595763964e-01
72 7 8.55055040396760280e-01
73 7 8.55555590331255944e-01
74 7 8.56127647399250735e-01
75 7 8.56771211600745319e-01
76 7 8.57486282935738808e-01
77 7 8.58272861404232090e-01
78 7 8.59130947006224832e-01
79 7 8.60060539741716590e-01
80 7 8.61061639610707918e-01
81 7 8.62134246613198707e-01
82 7 8.63278360749189067e-01
83 7 8.64493982018677887e-01
84 7 8.65781110421666944e-01
85 7 8.67139745958154906e-01
86 7 8.68569888628142772e-01
87 7 8.70071538431629543e-01
88 7 8.71644695368615885e-01
89 7 8.73289359439101576e-01
90 7 8.75005530643086615e-01
91 7 8.76793208980571226e-01
92 7 8.78652394451554963e-01
93 7 8.80583087056038494e-01
94 7 8.82585286794020707e-01
95 7 8.84658993665502713e-01
96 7 8.86804207670484068e-01
97 7 8.89020928808964772e-01
98 7 8.91309157080945158e-01
99 7 8.93668892486424449e-01
100 7 8.96100135025403421e-01
101 7 8.98602884697881743e-01
102 7 9.01177141503859080e-01
103 7 9.03822905443336211e-01
104 7 9.06540176516312579e-01
105 7 9.09328954722788296e-01
106 7 9.12189240062763584e-01
107 7 9.15121032536237999e-01
108 7 9.18124332143211874e-01
109 7 9.21199138883685209e-01
110 7 9.24345452757657782e-01
111 7 9.27563273765129592e-01
112 7 9.30852601906101418e-01
113 7 9.34213437180572148e-01
114 7 9.37645779588542228e-01
115 7 9.41149629130011878e-01
116 7 9.44724985804981099e-01
117 7 9.48371849613449225e-01
118 7 9.52090220555417144e-01
119 7 9.55880098630883968e-01
120 7 9.59741483839850362e-01
121 7 9.63674376182316106e-01
122 7 9.67678775658281420e-01
123 7 9.71754682267745751e-01
124 7 9.75902096010709874e-01
125 7 9.80121016887173124e-01
126 7 9.84411444897135834e-01
127 7 9.88773380040597782e-01
128 7 9.93206822317559301e-01
129 7 9.97711771728019947e-01
130 7 1.00000000000000000e+00
1 8 1.00000000000000000e+00
2 8 9.97711771728019947e-01
3 8 9.93206822317559301e-01
4 8 9.88773380040597893e-01
5 8 9.84411444897135501e-01
6 8 9.80121016887173013e-01
7 8 9.75902096010709763e-01
8 8 9.71754682267745640e-01
9 8 9.67678775658280976e-01
10 8 9.63674376182315773e-01
11 8 9.59741483839849918e-01
12 8 9.55880098630883523e-01
13 8 9.52090220555416700e-01
14 8 9.48371849613449003e-01
15 8 9.44724985804980433e-01
16 8 9.41149629130011656e-01
17 8 9.37645779588542228e-01
18 8 9.34213437180572148e-01
19 8 9.30852601906101418e-01
20 8 9.27563273765129925e-01
21 8 9.24345452757658004e-01
22 8 9.21199138883685209e-01
23 8 9.18124332143211985e-01
24 8 9.15121032536238221e-01
25 8 9.12189240062763806e-01
26 8 9.09328954722788407e-01
27 8 9.06540176516312801e-01
28 8 9.03822905443336433e-01
29 8 9.01177141503859747e-01
30 8 8.98602884697881965e-01
31 8 8.96100135025403755e-01
32 8 8.93668892486424449e-01
33 8 8.91309157080945269e-01
34 8 8.89020928808964883e-01
35 8 8.86804207670484068e-01
36 8 8.84658993665502935e-01
37 8 8.82585286794021151e-01
38 8 8.80583087056038494e-01
39 8 8.78652394451554963e-01
40 8 8.76793208980571004e-01
41 8 8.75005530643086726e-01
42 8 8.73289359439101576e-01
43 8 8.71644695368615996e-01
44 8 8.70071538431629765e-01
45 8 8.68569888628142772e-01
46 8 8.67139745958155128e-01
47 8 8.65781110421666944e-01
48 8 8.64493982018677998e-01
49 8 8.63278360749189067e-01
50 8 8.62134246613198707e-01
51 8 8.61061639610708141e-01
52 8 8.60060539741717034e-01
53 8 8.59130947006224832e-01
54 8 8.58272861404232090e-01
55 8 8.57486282935739030e-01
56 8 8.56771211600745541e-01
57 8 8.56127647399250957e-01
58 8 8.55555590331255944e-01
59 8 8.55055040396760280e-01
60 8 8.54625997595763964e-01
61 8 8.54268461928267109e-01
62 8 8.53982433394269602e-01
63 8 8.53767911993771556e-01
64 8 8.53624897726772858e-01
65 8 8.53553390593273287e-01
66 8 8.53553390593273287e-01
67 8 8.53624897726772858e-01
68 8 8.53767911993771333e-01
69 8 8.53982433394269380e-01
70 8 8.54268461928267109e-01
71 8 8.54625997595763964e-01
72 8 8.55055040396760280e-01
73 8 8.55555590331255944e-01
74 8 8.56127647399250735e-01
75 8 8.56771211600745319e-01
76 8 8.57486282935738808e-01
77 8 8.58272861404232090e-01
78 8 8.59130947006224832e-01
79 8 8.60060539741716590e-01
80 8 8.61061639610707918e-01
81 8 8.62134246613198707e-01
82 8 8.63278360749189067e-01
83 8 8.64493982018677887e-01
84 8 8.65781110421666944e-01
85 8 8.67139745958154906e-01
86 8 8.68569888628142772e-01
87 8 8.70071538431629543e-01
88 8 8.71644695368615885e-01
89 8 8.73289359439101465e-01
90 8 8.75005530643086726e-01
91 8 8.76793208980571115e-01
92 8 8.78652394451554963e-01
93 8 8.80583087056038494e-01
94 8 8.82585286794020818e-01
95 8 8.84658993665502824e-01
96 8 8.86804207670484068e-01
97 8 8.89020928808964883e-01
98 8 8.91309157080945269e-01
99 8 8.93668892486424449e-01
100 8 8.96100135025403532e-01
101 8 8.98602884697881743e-01
102 8 9.01177141503859080e-01
103 8 9.03822905443336211e-01
104 8 9.06540176516312579e-01
105 8 9.09328954722788407e-01
106 8 9.12189240062763584e-01
107 8 9.15121032536237999e-01
108 8 9.18124332143211985e-01
109 8 9.21199138883685209e-01
110 8 9.24345452757657782e-01
111 8 9.27563273765129592e-01
112 8 9.30852601906101418e-01
113 8 9.34213437180572148e-01
114 8 9.37645779588542228e-01
115 8 9.41149629130011989e-01
116 8 9.44724985804981099e-01
117 8 9.48371849613449225e-01
118 8 9.52090220555417144e-01
119 8 9.55880098630883968e-01
120 8 9.59741483839850362e-01
121 8 9.63674376182316217e-01
122 8 9.67678775658281420e-01
123 8 9.71754682267745751e-01
124 8 9.75902096010709874e-01
125 8 9.80121016887173235e-01
126 8 9.84411444897135834e-01
127 8 9.88773380040597893e-01
128 8 9.93206822317559301e-01
129 8 9.97711771728019947e-01
130 8 1.00000000000000000e+00
1 9 1.00000000000000000e+00
2 9 9.97711771728019947e-01
3 9 9.93206822317559412e-01
4 9 9.88773380040597893e-01
5 9 9.84411444897135612e-01
6 9 9.80121016887173013e-01
7 9 9.75902096010709874e-01
8 9 9.71754682267745640e-01
9 9 9.67678775658280976e-01
10 9 9.63674376182315773e-01
11 9 9.59741483839849918e-01
12 9 9.55880098630883523e-01
13 9 9.52090220555416700e-01
14 9 9.48371849613449114e-01
15 9 9.44724985804980544e-01
16 9 9.41149629130011656e-01
17 9 9.37645779588542339e-01
18 9 9.34213437180572148e-01
19 9 9.30852601906101418e-01
20 9 9.27563273765129925e-01
21 9 9.24345452757658004e-01
22 9 9.21199138883685320e-01
23 9 9.18124332143212096e-01
24 9 9.15121032536238221e-01
25 9 9.12189240062763917e-01
26 9 9.09328954722788407e-01
27 9 9.06540176516312801e-01
28 9 9.03822905443336544e-01
29 9 9.01177141503859858e-01
30 9 8.98602884697881965e-01
31 9 8.96100135025403866e-01
32 9 8.93668892486424449e-01
33 9 8.91309157080945269e-01
34 9 8.89020928808964994e-01
35 9 8.86804207670484068e-01
36 9 8.84658993665502935e-01
37 9 8.82585286794021151e-01
38 9 8.80583087056038494e-01
39 9 8.78652394451555074e-01
40 9 8.76793208980571004e-01
41 9 8.75005530643086726e-01
42 9 8.73289359439101576e-01
43 9 8.71644695368615996e-01
44 9 8.70071538431629765e-01
45 9 8.68569888628142772e-01
46 9 8.67139745958155128e-01
47 9 8.65781110421666944e-01
48 9 8.64493982018677998e-01
49 9 8.63278360749189067e-01
50 9 8.62134246613198818e-01
51 9 8.61061639610708141e-01
52 9 8.60060539741717034e-01
53 9 8.59130947006224943e-01
54 9 8.58272861404232090e-01
55 9 8.57486282935739030e-01
56 9 8.56771211600745541e-01
57 9 8.56127647399250957e-01
58 9 8.55555590331256055e-01
59 9 8.55055040396760280e-01
60 9 8.54625997595764075e-01
61 9 8.54268461928267220e-01
62 9 8.53982433394269602e-01
63 9 8.53767911993771556e-01
64 9 8.53624897726772858e-01
65 9 8.53553390593273398e-01
66 9 8.53553390593273398e-01
67 9 8.53624897726772858e-01
68 9 8.53767911993771444e-01
69 9 8.53982433394269380e-01
70 9 8.54268461928267220e-01
71 9 8.54625997595764075e-01
72 9 8.55055040396760280e-01
73 9 8.55555590331255944e-01
74 9 8.56127647399250735e-01
75 9 8.56771211600745319e-01
76 9 8.57486282935738919e-01
77 9 8.58272861404232090e-01
78 9 8.59130947006224943e-01
79 9 8.60060539741716701e-01
80 9 8.61061639610707918e-01
81 9 8.62134246613198818e-01
82 9 8.63278360749189067e-01
83 9 8.64493982018677887e-01
84 9 8.65781110421666944e-01
85 9 8.67139745958155017e-01
86 9 8.68569888628142772e-01
87 9 8.70071538431629543e-01
88 9 8.71644695368615885e-01
89 9 8.73289359439101465e-01
90 9 8.75005530643086726e-01
91 9 8.76793208980571115e-01
92 9 8.78652394451555074e-01
93 9 8.80583087056038494e-01
94 9 8.82585286794020929e-01
95 9 8.84658993665502824e-01
96 9 8.86804207670484068e-01
97 9 8.89020928808964994e-01
98 9 8.91309157080945269e-01
99 9 8.93668892486424449e-01
100 9 8.96100135025403532e-01
101 9 8.98602884697881743e-01
102 9 9.01177141503859080e-01
103 9 9.03822905443336211e-01
104 9 9.06540176516312579e-01
105 9 9.09328954722788407e-01
106 9 9.12189240062763584e-01
107 9 9.15121032536237999e-01
108 9 9.18124332143212096e-01
109 9 9.21199138883685320e-01
110 9 9.24345452757657782e-01
111 9 9.27563273765129703e-01
112 9 9.30852601906101418e-01
113 9 9.34213437180572148e-01
114 9 9.37645779588542339e-01
115 9 9.41149629130012100e-01
116 9 9.44724985804981099e-01
117 9 9.48371849613449225e-01
118 9 9.52090220555417144e-01
119 9 9.55880098630883968e-01
120 9 9.59741483839850362e-01
121 9 9.63674376182316328e-01
122 9 9.67678775658281420e-01
123 9 9.71754682267745862e-01
124 9 9.75902096010709985e-01
125 9 9.80121016887173235e-01
126 9 9.84411444897135834e-01
127 9 9.88773380040597893e-01
128 9 9.93206822317559412e-01
129 9 9.97711771728019947e-01
130 9 1.00000000000000000e+00
1 10 1.00000000000000000e+00
2 10 9.97711771728020058e-01
3 10 9.93206822317559412e-01
4 10 9.88773380040597893e-01
5 10 9.84411444897135723e-01
6 10 9.80121016887173124e-01
7 10 9.75902096010709985e-01
8 10 9.71754682267745640e-01
9 10 9.67678775658281087e-01
10 10 9.63674376182315773e-01
11 10 9.59741483839849918e-01
12 10 9.55880098630883523e-01
13 10 9.52090220555416700e-01
14 10 9.48371849613449114e-01
15 10 9.44724985804980544e-01
16 10 9.41149629130011656e-01
17 10 9.37645779588542339e-01
18 10 9.34213437180572148e-01
19 10 9.30852601906101418e-01
20 10 9.27563273765130036e-01
21 10 9.24345452757658004e-01
22 10 9.21199138883685431e-01
23 10 9.18124332143212207e-01
24 10 9.15121032536238221e-01
25 10 9.12189240062764028e-01
26 10 9.09328954722788518e-01
27 10 9.06540176516312912e-01
28 10 9.03822905443336655e-01
29 10 9.01177141503859858e-01
30 10 8.98602884697881965e-01
31 10 8.96100135025403866e-01
32 10 8.93668892486424449e-01
33 10 8.91309157080945269e-01
34 10 8.89020928808965105e-01
35 10 8.86804207670484179e-01
36 10 8.84658993665503046e-01
37 10 8.82585286794021151e-01
38 10 8.80583087056038494e-01
39 10 8.78652394451555074e-01
40 10 8.76793208980571004e-01
41 10 8.75005530643086837e-01
42 10 8.73289359439101687e-01
43 10 8.71644695368616107e-01
44 10 8.70071538431629765e-01
45 10 8.68569888628142772e-01
46 10 8.67139745958155239e-01
47 10 8.65781110421666944e-01
48 10 8.64493982018678109e-01
49 10 8.63278360749189067e-01
50 10 8.62134246613198929e-01
51 10 8.61061639610708141e-01
52 10 8.60060539741717145e-01
53 10 8.59130947006224943e-01
54 10 8.58272861404232201e-01
55 10 8.57486282935739141e-01
56 10 8.56771211600745541e-01
57 10 8.56127647399250957e-01
58 10 8.55555590331256055e-01
59 10 8.55055040396760391e-01
60 10 8.54625997595764186e-01
61 10 8.54268461928267220e-01
62 10 8.53982433394269602e-01
63 10 8.53767911993771556e-01
64 10 8.53624897726772858e-01
65 10 8.53553390593273398e-01
66 10 8.53553390593273398e-01
67 10 8.53624897726772858e-01
68 10 8.53767911993771444e-01
69 10 8.53982433394269491e-01
70 10 8.54268461928267220e-01
71 10 8.54625997595764186e-01
72 10 8.55055040396760391e-01
73 10 8.55555590331255944e-01
74 10 8.56127647399250735e-01
75 10 8.56771211600745319e-01
76 10 8.57486282935738919e-01
77 10 8.58272861404232201e-01
78 10 8.59130947006224943e-01
79 10 8.60060539741716701e-01
80 10 8.61061639610708029e-01
81 10 8.62134246613198818e-01
82 10 8.63278360749189067e-01
83 10 8.64493982018677887e-01
84 10 8.65781110421666833e-01
85 10 8.67139745958155128e-01
86 10 8.68569888628142772e-01
87 10 8.70071538431629543e-01
88 10 8.71644695368615885e-01
89 10 8.73289359439101465e-01
90 10 8.75005530643086837e-01
91 10 8.76793208980571115e-01
92 10 8.78652394451555074e-01
93 10 8.80583087056038494e-01
94 10 8.82585286794020929e-01
95 10 8.84658993665502935e-01
96 10 8.86804207670484179e-01
97 10 8.89020928808965105e-01
98 10 8.91309157080945269e-01
99 10 8.93668892486424449e-01
100 10 8.96100135025403643e-01
101 10 8.98602884697881743e-01
102 10 9.01177141503859191e-01
103 10 9.03822905443336211e-01
104 10 9.06540176516312690e-01
105 10 9.09328954722788407e-01
106 10 9.12189240062763584e-01
107 10 9.15121032536237999e-01
108 10 9.18124332143212207e-01
109 10 9.21199138883685431e-01
110 10 9.24345452757657782e-01
111 10 9.27563273765129814e-01
112 10 9.30852601906101418e-01
113 10 9.34213437180572148e-01
114 10 9.37645779588542339e-01
115 10 9.41149629130012100e-01
116 10 9.44724985804981099e-01
117 10 9.48371849613449225e-01
118 10 9.52090220555417144e-01
119 10 9.55880098630884079e-01
120 10 9.59741483839850473e-01
121 10 9.63674376182316328e-01
122 10 9.67678775658281420e-01
123 10 9.71754682267745862e-01
124 10 9.75902096010709985e-01
125 10 9.80121016887173235e-01
126 10 9.84411444897135834e-01
127 10 9.88773380040597893e-01
128 10 9.93206822317559412e-01
129 10 9.97711771728020058e-01
130 10 1.00000000000000000e+00
1 11 1.00000000000000000e+00
2 11 9.97711771728019947e-01
3 11 9.93206822317559412e-01
4 11 9.88773380040597782e-01
5 11 9.84411444897135612e-01
6 11 9.80121016887173013e-01
7 11 9.75902096010709874e-01
8 11 9.71754682267745640e-01
9 11 9.67678775658280976e-01
10 11 9.63674376182315773e-01
11 11 9.59741483839849918e-01
12 11 9.55880098630883523e-01
13 11 9.52090220555416700e-01
14 11 9.48371849613449114e-01
15 11 9.44724985804980544e-01
16 11 9.41149629130011656e-01
17 11 9.37645779588542228e-01
18 11 9.34213437180572148e-01
19 11 9.30852601906101307e-01
20 11 9.27563273765129925e-01
21 11 9.24345452757658004e-01
22 11 9.21199138883685320e-01
23 11 9.18124332143212207e-01
24 11 9.15121032536238221e-01
25 11 9.12189240062763917e-01
26 11 9.09328954722788518e-01
27 11 9.06540176516312912e-01
28 11 9.03822905443336544e-01
29 11 9.01177141503859747e-01
30 11 8.98602884697881965e-01
31 11 8.96100135025403755e-01
32 11 8.93668892486424449e-01
33 11 8.91309157080945269e-01
34 11 8.89020928808964994e-01
35 11 8.86804207670484179e-01
36 11 8.84658993665503046e-01
37 11 8.82585286794021151e-01
38 11 8.80583087056038494e-01
39 11 8.78652394451554963e-01
40 11 8.76793208980570893e-01
41 11 8.75005530643086726e-01
42 11 8.73289359439101576e-01
43 11 8.71644695368615996e-01
44 11 8.70071538431629654e-01
45 11 8.68569888628142661e-01
46 11 8.67139745958155128e-01
47 11 8.65781110421666833e-01
48 11 8.64493982018678109e-01
49 11 8.63278360749189067e-01
50 11 8.62134246613198929e-01
51 11 8.61061639610708029e-01
52 11 8.60060539741717145e-01
53 11 8.59130947006224943e-01
54 11 8.58272861404232090e-01
55 11 8.57486282935739030e-01
56 11 8.56771211600745541e-01
57 11 8.56127647399250957e-01
58 11 8.55555590331255944e-01
59 11 8.55055040396760280e-01
60 11 8.54625997595764075e-01
61 11 8.54268461928267220e-01
62 11 8.53982433394269491e-01
63 11 8.53767911993771444e-01
64 11 8.53624897726772747e-01
65 11 8.53553390593273287e-01
66 11 8.53553390593273287e-01
67 11 8.53624897726772747e-01
68 11 8.53767911993771444e-01
69 11 8.53982433394269380e-01
70 11 8.54268461928267220e-01
71 11 8.54625997595764075e-01
72 11 8.55055040396760280e-01
73 11 8.55555590331255833e-01
74 11 8.56127647399250735e-01
75 11 8.56771211600745208e-01
76 11 8.57486282935738919e-01
77 11 8.58272861404232090e-01
78 11 8.59130947006224943e-01
79 11 8.60060539741716701e-01
80 11 8.61061639610708029e-01
81 11 8.62134246613198818e-01
82 11 8.63278360749189067e-01
83 11 8.64493982018677887e-01
84 11 8.65781110421666833e-01
85 11 8.67139745958155017e-01
86 11 8.68569888628142661e-01
87 11 8.70071538431629543e-01
88 11 8.71644695368615885e-01
89 11 8.73289359439101354e-01
90 11 8.75005530643086726e-01
91 11 8.76793208980571004e-01
92 11 8.78652394451554963e-01
93 11 8.80583087056038494e-01
94 11 8.82585286794020929e-01
95 11 8.84658993665502935e-01
96 11 8.86804207670484179e-01
97 11 8.89020928808964994e-01
98 11 8.91309157080945269e-01
99 11 8.93668892486424449e-01
100 11 8.96100135025403643e-01
101 11 8.98602884697881743e-01
102 11 9.01177141503859191e-01
103 11 9.03822905443336211e-01
104 11 9.06540176516312579e-01
105 11 9.09328954722788296e-01
106 11 9.12189240062763584e-01
107 11 9.15121032536237888e-01
108 11 9.18124332143212207e-01
109 11 9.21199138883685320e-01
110 11 9.24345452757657782e-01
111 11 9.27563273765129814e-01
112 11 9.30852601906101307e-01
113 11 9.34213437180572148e-01
114 11 9.37645779588542339e-01
115 11 9.41149629130012100e-01
116 11 9.44724985804981099e-01
117 11 9.48371849613449225e-01
118 11 9.52090220555417144e-01
119 11 9.55880098630883968e-01
120 11 9.59741483839850362e-01
121 11 9.63674376182316328e-01
122 11 9.67678775658281309e-01
123 11 9.71754682267745862e-01
124 11 9.75902096010709874e-01
125 11 9.80121016887173235e-01
126 11 9.84411444897135834e-01
127 11 9.88773380040597893e-01
128 11 9.93206822317559412e-01
129 11 9.97711771728019947e-01
130 11 1.00000000000000000e+00
1 12 1.00000000000000000e+00
2 12 9.97711771728019947e-01
3 12 9.93206822317559523e-01
4 12 9.88773380040597893e-01
5 12 9.84411444897135723e-01
6 12 9.80121016887173013e-01
7 12 9.75902096010709874e-01
8 12 9.71754682267745751e-01
9 12 9.67678775658280976e-01
10 12 9.63674376182315773e-01
11 12 9.59741483839850029e-01
12 12 9.55880098630883523e-01
13 12 9.52090220555416700e-01
14 12 9.48371849613449225e-01
15 12 9.44724985804980655e-01
16 12 9.41149629130011656e-01
17 12 9.37645779588542228e-01
18 12 9.34213437180572259e-01
19 12 9.30852601906101418e-01
20 12 9.27563273765129925e-01
21 12 9.24345452757658004e-01
22 12 9.21199138883685320e-01
23 12 9.18124332143212429e-01
24 12 9.15121032536238221e-01
25 12 9.12189240062764028e-01
26 12 9.09328954722788740e-01
27 12 9.06540176516313023e-01
28 12 9.03822905443336655e-01
29 12 9.01177141503859747e-01
30 12 8.98602884697881965e-01
31 12 8.96100135025403866e-01
32 12 8.93668892486424449e-01
33 12 8.91309157080945269e-01
34 12 8.89020928808964994e-01
35 12 8.86804207670484290e-01
36 12 8.84658993665503157e-01
37 12 8.82585286794021151e-01
38 12 8.80583087056038605e-01
39 12 8.78652394451554963e-01
40 12 8.76793208980571004e-01
41 12 8.75005530643086837e-01
42 12 8.73289359439101576e-01
43 12 8.71644695368616107e-01
44 12 8.70071538431629654e-01
45 12 8.68569888628142772e-01
46 12 8.67139745958155128e-01
47 12 8.65781110421666944e-01
48 12 8.64493982018678220e-01
49 12 8.63278360749189178e-01
50 12 8.62134246613199040e-01
51 12 8.61061639610708141e-01
52 12 8.60060539741717145e-01
53 12 8.59130947006225165e-01
54 12 8.58272861404232090e-01
55 12 8.57486282935739030e-01
56 12 8.56771211600745541e-01
57 12 8.56127647399250957e-01
58 12 8.55555590331255944e-01
59 12 8.55055040396760280e-01
60 12 8.54625997595764075e-01
61 12 8.54268461928267220e-01
62 12 8.53982433394269602e-01
63 12 8.53767911993771556e-01
64 12 8.53624897726772858e-01
65 12 8.53553390593273287e-01
66 12 8.53553390593273287e-01
67 12 8.53624897726772858e-01
68 12 8.53767911993771556e-01
69 12 8.53982433394269380e-01
70 12 8.54268461928267220e-01
71 12 8.54625997595764075e-01
72 12 8.55055040396760280e-01
73 12 8.55555590331255944e-01
74 12 8.56127647399250735e-01
75 12 8.56771211600745319e-01
76 12 8.57486282935739030e-01
77 12 8.58272861404232090e-01
78 12 8.59130947006224943e-01
79 12 8.60060539741716812e-01
80 12 8.61061639610708029e-01
81 12 8.62134246613198929e-01
82 12 8.63278360749189178e-01
83 12 8.64493982018677887e-01
84 12 8.65781110421666944e-01
85 12 8.67139745958155017e-01
86 12 8.68569888628142772e-01
87 12 8.70071538431629543e-01
88 12 8.71644695368615885e-01
89 12 8.73289359439101354e-01
90 12 8.75005530643086837e-01
91 12 8.76793208980571115e-01
92 12 8.78652394451554963e-01
93 12 8.80583087056038605e-01
94 12 8.82585286794020929e-01
95 12 8.84658993665502935e-01
96 12 8.86804207670484290e-01
97 12 8.89020928808964994e-01
98 12 8.91309157080945269e-01
99 12 8.93668892486424449e-01
100 12 8.96100135025403755e-01
101 12 8.98602884697881743e-01
102 12 9.01177141503859191e-01
103 12 9.03822905443336211e-01
104 12 9.06540176516312690e-01
105 12 9.09328954722788296e-01
106 12 9.12189240062763584e-01
107 12 9.15121032536237999e-01
108 12 9.18124332143212207e-01
109 12 9.21199138883685320e-01
110 12 9.24345452757657893e-01
111 12 9.27563273765129814e-01
112 12 9.30852601906101418e-01
113 12 9.34213437180572259e-01
114 12 9.37645779588542339e-01
115 12 9.41149629130012100e-01
116 12 9.44724985804981210e-01
117 12 9.48371849613449336e-01
118 12 9.52090220555417255e-01
119 12 9.55880098630883968e-01
120 12 9.59741483839850362e-01
121 12 9.63674376182316439e-01
122 12 9.67678775658281420e-01
123 12 9.71754682267745973e-01
124 12 9.75902096010709985e-01
125 12 9.80121016887173346e-01
126 12 9.84411444897135945e-01
127 12 9.88773380040598004e-01
128 12 9.93206822317559523e-01
129 12 9.97711771728019947e-01
130 12 1.00000000000000000e+00
1 13 1.00000000000000000e+00
2 13 9.97711771728019947e-01
3 13 9.93206822317559523e-01
4 13 9.88773380040597893e-01
5 13 9.84411444897135723e-01
6 13 9.80121016887173124e-01
7 13 9.75902096010709874e-01
8 13 9.71754682267745751e-01
9 13 9.67678775658280976e-01
10 13 9.63674376182315662e-01
11 13 9.59741483839849918e-01
12 13 9.55880098630883523e-01
13 13 9.52090220555416811e-01
14 13 9.48371849613449225e-01
15 13 9.44724985804980655e-01
16 13 9.41149629130011656e-01
17 13 9.37645779588542228e-01
18 13 9.34213437180572259e-01
19 13 9.30852601906101307e-01
20 13 9.27563273765129925e-01
21 13 9.24345452757658004e-01
22 13 9.21199138883685320e-01
23 13 9.18124332143212429e-01
24 13 9.15121032536238332e-01
25 13 9.12189240062764028e-01
26 13 9.09328954722788740e-01
27 13 9.06540176516313023e-01
28 13 9.03822905443336655e-01
29 13 9.01177141503859747e-01
30 13 8.98602884697881965e-01
31 13 8.96100135025403866e-01
32 13 8.93668892486424449e-01
33 13 8.91309157080945269e-01
34 13 8.89020928808964994e-01
35 13 8.86804207670484290e-01
36 13 8.84658993665503157e-01
37 13 8.82585286794021151e-01
38 13 8.80583087056038605e-01
39 13 8.78652394451554963e-01
40 13 8.76793208980571004e-01
41 13 8.75005530643086837e-01
42 13 8.73289359439101576e-01
43 13 8.71644695368616107e-01
44 13 8.70071538431629654e-01
45 13 8.68569888628142883e-01
46 13 8.67139745958155128e-01
47 13 8.65781110421666944e-01
48 13 8.64493982018678220e-01
49 13 8.63278360749189178e-01
50 13 8.62134246613199040e-01
51 13 8.61061639610708141e-01
52 13 8.60060539741717145e-01
53 13 8.59130947006225165e-01
54 13 8.58272861404232090e-01
55 13 8.57486282935739030e-01
56 13 8.56771211600745541e-01
57 13 8.56127647399250957e-01
58 13 8.55555590331255944e-01
59 13 8.55055040396760280e-01
60 13 8.54625997595764075e-01
61 13 8.54268461928267220e-01
62 13 8.53982433394269491e-01
63 13 8.53767911993771556e-01
64 13 8.53624897726772858e-01
65 13 8.53553390593273287e-01
66 13 8.53553390593273287e-01
67 13 8.53624897726772858e-01
68 13 8.53767911993771556e-01
69 13 8.53982433394269380e-01
70 13 8.54268461928267220e-01
71 13 8.54625997595764075e-01
72 13 8.55055040396760280e-01
73 13 8.55555590331255944e-01
74 13 8.56127647399250846e-01
75 13 8.56771211600745319e-01
76 13 8.57486282935739030e-01
77 13 8.58272861404232090e-01
78 13 8.59130947006224943e-01
79 13 8.60060539741716701e-01
80 13 8.61061639610708029e-01
81 13 8.62134246613198929e-01
82 13 8.63278360749189178e-01
83 13 8.64493982018677887e-01
84 13 8.65781110421666833e-01
85 13 8.67139745958155017e-01
86 13 8.68569888628142883e-01
87 13 8.70071538431629543e-01
88 13 8.71644695368615885e-01
89 13 8.73289359439101354e-01
90 13 8.75005530643086837e-01
91 13 8.76793208980571004e-01
92 13 8.78652394451555074e-01
93 13 8.80583087056038605e-01
94 13 8.82585286794020929e-01
95 13 8.84658993665502935e-01
96 13 8.86804207670484290e-01
97 13 8.89020928808964994e-01
98 13 8.91309157080945269e-01
99 13 8.93668892486424449e-01
100 13 8.96100135025403755e-01
101 13 8.98602884697881743e-01
102 13 9.01177141503859302e-01
103 13 9.03822905443336211e-01
104 13 9.06540176516312690e-01
105 13 9.09328954722788296e-01
106 13 9.12189240062763584e-01
107 13 9.15121032536237999e-01
108 13 9.18124332143212207e-01
109 13 9.21199138883685320e-01
110 13 9.24345452757657893e-01
111 13 9.27563273765129814e-01
112 13 9.30852601906101307e-01
113 13 9.34213437180572259e-01
114 13 9.37645779588542339e-01
115 13 9.41149629130012100e-01
116 13 9.44724985804981210e-01
117 13 9.48371849613449336e-01
118 13 9.52090220555417255e-01
119 13 9.55880098630883968e-01
120 13 9.59741483839850362e-01
121 13 9.63674376182316439e-01
122 13 9.67678775658281420e-01
123 13 9.71754682267745862e-01
124 13 9.75902096010709985e-01
125 13 9.80121016887173346e-01
126 13 9.84411444897135945e-01
127 13 9.88773380040598004e-01
128 13 9.93206822317559523e-01
129 13 9.97711771728019947e-01
130 13 1.00000000000000000e+00
1 14 1.00000000000000000e+00
2 14 9.97711771728019947e-01
3 14 9.93206822317559523e-01
4 14 9.88773380040597893e-01
5 14 9.84411444897135723e-01
6 14 9.80121016887173124e-01
7 14 9.75902096010709874e-01
8 14 9.71754682267745751e-01
9 14 9.67678775658280976e-01
10 14 9.63674376182315662e-01
11 14 9.59741483839849918e-01
12 14 9.55880098630883523e-01
13 14 9.52090220555416811e-01
14 14 9.48371849613449225e-01
15 14 9.44724985804980655e-01
16 14 9.41149629130011656e-01
17 14 9.37645779588542228e-01
18 14 9.34213437180572259e-01
19 14 9.30852601906101307e-01
20 14 9.27563273765129925e-01
21 14 9.24345452757658004e-01
22 14 9.21199138883685320e-01
23 14 9.18124332143212429e-01
24 14 9.15121032536238332e-01
25 14 9.12189240062764028e-01
26 14 9.09328954722788740e-01
27 14 9.06540176516313023e-01
28 14 9.03822905443336655e-01
29 14 9.01177141503859747e-01
30 14 8.98602884697881965e-01
31 14 8.96100135025403755e-01
32 14 8.93668892486424449e-01
33 14 8.91309157080945269e-01
34 14 8.89020928808964994e-01
35 14 8.86804207670484290e-01
36 14 8.84658993665503157e-01
37 14 8.82585286794021262e-01
38 14 8.80583087056038716e-01
39 14 8.78652394451554963e-01
40 14 8.76793208980571004e-01
41 14 8.75005530643086837e-01
42 14 8.73289359439101576e-01
43 14 8.71644695368616107e-01
44 14 8.70071538431629654e-01
45 14 8.68569888628142994e-01
46 14 8.67139745958155128e-01
47 14 8.65781110421666944e-01
48 14 8.64493982018678220e-01
49 14 8.63278360749189178e-01
50 14 8.62134246613199040e-01
51 14 8.61061639610708141e-01
52 14 8.60060539741717145e-01
53 14 8.59130947006225165e-01
54 14 8.58272861404232090e-01
55 14 8.57486282935739030e-01
56 14 8.56771211600745541e-01
57 14 8.56127647399250957e-01
58 14 8.55555590331255944e-01
59 14 8.55055040396760280e-01
60 14 8.54625997595764186e-01
61 14 8.54268461928267220e-01
62 14 8.53982433394269491e-01
63 14 8.53767911993771556e-01
64 14 8.53624897726772858e-01
65 14 8.53553390593273176e-01
66 14 8.53553390593273176e-01
67 14 8.53624897726772858e-01
68 14 8.53767911993771556e-01
69 14 8.53982433394269380e-01
70 14 8.54268461928267220e-01
71 14 8.54625997595764186e-01
72 14 8.55055040396760280e-01
73 14 8.55555590331255944e-01
74 14 8.56127647399250846e-01
75 14 8.56771211600745430e-01
76 14 8.57486282935739030e-01
77 14 8.58272861404232090e-01
78 14 8.59130947006224943e-01
79 14 8.60060539741716701e-01
80 14 8.61061639610708029e-01
81 14 8.62134246613198929e-01
82 14 8.63278360749189178e-01
83 14 8.64493982018677887e-01
84 14 8.65781110421666833e-01
85 14 8.67139745958155017e-01
86 14 8.68569888628142883e-01
87 14 8.70071538431629543e-01
88 14 8.71644695368615885e-01
89 14 8.73289359439101465e-01
90 14 8.75005530643086837e-01
91 14 8.76793208980571004e-01
92 14 8.78652394451555074e-01
93 14 8.80583087056038716e-01
94 14 8.82585286794020929e-01
95 14 8.84658993665503046e-01
96 14 8.86804207670484290e-01
97 14 8.89020928808964994e-01
98 14 8.91309157080945269e-01
99 14 8.93668892486424449e-01
100 14 8.96100135025403755e-01
101 14 8.98602884697881743e-01
102 14 9.01177141503859302e-01
103 14 9.03822905443336211e-01
104 14 9.06540176516312690e-01
105 14 9.09328954722788296e-01
106 14 9.12189240062763584e-01
107 14 9.15121032536237999e-01
108 14 9.18124332143212207e-01
109 14 9.21199138883685320e-01
110 14 9.24345452757657893e-01
111 14 9.27563273765129814e-01
112 14 9.30852601906101307e-01
113 14 9.34213437180572259e-01
114 14 9.37645779588542339e-01
115 14 9.41149629130012100e-01
116 14 9.44724985804981210e-01
117 14 9.48371849613449336e-01
118 14 9.52090220555417255e-01
119 14 9.55880098630884079e-01
120 14 9.59741483839850473e-01
121 14 9.63674376182316439e-01
122 14 9.67678775658281420e-01
123 14 9.71754682267745862e-01
124 14 9.75902096010709985e-01
125 14 9.80121016887173457e-01
126 14 9.84411444897135945e-01
127 14 9.88773380040598004e-01
128 14 9.93206822317559523e-01
129 14 9.97711771728019947e-01
130 14 1.00000000000000000e+00
1 15 1.00000000000000000e+00
2 15 9.97711771728019947e-01
3 15 9.93206822317559523e-01
4 15 9.88773380040597782e-01
5 15 9.84411444897135723e-01
6 15 9.80121016887173124e-01
7 15 9.75902096010709874e-01
8 15 9.71754682267745640e-01
9 15 9.67678775658280976e-01
10 15 9.63674376182315662e-01
11 15 9.59741483839849918e-01
12 15 9.55880098630883523e-01
13 15 9.52090220555416811e-01
14 15 9.48371849613449225e-01
15 15 9.44724985804980655e-01
16 15 9.41149629130011656e-01
17 15 9.37645779588542228e-01
18 15 9.34213437180572148e-01
19 15 9.30852601906101307e-01
20 15 9.27563273765129925e-01
21 15 9.24345452757657893e-01
22 15 9.21199138883685320e-01
23 15 9.18124332143212318e-01
24 15 9.15121032536238221e-01
25 15 9.12189240062763917e-01
26 15 9.09328954722788629e-01
27 15 9.06540176516312912e-01
28 15 9.03822905443336655e-01
29 15 9.01177141503859636e-01
30 15 8.98602884697881965e-01
31 15 8.96100135025403755e-01
32 15 8.93668892486424449e-01
33 15 8.91309157080945269e-01
34 15 8.89020928808964883e-01
35 15 8.86804207670484290e-01
36 15 8.84658993665503046e-01
37 15 8.82585286794021151e-01
38 15 8.80583087056038605e-01
39 15 8.78652394451554963e-01
40 15 8.76793208980570893e-01
41 15 8.75005530643086837e-01
42 15 8.73289359439101465e-01
43 15 8.71644695368615996e-01
44 15 8.70071538431629543e-01
45 15 8.68569888628142994e-01
46 15 8.67139745958155128e-01
47 15 8.65781110421666833e-01
48 15 8.64493982018678220e-01
49 15 8.63278360749189067e-01
50 15 8.62134246613199040e-01
51 15 8.61061639610708141e-01
52 15 8.60060539741717145e-01
53 15 8.59130947006225165e-01
54 15 8.58272861404232090e-01
55 15 8.57486282935739030e-01
56 15 8.56771211600745541e-01
57 15 8.56127647399250957e-01
58 15 8.55555590331255944e-01
59 15 8.55055040396760280e-01
60 15 8.54625997595764186e-01
61 15 8.54268461928267109e-01
62 15 8.53982433394269491e-01
63 15 8.53767911993771556e-01
64 15 8.53624897726772858e-01
65 15 8.53553390593273176e-01
66 15 8.53553390593273176e-01
67 15 8.53624897726772858e-01
68 15 8.53767911993771556e-01
69 15 8.53982433394269380e-01
70 15 8.54268461928267109e-01
71 15 8.54625997595764186e-01
72 15 8.55055040396760280e-01
73 15 8.55555590331255944e-01
74 15 8.56127647399250846e-01
75 15 8.56771211600745430e-01
76 15 8.57486282935739030e-01
77 15 8.58272861404232090e-01
78 15 8.59130947006224943e-01
79 15 8.60060539741716701e-01
80 15 8.61061639610708029e-01
81 15 8.62134246613198929e-01
82 15 8.63278360749189067e-01
83 15 8.64493982018677887e-01
84 15 8.65781110421666833e-01
85 15 8.67139745958155017e-01
86 15 8.68569888628142883e-01
87 15 8.70071538431629432e-01
88 15 8.71644695368615885e-01
89 15 8.73289359439101465e-01
90 15 8.75005530643086837e-01
91 15 8.76793208980570893e-01
92 15 8.78652394451555074e-01
93 15 8.80583087056038605e-01
94 15 8.82585286794020929e-01
95 15 8.84658993665503046e-01
96 15 8.86804207670484290e-01
97 15 8.89020928808964883e-01
98 15 8.91309157080945269e-01
99 15 8.93668892486424449e-01
100 15 8.96100135025403643e-01
101 15 8.98602884697881632e-01
102 15 9.01177141503859302e-01
103 15 9.03822905443336100e-01
104 15 9.06540176516312690e-01
105 15 9.09328954722788296e-01
106 15 9.12189240062763584e-01
107 15 9.15121032536237888e-01
108 15 9.18124332143212096e-01
109 15 9.21199138883685320e-01
110 15 9.24345452757657782e-01
111 15 9.27563273765129814e-01
112 15 9.30852601906101307e-01
113 15 9.34213437180572259e-01
114 15 9.37645779588542228e-01
115 15 9.41149629130011989e-01
116 15 9.44724985804981210e-01
117 15 9.48371849613449225e-01
118 15 9.52090220555417255e-01
119 15 9.55880098630883968e-01
120 15 9.59741483839850362e-01
121 15 9.63674376182316328e-01
122 15 9.67678775658281309e-01
123 15 9.71754682267745751e-01
124 15 9.75902096010709985e-01
125 15 9.80121016887173457e-01
126 15 9.84411444897135834e-01
127 15 9.88773380040597893e-01
128 15 9.93206822317559523e-01
129 15 9.97711771728019947e-01
130 15 1.00000000000000000e+00
1 16 1.00000000000000000e+00
2 16 9.97711771728019947e-01
3 16 9.93206822317559523e-01
4 16 9.88773380040597782e-01
5 16 9.84411444897135612e-01
6 16 9.80121016887173124e-01
7 16 9.75902096010709763e-01
8 16 9.71754682267745640e-01
9 16 9.67678775658280865e-01
10 16 9.63674376182315662e-01
11 16 9.59741483839849918e-01
12 16 9.55880098630883634e-01
13 16 9.52090220555416811e-01
14 16 9.48371849613449225e-01
15 16 9.44724985804980655e-01
16 16 9.41149629130011656e-01
17 16 9.37645779588542228e-01
18 16 9.34213437180572259e-01
19 16 9.30852601906101307e-01
20 16 9.27563273765129814e-01
21 16 9.24345452757657893e-01
22 16 9.21199138883685320e-01
23 16 9.18124332143212318e-01
24 16 9.15121032536238221e-01
25 16 9.12189240062763917e-01
26 16 9.09328954722788629e-01
27 16 9.06540176516312801e-01
28 16 9.03822905443336655e-01
29 16 9.01177141503859636e-01
30 16 8.98602884697881965e-01
31 16 8.96100135025403755e-01
32 16 8.93668892486424449e-01
33 16 8.91309157080945269e-01
34 16 8.89020928808964883e-01
35 16 8.86804207670484290e-01
36 16 8.84658993665503046e-01
37 16 8.82585286794021151e-01
38 16 8.80583087056038605e-01
39 16 8.78652394451554963e-01
40 16 8.76793208980570893e-01
41 16 8.75005530643086726e-01
42 16 8.73289359439101465e-01
43 16 8.71644695368615996e-01
44 16 8.70071538431629543e-01
45 16 8.68569888628142994e-01
46 16 8.67139745958155128e-01
47 16 8.65781110421666833e-01
48 16 8.64493982018678220e-01
49 16 8.63278360749189067e-01
50 16 8.62134246613198929e-01
51 16 8.61061639610708141e-01
52 16 8.60060539741717145e-01
53 16 8.59130947006225165e-01
54 16 8.58272861404232090e-01
55 16 8.57486282935739030e-01
56 16 8.56771211600745541e-01
57 16 8.56127647399250957e-01
58 16 8.55555590331255944e-01
59 16 8.55055040396760280e-01
60 16 8.54625997595764186e-01
61 16 8.54268461928267109e-01
62 16 8.53982433394269491e-01
63 16 8.53767911993771556e-01
64 16 8.53624897726772858e-01
65 16 8.53553390593273176e-01
66 16 8.53553390593273176e-01
67 16 8.53624897726772858e-01
68 16 8.53767911993771556e-01
69 16 8.53982433394269380e-01
70 16 8.54268461928267109e-01
71 16 8.54625997595764186e-01
72 16 8.55055040396760280e-01
73 16 8.55555590331255944e-01
74 16 8.56127647399250846e-01
75 16 8.56771211600745319e-01
76 16 8.57486282935739030e-01
77 16 8.58272861404232090e-01
78 16 8.59130947006224943e-01
79 16 8.60060539741716701e-01
80 16 8.61061639610707918e-01
81 16 8.62134246613198929e-01
82 16 8.63278360749189067e-01
83 16 8.64493982018677887e-01
84 16 8.65781110421666833e-01
85 16 8.67139745958155017e-01
86 16 8.68569888628142883e-01
87 16 8.70071538431629432e-01
88 16 8.71644695368615885e-01
89 16 8.73289359439101354e-01
90 16 8.75005530643086726e-01
91 16 8.76793208980570893e-01
92 16 8.78652394451555074e-01
93 16 8.80583087056038605e-01
94 16 8.82585286794020929e-01
95 16 8.84658993665503046e-01
96 16 8.86804207670484290e-01
97 16 8.89020928808964883e-01
98 16 8.91309157080945269e-01
99 16 8.93668892486424449e-01
100 16 8.96100135025403643e-01
101 16 8.98602884697881632e-01
102 16 9.01177141503859191e-01
103 16 9.03822905443336100e-01
104 16 9.06540176516312579e-01
105 16 9.09328954722788185e-01
106 16 9.12189240062763473e-01
107 16 9.15121032536237888e-01
108 16 9.18124332143212096e-01
109 16 9.21199138883685320e-01
110 16 9.24345452757657782e-01
111 16 9.27563273765129814e-01
112 16 9.30852601906101307e-01
113 16 9.34213437180572259e-01
114 16 9.37645779588542228e-01
115 16 9.41149629130011989e-01
116 16 9.44724985804981099e-01
117 16 9.48371849613449225e-01
118 16 9.52090220555417255e-01
119 16 9.55880098630883968e-01
120 16 9.59741483839850362e-01
121 16 9.63674376182316217e-01
122 16 9.67678775658281309e-01
123 16 9.71754682267745751e-01
124 16 9.75902096010709985e-01
125 16 9.80121016887173457e-01
126 16 9.84411444897135834e-01
127 16 9.88773380040597893e-01
128 16 9.93206822317559523e-01
129 16 9.97711771728019947e-01
130 16 1.00000000000000000e+00
1 17 1.00000000000000000e+00
2 17 9.97711771728019947e-01
3 17 9.93206822317559523e-01
4 17 9.88773380040597782e-01
5 17 9.84411444897135612e-01
6 17 9.80121016887173124e-01
7 17 9.75902096010709763e-01
8 17 9.71754682267745751e-01
9 17 9.67678775658280865e-01
10 17 9.63674376182315662e-01
11 17 9.59741483839849918e-01
12 17 9.55880098630883634e-01
13 17 9.52090220555416811e-01
14 17 9.48371849613449336e-01
15 17 9.44724985804980655e-01
16 17 9.41149629130011656e-01
17 17 9.37645779588542228e-01
18 17 9.34213437180572259e-01
19 17 9.30852601906101307e-01
20 17 9.27563273765129814e-01
21 17 9.24345452757657893e-01
22 17 9.21199138883685320e-01
23 17 9.18124332143212318e-01
24 17 9.15121032536238221e-01
25 17 9.12189240062763917e-01
26 17 9.09328954722788629e-01
27 17 9.06540176516312912e-01
28 17 9.03822905443336655e-01
29 17 9.01177141503859636e-01
30 17 8.98602884697881965e-01
31 17 8.96100135025403755e-01
32 17 8.93668892486424449e-01
33 17 8.91309157080945269e-01
34 17 8.89020928808964883e-01
35 17 8.86804207670484290e-01
36 17 8.84658993665503046e-01
37 17 8.82585286794021151e-01
38 17 8.80583087056038605e-01
39 17 8.78652394451554963e-01
40 17 8.76793208980570893e-01
41 17 8.75005530643086726e-01
42 17 8.73289359439101465e-01
43 17 8.71644695368615996e-01
44 17 8.70071538431629543e-01
45 17 8.68569888628142994e-01
46 17 8.67139745958155017e-01
47 17 8.65781110421666833e-01
48 17 8.64493982018678220e-01
49 17 8.63278360749189067e-01
50 17 8.62134246613199040e-01
51 17 8.61061639610708141e-01
52 17 8.60060539741717145e-01
53 17 8.59130947006225165e-01
54 17 8.58272861404232090e-01
55 17 8.57486282935739030e-01
56 17 8.56771211600745430e-01
57 17 8.56127647399251068e-01
58 17 8.55555590331255944e-01
59 17 8.55055040396760169e-01
60 17 8.54625997595764297e-01
61 17 8.54268461928267109e-01
62 17 8.53982433394269491e-01
63 17 8.53767911993771556e-01
64 17 8.53624897726772858e-01
65 17 8.53553390593273176e-01
66 17 8.53553390593273176e-01
67 17 8.53624897726772858e-01
68 17 8.53767911993771556e-01
69 17 8.53982433394269380e-01
70 17 8.54268461928267109e-01
71 17 8.54625997595764297e-01
72 17 8.55055040396760169e-01
73 17 8.55555590331255944e-01
74 17 8.56127647399250957e-01
75 17 8.56771211600745319e-01
76 17 8.57486282935739030e-01
77 17 8.58272861404232090e-01
78 17 8.59130947006224943e-01
79 17 8.60060539741716701e-01
80 17 8.61061639610707918e-01
81 17 8.62134246613199040e-01
82 17 8.63278360749189067e-01
83 17 8.64493982018677998e-01
84 17 8.65781110421666833e-01
85 17 8.67139745958155017e-01
86 17 8.68569888628142883e-01
87 17 8.70071538431629432e-01
88 17 8.71644695368615885e-01
89 17 8.73289359439101354e-01
90 17 8.75005530643086726e-01
91 17 8.76793208980570893e-01
92 17 8.78652394451555074e-01
93 17 8.80583087056038605e-01
94 17 8.82585286794020929e-01
95 17 8.84658993665503046e-01
96 17 8.86804207670484290e-01
97 17 8.89020928808964883e-01
98 17 8.91309157080945269e-01
99 17 8.93668892486424449e-01
100 17 8.96100135025403643e-01
101 17 8.98602884697881632e-01
102 17 9.01177141503859191e-01
103 17 9.03822905443336100e-01
104 17 9.06540176516312579e-01
105 17 9.09328954722788185e-01
106 17 9.12189240062763584e-01
107 17 9.15121032536237888e-01
108 17 9.18124332143212096e-01
109 17 9.21199138883685320e-01
110 17 9.24345452757657782e-01
111 17 9.27563273765129814e-01
112 17 9.30852601906101307e-01
113 17 9.34213437180572259e-01
114 17 9.37645779588542228e-01
115 17 9.41149629130011878e-01
116 17 9.44724985804981210e-01
117 17 9.48371849613449336e-01
118 17 9.52090220555417255e-01
119 17 9.55880098630883968e-01
120 17 9.59741483839850362e-01
121 17 9.63674376182316217e-01
122 17 9.67678775658281420e-01
123 17 9.71754682267745751e-01
124 17 9.75902096010709985e-01
125 17 9.80121016887173457e-01
126 17 9.84411444897135834e-01
127 17 9.88773380040597893e-01
128 17 9.93206822317559523e-01
129 17 9.97711771728019947e-01
130 17 1.00000000000000000e+00
1 18 1.00000000000000000e+00
2 18 9.97711771728020058e-01
3 18 9.93206822317559634e-01
4 18 9.88773380040597782e-01
5 18 9.84411444897135612e-01
6 18 9.80121016887173235e-01
7 18 9.75902096010709763e-01
8 18 9.71754682267745751e-01
9 18 9.67678775658280865e-01
10 18 9.63674376182315773e-01
11 18 9.59741483839849918e-01
12 18 9.55880098630883634e-01
13 18 9.52090220555416922e-01
14 18 9.48371849613449336e-01
15 18 9.44724985804980655e-01
16 18 9.41149629130011767e-01
17 18 9.37645779588542228e-01
18 18 9.34213437180572259e-01
19 18 9.30852601906101418e-01
20 18 9.27563273765129925e-01
21 18 9.24345452757657893e-01
22 18 9.21199138883685320e-01
23 18 9.18124332143212429e-01
24 18 9.15121032536238221e-01
25 18 9.12189240062763917e-01
26 18 9.09328954722788740e-01
27 18 9.06540176516312912e-01
28 18 9.03822905443336655e-01
29 18 9.01177141503859636e-01
30 18 8.98602884697881965e-01
31 18 8.96100135025403866e-01
32 18 8.93668892486424449e-01
33 18 8.91309157080945269e-01
34 18 8.89020928808964883e-01
35 18 8.86804207670484290e-01
36 18 8.84658993665503046e-01
37 18 8.82585286794021151e-01
38 18 8.80583087056038716e-01
39 18 8.78652394451554963e-01
40 18 8.76793208980570893e-01
41 18 8.75005530643086837e-01
42 18 8.73289359439101465e-01
43 18 8.71644695368615996e-01
44 18 8.70071538431629543e-01
45 18 8.68569888628143105e-01
46 18 8.67139745958155128e-01
47 18 8.65781110421666944e-01
48 18 8.64493982018678220e-01
49 18 8.63278360749189067e-01
50 18 8.62134246613199040e-01
51 18 8.61061639610708141e-01
52 18 8.60060539741717145e-01
53 18 8.59130947006225165e-01
54 18 8.58272861404232090e-01
55 18 8.57486282935739030e-01
56 18 8.56771211600745430e-01
57 18 8.56127647399251068e-01
58 18 8.55555590331255944e-01
59 18 8.55055040396760169e-01
60 18 8.54625997595764408e-01
61 18 8.54268461928267109e-01
62 18 8.53982433394269491e-01
63 18 8.53767911993771556e-01
64 18 8.53624897726772858e-01
65 18 8.53553390593273287e-01
66 18 8.53553390593273287e-01
67 18 8.53624897726772858e-01
68 18 8.53767911993771556e-01
69 18 8.53982433394269380e-01
70 18 8.54268461928267109e-01
71 18 8.54625997595764408e-01
72 18 8.55055040396760169e-01
73 18 8.55555590331255944e-01
74 18 8.56127647399250957e-01
75 18 8.56771211600745430e-01
76 18 8.57486282935739030e-01
77 18 8.58272861404232090e-01
78 18 8.59130947006224943e-01
79 18 8.60060539741716812e-01
80 18 8.61061639610707918e-01
81 18 8.62134246613199040e-01
82 18 8.63278360749189067e-01
83 18 8.64493982018677998e-01
84 18 8.65781110421666944e-01
85 18 8.67139745958155128e-01
86 18 8.68569888628142994e-01
87 18 8.70071538431629543e-01
88 18 8.71644695368615885e-01
89 18 8.73289359439101465e-01
90 18 8.75005530643086837e-01
91 18 8.76793208980570893e-01
92 18 8.78652394451555074e-01
93 18 8.80583087056038716e-01
94 18 8.82585286794020929e-01
95 18 8.84658993665503046e-01
96 18 8.86804207670484290e-01
97 18 8.89020928808964883e-01
98 18 8.91309157080945269e-01
99 18 8.93668892486424449e-01
100 18 8.96100135025403643e-01
101 18 8.98602884697881632e-01
102 18 9.01177141503859191e-01
103 18 9.03822905443335989e-01
104 18 9.06540176516312579e-01
105 18 9.09328954722788185e-01
106 18 9.12189240062763584e-01
107 18 9.15121032536237888e-01
108 18 9.18124332143212096e-01
109 18 9.21199138883685320e-01
110 18 9.24345452757657782e-01
111 18 9.27563273765129925e-01
112 18 9.30852601906101418e-01
113 18 9.34213437180572259e-01
114 18 9.37645779588542339e-01
115 18 9.41149629130011989e-01
116 18 9.44724985804981210e-01
117 18 9.48371849613449336e-01
118 18 9.52090220555417255e-01
119 18 9.55880098630884079e-01
120 18 9.59741483839850362e-01
121 18 9.63674376182316217e-01
122 18 9.67678775658281420e-01
123 18 9.71754682267745751e-01
124 18 9.75902096010709985e-01
125 18 9.80121016887173568e-01
126 18 9.84411444897135945e-01
127 18 9.88773380040598004e-01
128 18 9.93206822317559634e-01
129 18 9.97711771728020058e-01
130 18 1.00000000000000000e+00
1 19 1.00000000000000000e+00
2 19 9.97711771728020169e-01
3 19 9.93206822317559634e-01
4 19 9.88773380040597782e-01
5 19 9.84411444897135723e-01
6 19 9.80121016887173235e-01
7 19 9.75902096010709874e-01
8 19 9.71754682267745862e-01
9 19 9.67678775658280976e-01
10 19 9.63674376182315884e-01
11 19 9.59741483839850029e-01
12 19 9.55880098630883746e-01
13 19 9.52090220555416922e-01
14 19 9.48371849613449336e-01
15 19 9.44724985804980655e-01
16 19 9.41149629130011767e-01
17 19 9.37645779588542228e-01
18 19 9.34213437180572370e-01
19 19 9.30852601906101418e-01
20 19 9.27563273765130036e-01
21 19 9.24345452757658004e-01
22 19 9.21199138883685320e-01
23 19 9.18124332143212429e-01
24 19 9.15121032536238221e-01
25 19 9.12189240062764028e-01
26 19 9.09328954722788851e-01
27 19 9.06540176516312912e-01
28 19 9.03822905443336655e-01
29 19 9.01177141503859636e-01
30 19 8.98602884697882076e-01
31 19 8.96100135025403866e-01
32 19 8.93668892486424560e-01
33 19 8.91309157080945269e-01
34 19 8.89020928808964994e-01
35 19 8.86804207670484290e-01
36 19 8.84658993665503157e-01
37 19 8.82585286794021151e-01
38 19 8.80583087056038827e-01
39 19 8.78652394451555074e-01
40 19 8.76793208980571004e-01
41 19 8.75005530643086948e-01
42 19 8.73289359439101576e-01
43 19 8.71644695368616107e-01
44 19 8.70071538431629543e-01
45 19 8.68569888628143216e-01
46 19 8.67139745958155239e-01
47 19 8.65781110421666944e-01
48 19 8.64493982018678220e-01
49 19 8.63278360749189178e-01
50 19 8.62134246613199151e-01
51 19 8.61061639610708252e-01
52 19 8.60060539741717145e-01
53 19 8.59130947006225276e-01
54 19 8.58272861404232201e-01
55 19 8.57486282935739141e-01
56 19 8.56771211600745541e-01
57 19 8.56127647399251179e-01
58 19 8.55555590331255944e-01
59 19 8.55055040396760280e-01
60 19 8.54625997595764408e-01
61 19 8.54268461928267220e-01
62 19 8.53982433394269602e-01
63 19 8.53767911993771556e-01
64 19 8.53624897726772858e-01
65 19 8.53553390593273287e-01
66 19 8.53553390593273287e-01
67 19 8.53624897726772858e-01
68 19 8.53767911993771556e-01
69 19 8.53982433394269491e-01
70 19 8.54268461928267220e-01
71 19 8.54625997595764408e-01
72 19 8.55055040396760280e-01
73 19 8.55555590331255944e-01
74 19 8.56127647399250957e-01
75 19 8.56771211600745541e-01
76 19 8.57486282935739141e-01
77 19 8.58272861404232201e-01
78 19 8.59130947006225054e-01
79 19 8.60060539741716923e-01
80 19 8.61061639610708029e-01
81 19 8.62134246613199151e-01
82 19 8.63278360749189178e-01
83 19 8.64493982018678109e-01
84 19 8.65781110421666944e-01
85 19 8.67139745958155239e-01
86 19 8.68569888628142994e-01
87 19 8.70071538431629543e-01
88 19 8.71644695368615885e-01
89 19 8.73289359439101465e-01
90 19 8.75005530643086948e-01
91 19 8.76793208980571004e-01
92 19 8.78652394451555185e-01
93 19 8.80583087056038827e-01
94 19 8.82585286794020929e-01
95 19 8.84658993665503157e-01
96 19 8.86804207670484290e-01
97 19 8.89020928808964994e-01
98 19 8.91309157080945269e-01
99 19 8.93668892486424560e-01
100 19 8.96100135025403755e-01
101 19 8.98602884697881743e-01
102 19 9.01177141503859191e-01
103 19 9.03822905443336100e-01
104 19 9.06540176516312690e-01
105 19 9.09328954722788185e-01
106 19 9.12189240062763584e-01
107 19 9.15121032536237999e-01
108 19 9.18124332143212207e-01
109 19 9.21199138883685320e-01
110 19 9.24345452757657782e-01
111 19 9.27563273765130036e-01
112 19 9.30852601906101418e-01
113 19 9.34213437180572370e-01
114 19 9.37645779588542450e-01
115 19 9.41149629130012100e-01
116 19 9.44724985804981321e-01
117 19 9.48371849613449336e-01
118 19 9.52090220555417366e-01
119 19 9.55880098630884190e-01
120 19 9.59741483839850362e-01
121 19 9.63674376182316328e-01
122 19 9.67678775658281420e-01
123 19 9.71754682267745862e-01
124 19 9.75902096010710096e-01
125 19 9.80121016887173568e-01
126 19 9.84411444897135945e-01
127 19 9.88773380040598004e-01
128 19 9.93206822317559634e-01
129 19 9.97711771728020169e-01
130 19 1.00000000000000000e+00
1 20 1.00000000000000000e+00
2 20 9.97711771728020169e-01
3 20 9.93206822317559634e-01
4 20 9.88773380040597782e-01
5 20 9.84411444897135723e-01
6 20 9.80121016887173235e-01
7 20 9.75902096010709874e-01
8 20 9.71754682267745973e-01
9 20 9.67678775658280976e-01
10 20 9.63674376182315884e-01
11 20 9.59741483839850029e-01
12 20 9.55880098630883746e-01
13 20 9.52090220555416922e-01
14 20 9.48371849613449336e-01
15 20 9.44724985804980655e-01
16 20 9.41149629130011767e-01
17 20 9.37645779588542228e-01
18 20 9.34213437180572370e-01
19 20 9.30852601906101418e-01
20 20 9.27563273765130036e-01
21 20 9.24345452757657893e-01
22 20 9.21199138883685320e-01
23 20 9.18124332143212429e-01
24 20 9.15121032536238221e-01
25 20 9.12189240062764028e-01
26 20 9.09328954722788851e-01
27 20 9.06540176516312912e-01
28 20 9.03822905443336655e-01
29 20 9.01177141503859636e-01
30 20 8.98602884697882187e-01
31 20 8.96100135025403866e-01
32 20 8.93668892486424560e-01
33 20 8.91309157080945269e-01
34 20 8.89020928808964994e-01
35 20 8.86804207670484290e-01
36 20 8.84658993665503157e-01
37 20 8.82585286794021151e-01
38 20 8.80583087056038938e-01
39 20 8.78652394451555074e-01
40 20 8.76793208980571004e-01
41 20 8.75005530643086948e-01
42 20 8.73289359439101576e-01
43 20 8.71644695368616107e-01
44 20 8.70071538431629543e-01
45 20 8.68569888628143216e-01
46 20 8.67139745958155350e-01
47 20 8.65781110421666944e-01
48 20 8.64493982018678220e-01
49 20 8.63278360749189178e-01
50 20 8.62134246613199262e-01
51 20 8.61061639610708252e-01
52 20 8.60060539741717145e-01
53 20 8.59130947006225276e-01
54 20 8.58272861404232201e-01
55 20 8.57486282935739141e-01
56 20 8.56771211600745541e-01
57 20 8.56127647399251179e-01
58 20 8.55555590331255944e-01
59 20 8.55055040396760280e-01
60 20 8.54625997595764408e-01
61 20 8.54268461928267331e-01
62 20 8.53982433394269602e-01
63 20 8.53767911993771556e-01
64 20 8.53624897726772858e-01
65 20 8.53553390593273287e-01
66 20 8.53553390593273287e-01
67 20 8.53624897726772858e-01
68 20 8.53767911993771556e-01
69 20 8.53982433394269491e-01
70 20 8.54268461928267331e-01
71 20 8.54625997595764408e-01
72 20 8.55055040396760280e-01
73 20 8.55555590331255944e-01
74 20 8.56127647399251068e-01
75 20 8.56771211600745541e-01
76 20 8.57486282935739141e-01
77 20 8.58272861404232201e-01
78 20 8.59130947006225054e-01
79 20 8.60060539741717034e-01
80 20 8.61061639610708029e-01
81 20 8.62134246613199262e-01
82 20 8.63278360749189178e-01
83 20 8.64493982018678109e-01
84 20 8.65781110421666944e-01
85 20 8.67139745958155350e-01
86 20 8.68569888628142994e-01
87 20 8.70071538431629543e-01
88 20 8.71644695368615885e-01
89 20 8.73289359439101465e-01
90 20 8.75005530643086948e-01
91 20 8.76793208980571004e-01
92 20 8.78652394451555185e-01
93 20 8.80583087056038938e-01
94 20 8.82585286794020929e-01
95 20 8.84658993665503157e-01
96 20 8.86804207670484290e-01
97 20 8.89020928808964994e-01
98 20 8.91309157080945269e-01
99 20 8.93668892486424560e-01
100 20 8.96100135025403755e-01
101 20 8.98602884697881743e-01
102 20 9.01177141503859191e-01
103 20 9.03822905443336100e-01
104 20 9.06540176516312690e-01
105 20 9.09328954722788074e-01
106 20 9.12189240062763584e-01
107 20 9.15121032536237999e-01
108 20 9.18124332143212318e-01
109 20 9.21199138883685320e-01
110 20 9.24345452757657782e-01
111 20 9.27563273765130036e-01
112 20 9.30852601906101418e-01
113 20 9.34213437180572370e-01
114 20 9.37645779588542450e-01
115 20 9.41149629130012100e-01
116 20 9.44724985804981321e-01
117 20 9.48371849613449336e-01
118 20 9.52090220555417366e-01
119 20 9.55880098630884190e-01
120 20 9.59741483839850362e-01
121 20 9.63674376182316328e-01
122 20 9.67678775658281420e-01
123 20 9.71754682267745973e-01
124 20 9.75902096010710096e-01
125 20 9.80121016887173568e-01
126 20 9.84411444897135945e-01
127 20 9.88773380040598004e-01
128 20 9.93206822317559634e-01
129 20 9.97711771728020169e-01
130 20 1.00000000000000000e+00
1 21 1.00000000000000000e+00
2 21 9.97711771728020169e-01
3 21 9.93206822317559634e-01
4 21 9.88773380040597782e-01
5 21 9.84411444897135723e-01
6 21 9.80121016887173235e-01
7 21 9.75902096010709874e-01
8 21 9.71754682267745973e-01
9 21 9.67678775658280976e-01
10 21 9.63674376182315995e-01
11 21 9.59741483839850029e-01
12 21 9.55880098630883746e-01
13 21 9.52090220555416922e-01
14 21 9.48371849613449225e-01
15 21 9.44724985804980655e-01
16 21 9.41149629130011767e-01
17 21 9.37645779588542228e-01
18 21 9.34213437180572370e-01
19 21 9.30852601906101418e-01
20 21 9.27563273765130036e-01
21 21 9.24345452757657893e-01
22 21 9.21199138883685320e-01
23 21 9.18124332143212318e-01
24 21 9.15121032536238221e-01
25 21 9.12189240062764028e-01
26 21 9.09328954722788851e-01
27 21 9.06540176516312912e-01
28 21 9.03822905443336655e-01
29 21 9.01177141503859636e-01
30 21 8.98602884697882187e-01
31 21 8.96100135025403866e-01
32 21 8.93668892486424560e-01
33 21 8.91309157080945269e-01
34 21 8.89020928808964994e-01
35 21 8.86804207670484290e-01
36 21 8.84658993665503157e-01
37 21 8.82585286794021151e-01
38 21 8.80583087056038938e-01
39 21 8.78652394451555074e-01
40 21 8.76793208980571004e-01
41 21 8.75005530643086948e-01
42 21 8.73289359439101576e-01
43 21 8.71644695368616107e-01
44 21 8.70071538431629543e-01
45 21 8.68569888628143216e-01
46 21 8.67139745958155350e-01
47 21 8.65781110421666833e-01
48 21 8.64493982018678220e-01
49 21 8.63278360749189178e-01
50 21 8.62134246613199262e-01
51 21 8.61061639610708252e-01
52 21 8.60060539741717145e-01
53 21 8.59130947006225276e-01
54 21 8.58272861404232201e-01
55 21 8.57486282935739141e-01
56 21 8.56771211600745541e-01
57 21 8.56127647399251179e-01
58 21 8.55555590331255944e-01
59 21 8.55055040396760280e-01
60 21 8.54625997595764408e-01
61 21 8.54268461928267331e-01
62 21 8.53982433394269602e-01
63 21 8.53767911993771556e-01
64 21 8.53624897726772858e-01
65 21 8.53553390593273287e-01
66 21 8.53553390593273287e-01
67 21 8.53624897726772858e-01
68 21 8.53767911993771556e-01
69 21 8.53982433394269491e-01
70 21 8.54268461928267331e-01
71 21 8.54625997595764408e-01
72 21 8.55055040396760280e-01
73 21 8.55555590331255944e-01
74 21 8.56127647399251068e-01
75 21 8.56771211600745541e-01
76 21 8.57486282935739141e-01
77 21 8.58272861404232201e-01
78 21 8.59130947006225054e-01
79 21 8.60060539741717034e-01
80 21 8.61061639610708029e-01
81 21 8.62134246613199262e-01
82 21 8.63278360749189178e-01
83 21 8.64493982018678109e-01
84 21 8.65781110421666833e-01
85 21 8.67139745958155350e-01
86 21 8.68569888628143105e-01
87 21 8.70071538431629543e-01
88 21 8.71644695368615774e-01
89 21 8.73289359439101465e-01
90 21 8.75005530643086948e-01
91 21 8.76793208980571004e-01
92 21 8.78652394451555296e-01
93 21 8.80583087056038938e-01
94 21 8.82585286794020929e-01
95 21 8.84658993665503157e-01
96 21 8.86804207670484290e-01
97 21 8.89020928808964994e-01
98 21 8.91309157080945269e-01
99 21 8.93668892486424560e-01
100 21 8.96100135025403755e-01
101 21 8.98602884697881743e-01
102 21 9.01177141503859191e-01
103 21 9.03822905443335989e-01
104 21 9.06540176516312690e-01
105 21 9.09328954722788074e-01
106 21 9.12189240062763695e-01
107 21 9.15121032536237999e-01
108 21 9.18124332143212318e-01
109 21 9.21199138883685320e-01
110 21 9.24345452757657782e-01
111 21 9.27563273765130036e-01
112 21 9.30852601906101418e-01
113 21 9.34213437180572370e-01
114 21 9.37645779588542450e-01
115 21 9.41149629130011989e-01
116 21 9.44724985804981321e-01
117 21 9.48371849613449336e-01
118 21 9.52090220555417366e-01
119 21 9.55880098630884301e-01
120 21 9.59741483839850362e-01
121 21 9.63674376182316328e-01
122 21 9.67678775658281420e-01
123 21 9.71754682267745973e-01
124 21 9.75902096010710096e-01
125 21 9.80121016887173568e-01
126 21 9.84411444897135945e-01
127 21 9.88773380040597893e-01
128 21 9.93206822317559634e-01
129 21 9.97711771728020169e-01
130 21 1.00000000000000000e+00
1 22 1.00000000000000000e+00
2 22 9.97711771728020169e-01
3 22 9.93206822317559745e-01
4 22 9.88773380040597782e-01
5 22 9.84411444897135723e-01
6 22 9.80121016887173235e-01
7 22 9.75902096010709874e-01
8 22 9.71754682267745973e-01
9 22 9.67678775658280976e-01
10 22 9.63674376182315995e-01
11 22 9.59741483839850029e-01
12 22 9.55880098630883746e-01
13 22 9.52090220555416922e-01
14 22 9.48371849613449225e-01
15 22 9.44724985804980655e-01
16 22 9.41149629130011767e-01
17 22 9.37645779588542228e-01
18 22 9.34213437180572370e-01
19 22 9.30852601906101529e-01
20 22 9.27563273765130036e-01
21 22 9.24345452757657893e-01
22 22 9.21199138883685320e-01
23 22 9.18124332143212318e-01
24 22 9.15121032536238332e-01
25 22 9.12189240062764028e-01
26 22 9.09328954722788851e-01
27 22 9.06540176516312912e-01
28 22 9.03822905443336655e-01
29 22 9.01177141503859636e-01
30 22 8.98602884697882187e-01
31 22 8.96100135025403866e-01
32 22 8.93668892486424560e-01
33 22 8.91309157080945269e-01
34 22 8.89020928808964994e-01
35 22 8.86804207670484401e-01
36 22 8.84658993665503157e-01
37 22 8.82585286794021040e-01
38 22 8.80583087056038938e-01
39 22 8.78652394451555185e-01
40 22 8.76793208980571004e-01
41 22 8.75005530643086948e-01
42 22 8.73289359439101576e-01
43 22 8.71644695368615996e-01
44 22 8.70071538431629654e-01
45 22 8.68569888628143216e-01
46 22 8.67139745958155350e-01
47 22 8.65781110421666833e-01
48 22 8.64493982018678220e-01
49 22 8.63278360749189178e-01
50 22 8.62134246613199262e-01
51 22 8.61061639610708252e-01
52 22 8.60060539741717256e-01
53 22 8.59130947006225276e-01
54 22 8.58272861404232201e-01
55 22 8.57486282935739141e-01
56 22 8.56771211600745541e-01
57 22 8.56127647399251179e-01
58 22 8.55555590331255944e-01
59 22 8.55055040396760280e-01
60 22 8.54625997595764408e-01
61 22 8.54268461928267442e-01
62 22 8.53982433394269602e-01
63 22 8.53767911993771556e-01
64 22 8.53624897726772858e-01
65 22 8.53553390593273287e-01
66 22 8.53553390593273287e-01
67 22 8.53624897726772858e-01
68 22 8.53767911993771556e-01
69 22 8.53982433394269491e-01
70 22 8.54268461928267442e-01
71 22 8.54625997595764408e-01
72 22 8.55055040396760280e-01
73 22 8.55555590331255944e-01
74 22 8.56127647399251068e-01
75 22 8.56771211600745541e-01
76 22 8.57486282935739141e-01
77 22 8.58272861404232201e-01
78 22 8.59130947006225054e-01
79 22 8.60060539741717145e-01
80 22 8.61061639610708029e-01
81 22 8.62134246613199262e-01
82 22 8.63278360749189178e-01
83 22 8.64493982018678220e-01
84 22 8.65781110421666833e-01
85 22 8.67139745958155350e-01
86 22 8.68569888628143105e-01
87 22 8.70071538431629654e-01
88 22 8.71644695368615774e-01
89 22 8.73289359439101576e-01
90 22 8.75005530643086948e-01
91 22 8.76793208980571004e-01
92 22 8.78652394451555296e-01
93 22 8.80583087056038938e-01
94 22 8.82585286794020929e-01
95 22 8.84658993665503157e-01
96 22 8.86804207670484401e-01
97 22 8.89020928808964994e-01
98 22 8.91309157080945269e-01
99 22 8.93668892486424560e-01
100 22 8.96100135025403755e-01
101 22 8.98602884697881743e-01
102 22 9.01177141503859191e-01
103 22 9.03822905443335989e-01
104 22 9.06540176516312579e-01
105 22 9.09328954722788074e-01
106 22 9.12189240062763695e-01
107 22 9.15121032536237999e-01
108 22 9.18124332143212318e-01
109 22 9.21199138883685320e-01
110 22 9.24345452757657782e-01
111 22 9.27563273765130036e-01
112 22 9.30852601906101529e-01
113 22 9.34213437180572370e-01
114 22 9.37645779588542450e-01
115 22 9.41149629130011989e-01
116 22 9.44724985804981321e-01
117 22 9.48371849613449447e-01
118 22 9.52090220555417366e-01
119 22 9.55880098630884301e-01
120 22 9.59741483839850362e-01
121 22 9.63674376182316328e-01
122 22 9.67678775658281420e-01
123 22 9.71754682267745973e-01
124 22 9.75902096010710096e-01
125 22 9.80121016887173568e-01
126 22 9.84411444897135945e-01
127 22 9.88773380040597893e-01
128 22 9.93206822317559745e-01
129 22 9.97711771728020169e-01
130 22 1.00000000000000000e+00
1 23 1.00000000000000000e+00
2 23 9.97711771728020280e-01
3 23 9.93206822317559745e-01
4 23 9.88773380040597782e-01
5 23 9.84411444897135723e-01
6 23 9.80121016887173346e-01
7 23 9.75902096010709874e-01
8 23 9.71754682267745973e-01
9 23 9.67678775658280976e-01
10 23 9.63674376182315995e-01
11 23 9.59741483839850029e-01
12 23 9.55880098630883746e-01
13 23 9.52090220555416922e-01
14 23 9.48371849613449225e-01
15 23 9.44724985804980655e-01
16 23 9.41149629130011767e-01
17 23 9.37645779588542228e-01
18 23 9.34213437180572370e-01
19 23 9.30852601906101529e-01
20 23 9.27563273765130036e-01
21 23 9.24345452757657893e-01
22 23 9.21199138883685431e-01
23 23 9.18124332143212318e-01
24 23 9.15121032536238443e-01
25 23 9.12189240062764028e-01
26 23 9.09328954722788851e-01
27 23 9.06540176516312912e-01
28 23 9.03822905443336655e-01
29 23 9.01177141503859636e-01
30 23 8.98602884697882187e-01
31 23 8.96100135025403977e-01
32 23 8.93668892486424560e-01
33 23 8.91309157080945380e-01
34 23 8.89020928808964994e-01
35 23 8.86804207670484401e-01
36 23 8.84658993665503157e-01
37 23 8.82585286794021040e-01
38 23 8.80583087056038938e-01
39 23 8.78652394451555185e-01
40 23 8.76793208980571004e-01
41 23 8.75005530643086948e-01
42 23 8.73289359439101576e-01
43 23 8.71644695368615996e-01
44 23 8.70071538431629654e-01
45 23 8.68569888628143216e-01
46 23 8.67139745958155461e-01
47 23 8.65781110421666833e-01
48 23 8.64493982018678331e-01
49 23 8.63278360749189178e-01
50 23 8.62134246613199262e-01
51 23 8.61061639610708252e-01
52 23 8.60060539741717256e-01
53 23 8.59130947006225276e-01
54 23 8.58272861404232201e-01
55 23 8.57486282935739141e-01
56 23 8.56771211600745541e-01
57 23 8.56127647399251290e-01
58 23 8.55555590331255944e-01
59 23 8.55055040396760280e-01
60 23 8.54625997595764408e-01
61 23 8.54268461928267442e-01
62 23 8.53982433394269602e-01
63 23 8.53767911993771556e-01
64 23 8.53624897726772858e-01
65 23 8.53553390593273287e-01
66 23 8.53553390593273287e-01
67 23 8.53624897726772858e-01
68 23 8.53767911993771556e-01
69 23 8.53982433394269491e-01
70 23 8.54268461928267442e-01
71 23 8.54625997595764408e-01
72 23 8.55055040396760280e-01
73 23 8.55555590331255944e-01
74 23 8.56127647399251179e-01
75 23 8.56771211600745541e-01
76 23 8.57486282935739141e-01
77 23 8.58272861404232201e-01
78 23 8.59130947006225054e-01
79 23 8.60060539741717145e-01
80 23 8.61061639610708029e-01
81 23 8.62134246613199262e-01
82 23 8.63278360749189178e-01
83 23 8.64493982018678331e-01
84 23 8.65781110421666833e-01
85 23 8.67139745958155350e-01
86 23 8.68569888628143105e-01
87 23 8.70071538431629654e-01
88 23 8.71644695368615885e-01
89 23 8.73289359439101576e-01
90 23 8.75005530643086948e-01
91 23 8.76793208980571004e-01
92 23 8.78652394451555296e-01
93 23 8.80583087056038938e-01
94 23 8.82585286794021040e-01
95 23 8.84658993665503157e-01
96 23 8.86804207670484401e-01
97 23 8.89020928808964994e-01
98 23 8.91309157080945380e-01
99 23 8.93668892486424560e-01
100 23 8.96100135025403755e-01
101 23 8.98602884697881743e-01
102 23 9.01177141503859191e-01
103 23 9.03822905443336100e-01
104 23 9.06540176516312690e-01
105 23 9.09328954722788074e-01
106 23 9.12189240062763806e-01
107 23 9.15121032536238110e-01
108 23 9.18124332143212318e-01
109 23 9.21199138883685431e-01
110 23 9.24345452757657893e-01
111 23 9.27563273765130036e-01
112 23 9.30852601906101529e-01
113 23 9.34213437180572370e-01
114 23 9.37645779588542450e-01
115 23 9.41149629130012100e-01
116 23 9.44724985804981321e-01
117 23 9.48371849613449447e-01
118 23 9.52090220555417477e-01
119 23 9.55880098630884412e-01
120 23 9.59741483839850362e-01
121 23 9.63674376182316328e-01
122 23 9.67678775658281420e-01
123 23 9.71754682267745973e-01
124 23 9.75902096010710096e-01
125 23 9.80121016887173568e-01
126 23 9.84411444897135945e-01
127 23 9.88773380040597893e-01
128 23 9.93206822317559745e-01
129 23 9.97711771728020280e-01
130 23 1.00000000000000000e+00
1 24 1.00000000000000000e+00
2 24 9.97711771728020280e-01
3 24 9.93206822317559634e-01
4 24 9.88773380040597782e-01
5 24 9.84411444897135723e-01
6 24 9.80121016887173235e-01
7 24 9.75902096010709874e-01
8 24 9.71754682267745973e-01
9 24 9.67678775658280865e-01
10 24 9.63674376182315995e-01
11 24 9.59741483839850029e-01
12 24 9.55880098630883746e-01
13 24 9.52090220555416922e-01
14 24 9.48371849613449225e-01
15 24 9.44724985804980655e-01
16 24 9.41149629130011767e-01
17 24 9.37645779588542228e-01
18 24 9.34213437180572370e-01
19 24 9.30852601906101529e-01
20 24 9.27563273765130036e-01
21 24 9.24345452757657893e-01
22 24 9.21199138883685320e-01
23 24 9.18124332143212318e-01
24 24 9.15121032536238443e-01
25 24 9.12189240062763917e-01
26 24 9.09328954722788740e-01
27 24 9.06540176516312801e-01
28 24 9.03822905443336544e-01
29 24 9.01177141503859636e-01
30 24 8.98602884697882076e-01
31 24 8.96100135025403977e-01
32 24 8.93668892486424449e-01
33 24 8.91309157080945380e-01
34 24 8.89020928808964994e-01
35 24 8.86804207670484401e-01
36 24 8.84658993665503157e-01
37 24 8.82585286794021040e-01
38 24 8.80583087056038938e-01
39 24 8.78652394451555185e-01
40 24 8.76793208980571004e-01
41 24 8.75005530643086948e-01
42 24 8.73289359439101576e-01
43 24 8.71644695368615885e-01
44 24 8.70071538431629543e-01
45 24 8.68569888628143216e-01
46 24 8.67139745958155461e-01
47 24 8.65781110421666833e-01
48 24 8.64493982018678331e-01
49 24 8.63278360749189067e-01
50 24 8.62134246613199151e-01
51 24 8.61061639610708141e-01
52 24 8.60060539741717256e-01
53 24 8.59130947006225165e-01
54 24 8.58272861404232090e-01
55 24 8.57486282935739141e-01
56 24 8.56771211600745541e-01
57 24 8.56127647399251290e-01
58 24 8.55555590331255944e-01
59 24 8.55055040396760280e-01
60 24 8.54625997595764408e-01
61 24 8.54268461928267331e-01
62 24 8.53982433394269602e-01
63 24 8.53767911993771556e-01
64 24 8.53624897726772858e-01
65 24 8.53553390593273287e-01
66 24 8.53553390593273287e-01
67 24 8.53624897726772858e-01
68 24 8.53767911993771556e-01
69 24 8.53982433394269380e-01
70 24 8.54268461928267331e-01
71 24 8.54625997595764408e-01
72 24 8.55055040396760280e-01
73 24 8.55555590331255944e-01
74 24 8.56127647399251179e-01
75 24 8.56771211600745430e-01
76 24 8.57486282935739141e-01
77 24 8.58272861404232090e-01
78 24 8.59130947006224943e-01
79 24 8.60060539741717145e-01
80 24 8.61061639610708029e-01
81 24 8.62134246613199151e-01
82 24 8.63278360749189067e-01
83 24 8.64493982018678331e-01
84 24 8.65781110421666833e-01
85 24 8.67139745958155350e-01
86 24 8.68569888628143105e-01
87 24 8.70071538431629543e-01
88 24 8.71644695368615774e-01
89 24 8.73289359439101576e-01
90 24 8.75005530643086948e-01
91 24 8.76793208980571004e-01
92 24 8.78652394451555296e-01
93 24 8.80583087056038938e-01
94 24 8.82585286794021040e-01
95 24 8.84658993665503157e-01
96 24 8.86804207670484401e-01
97 24 8.89020928808964994e-01
98 24 8.91309157080945380e-01
99 24 8.93668892486424449e-01
100 24 8.96100135025403755e-01
101 24 8.98602884697881743e-01
102 24 9.01177141503859191e-01
103 24 9.03822905443336100e-01
104 24 9.06540176516312579e-01
105 24 9.09328954722788074e-01
106 24 9.12189240062763806e-01
107 24 9.15121032536237999e-01
108 24 9.18124332143212207e-01
109 24 9.21199138883685320e-01
110 24 9.24345452757657893e-01
111 24 9.27563273765130036e-01
112 24 9.30852601906101529e-01
113 24 9.34213437180572370e-01
114 24 9.37645779588542450e-01
115 24 9.41149629130012100e-01
116 24 9.44724985804981321e-01
117 24 9.48371849613449336e-01
118 24 9.52090220555417366e-01
119 24 9.55880098630884412e-01
120 24 9.59741483839850251e-01
121 24 9.63674376182316217e-01
122 24 9.67678775658281309e-01
123 24 9.71754682267745973e-01
124 24 9.75902096010709985e-01
125 24 9.80121016887173457e-01
126 24 9.84411444897135945e-01
127 24 9.88773380040597893e-01
128 24 9.93206822317559634e-01
129 24 9.97711771728020280e-01
130 24 1.00000000000000000e+00
1 25 1.00000000000000000e+00
2 25 9.97711771728020280e-01
3 25 9.93206822317559634e-01
4 25 9.88773380040597782e-01
5 25 9.84411444897135834e-01
6 25 9.80121016887173235e-01
7 25 9.75902096010709874e-01
8 25 9.71754682267745973e-01
9 25 9.67678775658280976e-01
10 25 9.63674376182315995e-01
11 25 9.59741483839850029e-01
12 25 9.55880098630883746e-01
13 25 9.52090220555417033e-01
14 25 9.48371849613449225e-01
15 25 9.44724985804980766e-01
16 25 9.41149629130011767e-01
17 25 9.37645779588542228e-01
18 25 9.34213437180572481e-01
19 25 9.30852601906101529e-01
20 25 9.27563273765130036e-01
21 25 9.24345452757657893e-01
22 25 9.21199138883685320e-01
23 25 9.18124332143212429e-01
24 25 9.15121032536238554e-01
25 25 9.12189240062764028e-01
26 25 9.09328954722788740e-01
27 25 9.06540176516312801e-01
28 25 9.03822905443336544e-01
29 25 9.01177141503859747e-01
30 25 8.98602884697882187e-01
31 25 8.96100135025404088e-01
32 25 8.93668892486424560e-01
33 25 8.91309157080945380e-01
34 25 8.89020928808964994e-01
35 25 8.86804207670484512e-01
36 25 8.84658993665503157e-01
37 25 8.82585286794021040e-01
38 25 8.80583087056038938e-01
39 25 8.78652394451555185e-01
40 25 8.76793208980571004e-01
41 25 8.75005530643086948e-01
42 25 8.73289359439101687e-01
43 25 8.71644695368615996e-01
44 25 8.70071538431629654e-01
45 25 8.68569888628143216e-01
46 25 8.67139745958155572e-01
47 25 8.65781110421666833e-01
48 25 8.64493982018678331e-01
49 25 8.63278360749189067e-01
50 25 8.62134246613199151e-01
51 25 8.61061639610708141e-01
52 25 8.60060539741717367e-01
53 25 8.59130947006225165e-01
54 25 8.58272861404232090e-01
55 25 8.57486282935739141e-01
56 25 8.56771211600745652e-01
57 25 8.56127647399251401e-01
58 25 8.55555590331255944e-01
59 25 8.55055040396760280e-01
60 25 8.54625997595764408e-01
61 25 8.54268461928267442e-01
62 25 8.53982433394269602e-01
63 25 8.53767911993771667e-01
64 25 8.53624897726772858e-01
65 25 8.53553390593273398e-01
66 25 8.53553390593273398e-01
67 25 8.53624897726772858e-01
68 25 8.53767911993771667e-01
69 25 8.53982433394269491e-01
70 25 8.54268461928267442e-01
71 25 8.54625997595764408e-01
72 25 8.55055040396760280e-01
73 25 8.55555590331255944e-01
74 25 8.56127647399251179e-01
75 25 8.56771211600745541e-01
76 25 8.57486282935739141e-01
77 25 8.58272861404232090e-01
78 25 8.59130947006224943e-01
79 25 8.60060539741717145e-01
80 25 8.61061639610708029e-01
81 25 8.62134246613199151e-01
82 25 8.63278360749189067e-01
83 25 8.64493982018678331e-01
84 25 8.65781110421666833e-01
85 25 8.67139745958155461e-01
86 25 8.68569888628143105e-01
87 25 8.70071538431629654e-01
88 25 8.71644695368615885e-01
89 25 8.73289359439101687e-01
90 25 8.75005530643086948e-01
91 25 8.76793208980571004e-01
92 25 8.78652394451555296e-01
93 25 8.80583087056038938e-01
94 25 8.82585286794021040e-01
95 25 8.84658993665503157e-01
96 25 8.86804207670484512e-01
97 25 8.89020928808964994e-01
98 25 8.91309157080945380e-01
99 25 8.93668892486424560e-01
100 25 8.96100135025403866e-01
101 25 8.98602884697881854e-01
102 25 9.01177141503859191e-01
103 25 9.03822905443336211e-01
104 25 9.06540176516312690e-01
105 25 9.09328954722788185e-01
106 25 9.12189240062763806e-01
107 25 9.15121032536238110e-01
108 25 9.18124332143212318e-01
109 25 9.21199138883685320e-01
110 25 9.24345452757657893e-01
111 25 9.27563273765130036e-01
112 25 9.30852601906101529e-01
113 25 9.34213437180572481e-01
114 25 9.37645779588542561e-01
115 25 9.41149629130012100e-01
116 25 9.44724985804981321e-01
117 25 9.48371849613449336e-01
118 25 9.52090220555417366e-01
119 25 9.55880098630884523e-01
120 25 9.59741483839850251e-01
121 25 9.63674376182316217e-01
122 25 9.67678775658281309e-01
123 25 9.71754682267745973e-01
124 25 9.75902096010709985e-01
125 25 9.80121016887173457e-01
126 25 9.84411444897135945e-01
127 25 9.88773380040597893e-01
128 25 9.93206822317559634e-01
129 25 9.97711771728020280e-01
130 25 1.00000000000000000e+00
1 26 1.00000000000000000e+00
2 26 9.97711771728020280e-01
3 26 9.93206822317559634e-01
4 26 9.88773380040597782e-01
5 26 9.84411444897135723e-01
6 26 9.80121016887173235e-01
7 26 9.75902096010709874e-01
8 26 9.71754682267745973e-01
9 26 9.67678775658280976e-01
10 26 9.63674376182315884e-01
11 26 9.59741483839850029e-01
12 26 9.55880098630883746e-01
13 26 9.52090220555417033e-01
14 26 9.48371849613449114e-01
15 26 9.44724985804980766e-01
16 26 9.41149629130011767e-01
17 26 9.37645779588542228e-01
18 26 9.34213437180572370e-01
19 26 9.30852601906101529e-01
20 26 9.27563273765129925e-01
21 26 9.24345452757657893e-01
22 26 9.21199138883685320e-01
23 26 9.18124332143212429e-01
24 26 9.15121032536238554e-01
25 26 9.12189240062764028e-01
26 26 9.09328954722788629e-01
27 26 9.06540176516312801e-01
28 26 9.03822905443336433e-01
29 26 9.01177141503859636e-01
30 26 8.98602884697882076e-01
31 26 8.96100135025403977e-01
32 26 8.93668892486424560e-01
33 26 8.91309157080945380e-01
34 26 8.89020928808964994e-01
35 26 8.86804207670484512e-01
36 26 8.84658993665503046e-01
37 26 8.82585286794020929e-01
38 26 8.80583087056038938e-01
39 26 8.78652394451555074e-01
40 26 8.76793208980571004e-01
41 26 8.75005530643086837e-01
42 26 8.73289359439101687e-01
43 26 8.71644695368615996e-01
44 26 8.70071538431629543e-01
45 26 8.68569888628143216e-01
46 26 8.67139745958155572e-01
47 26 8.65781110421666833e-01
48 26 8.64493982018678331e-01
49 26 8.63278360749188955e-01
50 26 8.62134246613199151e-01
51 26 8.61061639610708141e-01
52 26 8.60060539741717367e-01
53 26 8.59130947006225054e-01
54 26 8.58272861404232090e-01
55 26 8.57486282935739141e-01
56 26 8.56771211600745541e-01
57 26 8.56127647399251401e-01
58 26 8.55555590331255944e-01
59 26 8.55055040396760280e-01
60 26 8.54625997595764297e-01
61 26 8.54268461928267442e-01
62 26 8.53982433394269602e-01
63 26 8.53767911993771667e-01
64 26 8.53624897726772858e-01
65 26 8.53553390593273398e-01
66 26 8.53553390593273398e-01
67 26 8.53624897726772858e-01
68 26 8.53767911993771556e-01
69 26 8.53982433394269491e-01
70 26 8.54268461928267442e-01
71 26 8.54625997595764297e-01
72 26 8.55055040396760280e-01
73 26 8.55555590331255944e-01
74 26 8.56127647399251179e-01
75 26 8.56771211600745430e-01
76 26 8.57486282935739141e-01
77 26 8.58272861404232090e-01
78 26 8.59130947006224943e-01
79 26 8.60060539741717145e-01
80 26 8.61061639610708029e-01
81 26 8.62134246613199151e-01
82 26 8.63278360749188955e-01
83 26 8.64493982018678331e-01
84 26 8.65781110421666833e-01
85 26 8.67139745958155461e-01
86 26 8.68569888628143105e-01
87 26 8.70071538431629543e-01
88 26 8.71644695368615885e-01
89 26 8.73289359439101687e-01
90 26 8.75005530643086837e-01
91 26 8.76793208980571004e-01
92 26 8.78652394451555296e-01
93 26 8.80583087056038938e-01
94 26 8.82585286794020929e-01
95 26 8.84658993665503046e-01
96 26 8.86804207670484512e-01
97 26 8.89020928808964994e-01
98 26 8.91309157080945380e-01
99 26 8.93668892486424560e-01
100 26 8.96100135025403866e-01
101 26 8.98602884697881854e-01
102 26 9.01177141503859191e-01
103 26 9.03822905443336211e-01
104 26 9.06540176516312690e-01
105 26 9.09328954722788185e-01
106 26 9.12189240062763806e-01
107 26 9.15121032536238110e-01
108 26 9.18124332143212318e-01
109 26 9.21199138883685320e-01
110 26 9.24345452757657893e-01
111 26 9.27563273765129925e-01
112 26 9.30852601906101529e-01
113 26 9.34213437180572370e-01
114 26 9.37645779588542561e-01
115 26 9.41149629130012100e-01
116 26 9.44724985804981210e-01
117 26 9.48371849613449225e-01
118 26 9.52090220555417366e-01
119 26 9.55880098630884412e-01
120 26 9.59741483839850251e-01
121 26 9.63674376182316217e-01
122 26 9.67678775658281198e-01
123 26 9.71754682267745973e-01
124 26 9.75902096010709985e-01
125 26 9.80121016887173457e-01
126 26 9.84411444897135834e-01
127 26 9.88773380040597893e-01
128 26 9.93206822317559634e-01
129 26 9.97711771728020280e-01
130 26 1.00000000000000000e+00
1 27 1.00000000000000000e+00
2 27 9.97711771728020280e-01
3 27 9.93206822317559523e-01
4 27 9.88773380040597782e-01
5 27 9.84411444897135723e-01
6 27 9.80121016887173235e-01
7 27 9.75902096010709763e-01
8 27 9.71754682267745862e-01
9 27 9.67678775658280976e-01
10 27 9.63674376182315884e-01
11 27 9.59741483839849918e-01
12 27 9.55880098630883634e-01
13 27 9.52090220555417033e-01
14 27 9.48371849613449003e-01
15 27 9.44724985804980655e-01
16 27 9.41149629130011656e-01
17 27 9.37645779588542116e-01
18 27 9.34213437180572370e-01
19 27 9.30852601906101418e-01
20 27 9.27563273765129814e-01
21 27 9.24345452757657893e-01
22 27 9.21199138883685320e-01
23 27 9.18124332143212429e-01
24 27 9.15121032536238443e-01
25 27 9.12189240062763917e-01
26 27 9.09328954722788518e-01
27 27 9.06540176516312801e-01
28 27 9.03822905443336433e-01
29 27 9.01177141503859525e-01
30 27 8.98602884697882076e-01
31 27 8.96100135025403977e-01
32 27 8.93668892486424560e-01
33 27 8.91309157080945269e-01
34 27 8.89020928808964883e-01
35 27 8.86804207670484512e-01
36 27 8.84658993665502935e-01
37 27 8.82585286794020929e-01
38 27 8.80583087056038827e-01
39 27 8.78652394451555074e-01
40 27 8.76793208980571004e-01
41 27 8.75005530643086837e-01
42 27 8.73289359439101687e-01
43 27 8.71644695368615885e-01
44 27 8.70071538431629543e-01
45 27 8.68569888628143216e-01
46 27 8.67139745958155461e-01
47 27 8.65781110421666833e-01
48 27 8.64493982018678331e-01
49 27 8.63278360749188844e-01
50 27 8.62134246613199151e-01
51 27 8.61061639610708141e-01
52 27 8.60060539741717367e-01
53 27 8.59130947006224943e-01
54 27 8.58272861404232090e-01
55 27 8.57486282935739141e-01
56 27 8.56771211600745430e-01
57 27 8.56127647399251290e-01
58 27 8.55555590331255944e-01
59 27 8.55055040396760280e-01
60 27 8.54625997595764297e-01
61 27 8.54268461928267442e-01
62 27 8.53982433394269602e-01
63 27 8.53767911993771667e-01
64 27 8.53624897726772747e-01
65 27 8.53553390593273287e-01
66 27 8.53553390593273287e-01
67 27 8.53624897726772747e-01
68 27 8.53767911993771556e-01
69 27 8.53982433394269380e-01
70 27 8.54268461928267442e-01
71 27 8.54625997595764297e-01
72 27 8.55055040396760280e-01
73 27 8.55555590331255944e-01
74 27 8.56127647399251068e-01
75 27 8.56771211600745319e-01
76 27 8.57486282935739030e-01
77 27 8.58272861404232090e-01
78 27 8.59130947006224943e-01
79 27 8.60060539741717034e-01
80 27 8.61061639610708029e-01
81 27 8.62134246613199151e-01
82 27 8.63278360749188844e-01
83 27 8.64493982018678331e-01
84 27 8.65781110421666833e-01
85 27 8.67139745958155350e-01
86 27 8.68569888628143105e-01
87 27 8.70071538431629543e-01
88 27 8.71644695368615774e-01
89 27 8.73289359439101687e-01
90 27 8.75005530643086837e-01
91 27 8.76793208980571004e-01
92 27 8.78652394451555296e-01
93 27 8.80583087056038827e-01
94 27 8.82585286794020929e-01
95 27 8.84658993665502935e-01
96 27 8.86804207670484512e-01
97 27 8.89020928808964883e-01
98 27 8.91309157080945269e-01
99 27 8.93668892486424560e-01
100 27 8.96100135025403866e-01
101 27 8.98602884697881743e-01
102 27 9.01177141503859191e-01
103 27 9.03822905443336211e-01
104 27 9.06540176516312579e-01
105 27 9.09328954722788074e-01
106 27 9.12189240062763806e-01
107 27 9.15121032536238110e-01
108 27 9.18124332143212318e-01
109 27 9.21199138883685320e-01
110 27 9.24345452757657893e-01
111 27 9.27563273765129814e-01
112 27 9.30852601906101418e-01
113 27 9.34213437180572370e-01
114 27 9.37645779588542450e-01
115 27 9.41149629130012100e-01
116 27 9.44724985804981210e-01
117 27 9.48371849613449225e-01
118 27 9.52090220555417366e-01
119 27 9.55880098630884412e-01
120 27 9.59741483839850251e-01
121 27 9.63674376182316217e-01
122 27 9.67678775658281198e-01
123 27 9.71754682267745862e-01
124 27 9.75902096010709874e-01
125 27 9.80121016887173457e-01
126 27 9.84411444897135834e-01
127 27 9.88773380040597782e-01
128 27 9.93206822317559523e-01
129 27 9.97711771728020280e-01
130 27 1.00000000000000000e+00
1 28 1.00000000000000000e+00
2 28 9.97711771728020280e-01
3 28 9.93206822317559523e-01
4 28 9.88773380040597782e-01
5 28 9.84411444897135723e-01
6 28 9.80121016887173235e-01
7 28 9.75902096010709763e-01
8 28 9.71754682267745862e-01
9 28 9.67678775658280976e-01
10 28 9.63674376182315884e-01
11 28 9.59741483839849918e-01
12 28 9.55880098630883634e-01
13 28 9.52090220555417033e-01
14 28 9.48371849613449003e-01
15 28 9.44724985804980655e-01
16 28 9.41149629130011767e-01
17 28 9.37645779588542116e-01
18 28 9.34213437180572370e-01
19 28 9.30852601906101529e-01
20 28 9.27563273765129814e-01
21 28 9.24345452757657893e-01
22 28 9.21199138883685320e-01
23 28 9.18124332143212429e-01
24 28 9.15121032536238443e-01
25 28 9.12189240062763917e-01
26 28 9.09328954722788518e-01
27 28 9.06540176516312801e-01
28 28 9.03822905443336433e-01
29 28 9.01177141503859525e-01
30 28 8.98602884697882076e-01
31 28 8.96100135025403977e-01
32 28 8.93668892486424560e-01
33 28 8.91309157080945269e-01
34 28 8.89020928808964883e-01
35 28 8.86804207670484512e-01
36 28 8.84658993665502935e-01
37 28 8.82585286794020929e-01
38 28 8.80583087056038827e-01
39 28 8.78652394451555074e-01
40 28 8.76793208980571004e-01
41 28 8.75005530643086837e-01
42 28 8.73289359439101687e-01
43 28 8.71644695368615885e-01
44 28 8.70071538431629543e-01
45 28 8.68569888628143216e-01
46 28 8.67139745958155461e-01
47 28 8.65781110421666833e-01
48 28 8.64493982018678331e-01
49 28 8.63278360749188844e-01
50 28 8.62134246613199151e-01
51 28 8.61061639610708141e-01
52 28 8.60060539741717367e-01
53 28 8.59130947006224943e-01
54 28 8.58272861404232090e-01
55 28 8.57486282935739141e-01
56 28 8.56771211600745319e-01
57 28 8.56127647399251290e-01
58 28 8.55555590331255944e-01
59 28 8.55055040396760280e-01
60 28 8.54625997595764297e-01
61 28 8.54268461928267442e-01
62 28 8.53982433394269602e-01
63 28 8.53767911993771667e-01
64 28 8.53624897726772747e-01
65 28 8.53553390593273287e-01
66 28 8.53553390593273287e-01
67 28 8.53624897726772747e-01
68 28 8.53767911993771556e-01
69 28 8.53982433394269380e-01
70 28 8.54268461928267442e-01
71 28 8.54625997595764297e-01
72 28 8.55055040396760280e-01
73 28 8.55555590331255944e-01
74 28 8.56127647399251068e-01
75 28 8.56771211600745319e-01
76 28 8.57486282935739030e-01
77 28 8.58272861404232090e-01
78 28 8.59130947006224943e-01
79 28 8.60060539741717034e-01
80 28 8.61061639610708029e-01
81 28 8.62134246613199151e-01
82 28 8.63278360749188844e-01
83 28 8.64493982018678331e-01
84 28 8.65781110421666833e-01
85 28 8.67139745958155350e-01
86 28 8.68569888628143216e-01
87 28 8.70071538431629543e-01
88 28 8.71644695368615774e-01
89 28 8.73289359439101687e-01
90 28 8.75005530643086837e-01
91 28 8.76793208980571004e-01
92 28 8.78652394451555296e-01
93 28 8.80583087056038827e-01
94 28 8.82585286794020929e-01
95 28 8.84658993665502935e-01
96 28 8.86804207670484512e-01
97 28 8.89020928808964883e-01
98 28 8.91309157080945269e-01
99 28 8.93668892486424560e-01
100 28 8.96100135025403866e-01
101 28 8.98602884697881743e-01
102 28 9.01177141503859302e-01
103 28 9.03822905443336211e-01
104 28 9.06540176516312579e-01
105 28 9.09328954722788074e-01
106 28 9.12189240062763806e-01
107 28 9.15121032536238110e-01
108 28 9.18124332143212318e-01
109 28 9.21199138883685320e-01
110 28 9.24345452757657893e-01
111 28 9.27563273765129814e-01
112 28 9.30852601906101529e-01
113 28 9.34213437180572481e-01
114 28 9.37645779588542450e-01
115 28 9.41149629130012100e-01
116 28 9.44724985804981210e-01
117 28 9.48371849613449225e-01
118 28 9.52090220555417366e-01
119 28 9.55880098630884412e-01
120 28 9.59741483839850251e-01
121 28 9.63674376182316217e-01
122 28 9.67678775658281198e-01
123 28 9.71754682267745862e-01
124 28 9.75902096010709874e-01
125 28 9.80121016887173457e-01
126 28 9.84411444897135834e-01
127 28 9.88773380040597782e-01
128 28 9.93206822317559523e-01
129 28 9.97711771728020280e-01
130 28 1.00000000000000000e+00
1 29 1.00000000000000000e+00
2 29 9.97711771728020280e-01
3 29 9.93206822317559523e-01
4 29 9.88773380040597782e-01
5 29 9.84411444897135723e-01
6 29 9.80121016887173235e-01
7 29 9.75902096010709763e-01
8 29 9.71754682267745862e-01
9 29 9.67678775658280865e-01
10 29 9.63674376182315773e-01
11 29 9.59741483839849918e-01
12 29 9.55880098630883523e-01
13 29 9.52090220555417033e-01
14 29 9.48371849613448892e-01
15 29 9.44724985804980655e-01
16 29 9.41149629130011767e-01
17 29 9.37645779588542116e-01
18 29 9.34213437180572370e-01
19 29 9.30852601906101529e-01
20 29 9.27563273765129814e-01
21 29 9.24345452757657893e-01
22 29 9.21199138883685320e-01
23 29 9.18124332143212429e-01
24 29 9.15121032536238443e-01
25 29 9.12189240062763917e-01
26 29 9.09328954722788518e-01
27 29 9.06540176516312690e-01
28 29 9.03822905443336433e-01
29 29 9.01177141503859525e-01
30 29 8.98602884697881965e-01
31 29 8.96100135025403977e-01
32 29 8.93668892486424560e-01
33 29 8.91309157080945158e-01
34 29 8.89020928808964883e-01
35 29 8.86804207670484512e-01
36 29 8.84658993665502935e-01
37 29 8.82585286794020929e-01
38 29 8.80583087056038827e-01
39 29 8.78652394451555074e-01
40 29 8.76793208980571004e-01
41 29 8.75005530643086837e-01
42 29 8.73289359439101687e-01
43 29 8.71644695368615885e-01
44 29 8.70071538431629543e-01
45 29 8.68569888628143216e-01
46 29 8.67139745958155461e-01
47 29 8.65781110421666722e-01
48 29 8.64493982018678331e-01
49 29 8.63278360749188844e-01
50 29 8.62134246613199151e-01
51 29 8.61061639610708029e-01
52 29 8.60060539741717256e-01
53 29 8.59130947006224943e-01
54 29 8.58272861404231979e-01
55 29 8.57486282935739030e-01
56 29 8.56771211600745319e-01
57 29 8.56127647399251290e-01
58 29 8.55555590331255944e-01
59 29 8.55055040396760280e-01
60 29 8.54625997595764297e-01
61 29 8.54268461928267442e-01
62 29 8.53982433394269491e-01
63 29 8.53767911993771556e-01
64 29 8.53624897726772636e-01
65 29 8.53553390593273176e-01
66 29 8.53553390593273176e-01
67 29 8.53624897726772636e-01
68 29 8.53767911993771444e-01
69 29 8.53982433394269380e-01
70 29 8.54268461928267442e-01
71 29 8.54625997595764297e-01
72 29 8.55055040396760280e-01
73 29 8.55555590331255944e-01
74 29 8.56127647399251068e-01
75 29 8.56771211600745319e-01
76 29 8.57486282935739030e-01
77 29 8.58272861404231979e-01
78 29 8.59130947006224943e-01
79 29 8.60060539741717034e-01
80 29 8.61061639610708029e-01
81 29 8.62134246613199151e-01
82 29 8.63278360749188844e-01
83 29 8.64493982018678331e-01
84 29 8.65781110421666722e-01
85 29 8.67139745958155350e-01
86 29 8.68569888628143216e-01
87 29 8.70071538431629543e-01
88 29 8.71644695368615774e-01
89 29 8.73289359439101576e-01
90 29 8.75005530643086837e-01
91 29 8.76793208980571004e-01
92 29 8.78652394451555296e-01
93 29 8.80583087056038827e-01
94 29 8.82585286794020929e-01
95 29 8.84658993665502935e-01
96 29 8.86804207670484512e-01
97 29 8.89020928808964883e-01
98 29 8.91309157080945158e-01
99 29 8.93668892486424560e-01
100 29 8.96100135025403866e-01
101 29 8.98602884697881743e-01
102 29 9.01177141503859302e-01
103 29 9.03822905443336211e-01
104 29 9.06540176516312468e-01
105 29 9.09328954722788074e-01
106 29 9.12189240062763806e-01
107 29 9.15121032536238110e-01
108 29 9.18124332143212318e-01
109 29 9.21199138883685209e-01
110 29 9.24345452757657893e-01
111 29 9.27563273765129814e-01
112 29 9.30852601906101529e-01
113 29 9.34213437180572481e-01
114 29 9.37645779588542450e-01
115 29 9.41149629130012100e-01
116 29 9.44724985804981210e-01
117 29 9.48371849613449225e-01
118 29 9.52090220555417366e-01
119 29 9.55880098630884412e-01
120 29 9.59741483839850251e-01
121 29 9.63674376182316217e-01
122 29 9.67678775658281198e-01
123 29 9.71754682267745862e-01
124 29 9.75902096010709874e-01
125 29 9.80121016887173457e-01
126 29 9.84411444897135834e-01
127 29 9.88773380040597782e-01
128 29 9.93206822317559523e-01
129 29 9.97711771728020280e-01
130 29 1.00000000000000000e+00
1 30 1.00000000000000000e+00
2 30 9.97711771728020280e-01
3 30 9.93206822317559634e-01
4 30 9.88773380040597782e-01
5 30 9.84411444897135834e-01
6 30 9.80121016887173235e-01
7 30 9.75902096010709874e-01
8 30 9.71754682267745862e-01
9 30 9.67678775658280976e-01
10 30 9.63674376182315773e-01
11 30 9.59741483839849918e-01
12 30 9.55880098630883523e-01
13 30 9.52090220555417033e-01
14 30 9.48371849613449003e-01
15 30 9.44724985804980655e-01
16 30 9.41149629130011767e-01
17 30 9.37645779588542228e-01
18 30 9.34213437180572370e-01
19 30 9.30852601906101529e-01
20 30 9.27563273765129814e-01
21 30 9.24345452757657893e-01
22 30 9.21199138883685320e-01
23 30 9.18124332143212429e-01
24 30 9.15121032536238443e-01
25 30 9.12189240062763917e-01
26 30 9.09328954722788518e-01
27 30 9.06540176516312801e-01
28 30 9.03822905443336433e-01
29 30 9.01177141503859525e-01
30 30 8.98602884697881965e-01
31 30 8.96100135025403977e-01
32 30 8.93668892486424560e-01
33 30 8.91309157080945158e-01
34 30 8.89020928808964883e-01
35 30 8.86804207670484512e-01
36 30 8.84658993665502935e-01
37 30 8.82585286794020929e-01
38 30 8.80583087056038938e-01
39 30 8.78652394451555074e-01
40 30 8.76793208980571115e-01
41 30 8.75005530643086837e-01
42 30 8.73289359439101687e-01
43 30 8.71644695368615885e-01
44 30 8.70071538431629543e-01
45 30 8.68569888628143216e-01
46 30 8.67139745958155572e-01
47 30 8.65781110421666833e-01
48 30 8.64493982018678331e-01
49 30 8.63278360749188844e-01
50 30 8.62134246613199262e-01
51 30 8.61061639610708141e-01
52 30 8.60060539741717256e-01
53 30 8.59130947006225054e-01
54 30 8.58272861404231979e-01
55 30 8.57486282935739141e-01
56 30 8.56771211600745319e-01
57 30 8.56127647399251401e-01
58 30 8.55555590331256055e-01
59 30 8.55055040396760391e-01
60 30 8.54625997595764297e-01
61 30 8.54268461928267442e-01
62 30 8.53982433394269491e-01
63 30 8.53767911993771556e-01
64 30 8.53624897726772747e-01
65 30 8.53553390593273176e-01
66 30 8.53553390593273176e-01
67 30 8.53624897726772747e-01
68 30 8.53767911993771444e-01
69 30 8.53982433394269491e-01
70 30 8.54268461928267442e-01
71 30 8.54625997595764297e-01
72 30 8.55055040396760391e-01
73 30 8.55555590331256055e-01
74 30 8.56127647399251179e-01
75 30 8.56771211600745319e-01
76 30 8.57486282935739141e-01
77 30 8.58272861404231979e-01
78 30 8.59130947006225054e-01
79 30 8.60060539741717034e-01
80 30 8.61061639610708141e-01
81 30 8.62134246613199262e-01
82 30 8.63278360749188844e-01
83 30 8.64493982018678331e-01
84 30 8.65781110421666833e-01
85 30 8.67139745958155461e-01
86 30 8.68569888628143216e-01
87 30 8.70071538431629543e-01
88 30 8.71644695368615885e-01
89 30 8.73289359439101576e-01
90 30 8.75005530643086837e-01
91 30 8.76793208980571115e-01
92 30 8.78652394451555407e-01
93 30 8.80583087056038938e-01
94 30 8.82585286794020929e-01
95 30 8.84658993665502935e-01
96 30 8.86804207670484512e-01
97 30 8.89020928808964883e-01
98 30 8.91309157080945158e-01
99 30 8.93668892486424560e-01
100 30 8.96100135025403866e-01
101 30 8.98602884697881743e-01
102 30 9.01177141503859302e-01
103 30 9.03822905443336211e-01
104 30 9.06540176516312579e-01
105 30 9.09328954722788185e-01
106 30 9.12189240062763806e-01
107 30 9.15121032536238110e-01
108 30 9.18124332143212318e-01
109 30 9.21199138883685209e-01
110 30 9.24345452757657893e-01
111 30 9.27563273765129814e-01
112 30 9.30852601906101529e-01
113 30 9.34213437180572481e-01
114 30 9.37645779588542450e-01
115 30 9.41149629130012211e-01
116 30 9.44724985804981321e-01
117 30 9.48371849613449225e-01
118 30 9.52090220555417477e-01
119 30 9.55880098630884412e-01
120 30 9.59741483839850251e-01
121 30 9.63674376182316217e-01
122 30 9.67678775658281309e-01
123 30 9.71754682267745862e-01
124 30 9.75902096010709985e-01
125 30 9.80121016887173457e-01
126 30 9.84411444897135945e-01
127 30 9.88773380040597782e-01
128 30 9.93206822317559634e-01
129 30 9.97711771728020280e-01
130 30 1.00000000000000000e+00
1 31 1.00000000000000000e+00
2 31 9.97711771728020280e-01
3 31 9.93206822317559634e-01
4 31 9.88773380040597782e-01
5 31 9.84411444897135834e-01
6 31 9.80121016887173235e-01
7 31 9.75902096010709874e-01
8 31 9.71754682267745862e-01
9 31 9.67678775658280976e-01
10 31 9.63674376182315773e-01
11 31 9.59741483839849918e-01
12 31 9.55880098630883523e-01
13 31 9.52090220555417033e-01
14 31 9.48371849613449114e-01
15 31 9.44724985804980655e-01
16 31 9.41149629130011767e-01
17 31 9.37645779588542228e-01
18 31 9.34213437180572370e-01
19 31 9.30852601906101529e-01
20 31 9.27563273765129814e-01
21 31 9.24345452757657893e-01
22 31 9.21199138883685320e-01
23 31 9.18124332143212429e-01
24 31 9.15121032536238443e-01
25 31 9.12189240062763917e-01
26 31 9.09328954722788518e-01
27 31 9.06540176516312801e-01
28 31 9.03822905443336433e-01
29 31 9.01177141503859525e-01
30 31 8.98602884697881965e-01
31 31 8.96100135025403977e-01
32 31 8.93668892486424560e-01
33 31 8.91309157080945158e-01
34 31 8.89020928808964883e-01
35 31 8.86804207670484512e-01
36 31 8.84658993665502935e-01
37 31 8.82585286794020929e-01
38 31 8.80583087056038938e-01
39 31 8.78652394451555074e-01
40 31 8.76793208980571115e-01
41 31 8.75005530643086837e-01
42 31 8.73289359439101687e-01
43 31 8.71644695368615885e-01
44 31 8.70071538431629543e-01
45 31 8.68569888628143216e-01
46 31 8.67139745958155572e-01
47 31 8.65781110421666833e-01
48 31 8.64493982018678331e-01
49 31 8.63278360749188844e-01
50 31 8.62134246613199262e-01
51 31 8.61061639610708141e-01
52 31 8.60060539741717256e-01
53 31 8.59130947006225054e-01
54 31 8.58272861404231979e-01
55 31 8.57486282935739141e-01
56 31 8.56771211600745319e-01
57 31 8.56127647399251401e-01
58 31 8.55555590331256055e-01
59 31 8.55055040396760502e-01
60 31 8.54625997595764297e-01
61 31 8.54268461928267442e-01
62 31 8.53982433394269491e-01
63 31 8.53767911993771556e-01
64 31 8.53624897726772747e-01
65 31 8.53553390593273176e-01
66 31 8.53553390593273176e-01
67 31 8.53624897726772747e-01
68 31 8.53767911993771444e-01
69 31 8.53982433394269491e-01
70 31 8.54268461928267442e-01
71 31 8.54625997595764297e-01
72 31 8.55055040396760502e-01
73 31 8.55555590331256055e-01
74 31 8.56127647399251179e-01
75 31 8.56771211600745319e-01
76 31 8.57486282935739141e-01
77 31 8.58272861404231979e-01
78 31 8.59130947006225054e-01
79 31 8.60060539741717034e-01
80 31 8.61061639610708141e-01
81 31 8.62134246613199262e-01
82 31 8.63278360749188844e-01
83 31 8.64493982018678331e-01
84 31 8.65781110421666833e-01
85 31 8.67139745958155461e-01
86 31 8.68569888628143216e-01
87 31 8.70071538431629543e-01
88 31 8.71644695368615885e-01
89 31 8.73289359439101576e-01
90 31 8.75005530643086837e-01
91 31 8.76793208980571115e-01
92 31 8.78652394451555407e-01
93 31 8.80583087056038938e-01
94 31 8.82585286794020818e-01
95 31 8.84658993665502935e-01
96 31 8.86804207670484512e-01
97 31 8.89020928808964883e-01
98 31 8.91309157080945158e-01
99 31 8.93668892486424560e-01
100 31 8.96100135025403866e-01
101 31 8.98602884697881743e-01
102 31 9.01177141503859302e-01
103 31 9.03822905443336211e-01
104 31 9.06540176516312579e-01
105 31 9.09328954722788185e-01
106 31 9.12189240062763806e-01
107 31 9.15121032536238110e-01
108 31 9.18124332143212318e-01
109 31 9.21199138883685209e-01
110 31 9.24345452757657893e-01
111 31 9.27563273765129814e-01
112 31 9.30852601906101529e-01
113 31 9.34213437180572481e-01
114 31 9.37645779588542450e-01
115 31 9.41149629130012211e-01
116 31 9.44724985804981321e-01
117 31 9.48371849613449225e-01
118 31 9.52090220555417477e-01
119 31 9.55880098630884412e-01
120 31 9.59741483839850251e-01
121 31 9.63674376182316217e-01
122 31 9.67678775658281309e-01
123 31 9.71754682267745862e-01
124 31 9.75902096010709985e-01
125 31 9.80121016887173457e-01
126 31 9.84411444897135945e-01
127 31 9.88773380040597782e-01
128 31 9.93206822317559634e-01
129 31 9.97711771728020280e-01
130 31 1.00000000000000000e+00
1 32 1.00000000000000000e+00
2 32 9.97711771728020280e-01
3 32 9.93206822317559634e-01
4 32 9.88773380040597782e-01
5 32 9.84411444897135834e-01
6 32 9.80121016887173124e-01
7 32 9.75902096010709874e-01
8 32 9.71754682267745751e-01
9 32 9.67678775658280865e-01
10 32 9.63674376182315662e-01
11 32 9.59741483839849918e-01
12 32 9.55880098630883523e-01
13 32 9.52090220555417033e-01
14 32 9.48371849613449003e-01
15 32 9.44724985804980655e-01
16 32 9.41149629130011767e-01
17 32 9.37645779588542228e-01
18 32 9.34213437180572370e-01
19 32 9.30852601906101529e-01
20 32 9.27563273765129703e-01
21 32 9.24345452757657893e-01
22 32 9.21199138883685209e-01
23 32 9.18124332143212318e-01
24 32 9.15121032536238332e-01
25 32 9.12189240062763806e-01
26 32 9.09328954722788518e-01
27 32 9.06540176516312801e-01
28 32 9.03822905443336322e-01
29 32 9.01177141503859414e-01
30 32 8.98602884697881965e-01
31 32 8.96100135025403977e-01
32 32 8.93668892486424449e-01
33 32 8.91309157080945047e-01
34 32 8.89020928808964883e-01
35 32 8.86804207670484401e-01
36 32 8.84658993665502935e-01
37 32 8.82585286794020929e-01
38 32 8.80583087056038938e-01
39 32 8.78652394451555074e-01
40 32 8.76793208980571004e-01
41 32 8.75005530643086726e-01
42 32 8.73289359439101687e-01
43 32 8.71644695368615885e-01
44 32 8.70071538431629543e-01
45 32 8.68569888628143105e-01
46 32 8.67139745958155461e-01
47 32 8.65781110421666833e-01
48 32 8.64493982018678220e-01
49 32 8.63278360749188844e-01
50 32 8.62134246613199151e-01
51 32 8.61061639610708029e-01
52 32 8.60060539741717256e-01
53 32 8.59130947006224943e-01
54 32 8.58272861404231979e-01
55 32 8.57486282935739141e-01
56 32 8.56771211600745319e-01
57 32 8.56127647399251401e-01
58 32 8.55555590331255944e-01
59 32 8.55055040396760391e-01
60 32 8.54625997595764186e-01
61 32 8.54268461928267442e-01
62 32 8.53982433394269491e-01
63 32 8.53767911993771556e-01
64 32 8.53624897726772636e-01
65 32 8.53553390593273065e-01
66 32 8.53553390593273065e-01
67 32 8.53624897726772636e-01
68 32 8.53767911993771444e-01
69 32 8.53982433394269491e-01
70 32 8.54268461928267442e-01
71 32 8.54625997595764186e-01
72 32 8.55055040396760391e-01
73 32 8.55555590331255944e-01
74 32 8.56127647399251068e-01
75 32 8.56771211600745319e-01
76 32 8.57486282935739030e-01
77 32 8.58272861404231979e-01
78 32 8.59130947006224943e-01
79 32 8.60060539741716923e-01
80 32 8.61061639610708029e-01
81 32 8.62134246613199151e-01
82 32 8.63278360749188844e-01
83 32 8.64493982018678220e-01
84 32 8.65781110421666833e-01
85 32 8.67139745958155461e-01
86 32 8.68569888628143105e-01
87 32 8.70071538431629543e-01
88 32 8.71644695368615885e-01
89 32 8.73289359439101576e-01
90 32 8.75005530643086726e-01
91 32 8.76793208980571004e-01
92 32 8.78652394451555407e-01
93 32 8.80583087056038938e-01
94 32 8.82585286794020818e-01
95 32 8.84658993665502935e-01
96 32 8.86804207670484401e-01
97 32 8.89020928808964883e-01
98 32 8.91309157080945047e-01
99 32 8.93668892486424449e-01
100 32 8.96100135025403866e-01
101 32 8.98602884697881743e-01
102 32 9.01177141503859191e-01
103 32 9.03822905443336211e-01
104 32 9.06540176516312468e-01
105 32 9.09328954722788185e-01
106 32 9.12189240062763695e-01
107 32 9.15121032536237999e-01
108 32 9.18124332143212207e-01
109 32 9.21199138883685098e-01
110 32 9.24345452757657893e-01
111 32 9.27563273765129703e-01
112 32 9.30852601906101529e-01
113 32 9.34213437180572481e-01
114 32 9.37645779588542450e-01
115 32 9.41149629130012211e-01
116 32 9.44724985804981321e-01
117 32 9.48371849613449114e-01
118 32 9.52090220555417366e-01
119 32 9.55880098630884301e-01
120 32 9.59741483839850140e-01
121 32 9.63674376182316106e-01
122 32 9.67678775658281198e-01
123 32 9.71754682267745751e-01
124 32 9.75902096010709985e-01
125 32 9.80121016887173346e-01
126 32 9.84411444897135945e-01
127 32 9.88773380040597782e-01
128 32 9.93206822317559634e-01
129 32 9.97711771728020280e-01
130 32 1.00000000000000000e+00
1 33 1.00000000000000000e+00
2 33 9.97711771728020280e-01
3 33 9.93206822317559745e-01
4 33 9.88773380040597782e-01
5 33 9.84411444897135834e-01
6 33 9.80121016887173124e-01
7 33 9.75902096010709874e-01
8 33 9.71754682267745751e-01
9 33 9.67678775658280976e-01
10 33 9.63674376182315551e-01
11 33 9.59741483839849918e-01
12 33 9.55880098630883523e-01
13 33 9.52090220555417033e-01
14 33 9.48371849613449003e-01
15 33 9.44724985804980766e-01
16 33 9.41149629130011767e-01
17 33 9.37645779588542228e-01
18 33 9.34213437180572370e-01
19 33 9.30852601906101529e-01
20 33 9.27563273765129703e-01
21 33 9.24345452757657893e-01
22 33 9.21199138883685209e-01
23 33 9.18124332143212318e-01
24 33 9.15121032536238332e-01
25 33 9.12189240062763806e-01
26 33 9.09328954722788518e-01
27 33 9.06540176516312801e-01
28 33 9.03822905443336322e-01
29 33 9.01177141503859414e-01
30 33 8.98602884697881965e-01
31 33 8.96100135025404088e-01
32 33 8.93668892486424449e-01
33 33 8.91309157080945047e-01
34 33 8.89020928808964883e-01
35 33 8.86804207670484401e-01
36 33 8.84658993665502935e-01
37 33 8.82585286794020929e-01
38 33 8.80583087056038938e-01
39 33 8.78652394451555074e-01
40 33 8.76793208980571004e-01
41 33 8.75005530643086726e-01
42 33 8.73289359439101687e-01
43 33 8.71644695368615885e-01
44 33 8.70071538431629543e-01
45 33 8.68569888628143105e-01
46 33 8.67139745958155461e-01
47 33 8.65781110421666833e-01
48 33 8.64493982018678220e-01
49 33 8.63278360749188733e-01
50 33 8.62134246613199151e-01
51 33 8.61061639610708029e-01
52 33 8.60060539741717256e-01
53 33 8.59130947006224943e-01
54 33 8.58272861404231979e-01
55 33 8.57486282935739141e-01
56 33 8.56771211600745319e-01
57 33 8.56127647399251401e-01
58 33 8.55555590331255944e-01
59 33 8.55055040396760391e-01
60 33 8.54625997595764186e-01
61 33 8.54268461928267442e-01
62 33 8.53982433394269491e-01
63 33 8.53767911993771667e-01
64 33 8.53624897726772636e-01
65 33 8.53553390593273065e-01
66 33 8.53553390593273065e-01
67 33 8.53624897726772636e-01
68 33 8.53767911993771444e-01
69 33 8.53982433394269491e-01
70 33 8.54268461928267442e-01
71 33 8.54625997595764186e-01
72 33 8.55055040396760391e-01
73 33 8.55555590331255944e-01
74 33 8.56127647399251068e-01
75 33 8.56771211600745319e-01
76 33 8.57486282935739030e-01
77 33 8.58272861404231979e-01
78 33 8.59130947006224943e-01
79 33 8.60060539741716923e-01
80 33 8.61061639610708029e-01
81 33 8.62134246613199151e-01
82 33 8.63278360749188733e-01
83 33 8.64493982018678220e-01
84 33 8.65781110421666833e-01
85 33 8.67139745958155461e-01
86 33 8.68569888628143105e-01
87 33 8.70071538431629543e-01
88 33 8.71644695368615885e-01
89 33 8.73289359439101576e-01
90 33 8.75005530643086726e-01
91 33 8.76793208980571004e-01
92 33 8.78652394451555407e-01
93 33 8.80583087056038938e-01
94 33 8.82585286794020818e-01
95 33 8.84658993665502935e-01
96 33 8.86804207670484401e-01
97 33 8.89020928808964883e-01
98 33 8.91309157080945047e-01
99 33 8.93668892486424449e-01
100 33 8.96100135025403977e-01
101 33 8.98602884697881743e-01
102 33 9.01177141503859191e-01
103 33 9.03822905443336211e-01
104 33 9.06540176516312468e-01
105 33 9.09328954722788185e-01
106 33 9.12189240062763695e-01
107 33 9.15121032536237999e-01
108 33 9.18124332143212207e-01
109 33 9.21199138883685098e-01
110 33 9.24345452757657893e-01
111 33 9.27563273765129703e-01
112 33 9.30852601906101529e-01
113 33 9.34213437180572481e-01
114 33 9.37645779588542450e-01
115 33 9.41149629130012211e-01
116 33 9.44724985804981321e-01
117 33 9.48371849613449114e-01
118 33 9.52090220555417366e-01
119 33 9.55880098630884412e-01
120 33 9.59741483839850029e-01
121 33 9.63674376182316106e-01
122 33 9.67678775658281198e-01
123 33 9.71754682267745751e-01
124 33 9.75902096010709985e-01
125 33 9.80121016887173346e-01
126 33 9.84411444897135945e-01
127 33 9.88773380040597782e-01
128 33 9.93206822317559745e-01
129 33 9.97711771728020280e-01
130 33 1.00000000000000000e+00
1 34 1.00000000000000000e+00
2 34 9.97711771728020169e-01
3 34 9.93206822317559634e-01
4 34 9.88773380040597782e-01
5 34 9.84411444897135723e-01
6 34 9.80121016887173013e-01
7 34 9.75902096010709874e-01
8 34 9.71754682267745640e-01
9 34 9.67678775658280865e-01
10 34 9.63674376182315440e-01
11 34 9.59741483839849918e-01
12 34 9.55880098630883523e-01
13 34 9.52090220555417033e-01
14 34 9.48371849613448892e-01
15 34 9.44724985804980655e-01
16 34 9.41149629130011656e-01
17 34 9.37645779588542228e-01
18 34 9.34213437180572370e-01
19 34 9.30852601906101529e-01
20 34 9.27563273765129592e-01
21 34 9.24345452757657893e-01
22 34 9.21199138883685209e-01
23 34 9.18124332143212318e-01
24 34 9.15121032536238332e-01
25 34 9.12189240062763806e-01
26 34 9.09328954722788407e-01
27 34 9.06540176516312801e-01
28 34 9.03822905443336322e-01
29 34 9.01177141503859414e-01
30 34 8.98602884697881854e-01
31 34 8.96100135025403977e-01
32 34 8.93668892486424449e-01
33 34 8.91309157080944936e-01
34 34 8.89020928808964772e-01
35 34 8.86804207670484290e-01
36 34 8.84658993665502935e-01
37 34 8.82585286794020818e-01
38 34 8.80583087056038827e-01
39 34 8.78652394451555074e-01
40 34 8.76793208980571004e-01
41 34 8.75005530643086726e-01
42 34 8.73289359439101576e-01
43 34 8.71644695368615885e-01
44 34 8.70071538431629432e-01
45 34 8.68569888628142994e-01
46 34 8.67139745958155461e-01
47 34 8.65781110421666833e-01
48 34 8.64493982018678109e-01
49 34 8.63278360749188733e-01
50 34 8.62134246613199151e-01
51 34 8.61061639610708029e-01
52 34 8.60060539741717145e-01
53 34 8.59130947006224832e-01
54 34 8.58272861404231979e-01
55 34 8.57486282935739030e-01
56 34 8.56771211600745319e-01
57 34 8.56127647399251401e-01
58 34 8.55555590331255944e-01
59 34 8.55055040396760280e-01
60 34 8.54625997595764075e-01
61 34 8.54268461928267442e-01
62 34 8.53982433394269491e-01
63 34 8.53767911993771667e-01
64 34 8.53624897726772636e-01
65 34 8.53553390593273065e-01
66 34 8.53553390593273065e-01
67 34 8.53624897726772636e-01
68 34 8.53767911993771444e-01
69 34 8.53982433394269491e-01
70 34 8.54268461928267442e-01
71 34 8.54625997595764075e-01
72 34 8.55055040396760280e-01
73 34 8.55555590331255944e-01
74 34 8.56127647399251068e-01
75 34 8.56771211600745319e-01
76 34 8.57486282935738919e-01
77 34 8.58272861404231979e-01
78 34 8.59130947006224832e-01
79 34 8.60060539741716812e-01
80 34 8.61061639610708029e-01
81 34 8.62134246613199151e-01
82 34 8.63278360749188733e-01
83 34 8.64493982018678109e-01
84 34 8.65781110421666833e-01
85 34 8.67139745958155461e-01
86 34 8.68569888628142994e-01
87 34 8.70071538431629432e-01
88 34 8.71644695368615885e-01
89 34 8.73289359439101465e-01
90 34 8.75005530643086726e-01
91 34 8.76793208980571004e-01
92 34 8.78652394451555407e-01
93 34 8.80583087056038827e-01
94 34 8.82585286794020818e-01
95 34 8.84658993665502935e-01
96 34 8.86804207670484290e-01
97 34 8.89020928808964772e-01
98 34 8.91309157080944936e-01
99 34 8.93668892486424449e-01
100 34 8.96100135025403866e-01
101 34 8.98602884697881632e-01
102 34 9.01177141503859080e-01
103 34 9.03822905443336211e-01
104 34 9.06540176516312468e-01
105 34 9.09328954722788074e-01
106 34 9.12189240062763695e-01
107 34 9.15121032536237999e-01
108 34 9.18124332143212096e-01
109 34 9.21199138883685098e-01
110 34 9.24345452757657893e-01
111 34 9.27563273765129592e-01
112 34 9.30852601906101529e-01
113 34 9.34213437180572481e-01
114 34 9.37645779588542450e-01
115 34 9.41149629130012100e-01
116 34 9.44724985804981321e-01
117 34 9.48371849613449003e-01
118 34 9.52090220555417366e-01
119 34 9.55880098630884412e-01
120 34 9.59741483839850029e-01
121 34 9.63674376182315995e-01
122 34 9.67678775658281087e-01
123 34 9.71754682267745640e-01
124 34 9.75902096010709874e-01
125 34 9.80121016887173235e-01
126 34 9.84411444897135834e-01
127 34 9.88773380040597782e-01
128 34 9.93206822317559634e-01
129 34 9.97711771728020169e-01
130 34 1.00000000000000000e+00
1 35 1.00000000000000000e+00
2 35 9.97711771728020169e-01
3 35 9.93206822317559634e-01
4 35 9.88773380040597782e-01
5 35 9.84411444897135723e-01
6 35 9.80121016887173013e-01
7 35 9.75902096010709874e-01
8 35 9.71754682267745640e-01
9 35 9.67678775658280865e-01
10 35 9.63674376182315440e-01
11 35 9.59741483839850029e-01
12 35 9.55880098630883634e-01
13 35 9.52090220555417033e-01
14 35 9.48371849613448892e-01
15 35 9.44724985804980655e-01
16 35 9.41149629130011767e-01
17 35 9.37645779588542228e-01
18 35 9.34213437180572370e-01
19 35 9.30852601906101529e-01
20 35 9.27563273765129703e-01
21 35 9.24345452757657893e-01
22 35 9.21199138883685209e-01
23 35 9.18124332143212318e-01
24 35 9.15121032536238332e-01
25 35 9.12189240062763917e-01
26 35 9.09328954722788407e-01
27 35 9.06540176516312801e-01
28 35 9.03822905443336322e-01
29 35 9.01177141503859414e-01
30 35 8.98602884697881965e-01
31 35 8.96100135025403977e-01
32 35 8.93668892486424449e-01
33 35 8.91309157080944936e-01
34 35 8.89020928808964772e-01
35 35 8.86804207670484290e-01
36 35 8.84658993665503046e-01
37 35 8.82585286794020818e-01
38 35 8.80583087056038827e-01
39 35 8.78652394451555185e-01
40 35 8.76793208980571004e-01
41 35 8.75005530643086726e-01
42 35 8.73289359439101576e-01
43 35 8.71644695368615885e-01
44 35 8.70071538431629432e-01
45 35 8.68569888628142994e-01
46 35 8.67139745958155461e-01
47 35 8.65781110421666833e-01
48 35 8.64493982018678109e-01
49 35 8.63278360749188733e-01
50 35 8.62134246613199262e-01
51 35 8.61061639610708029e-01
52 35 8.60060539741717145e-01
53 35 8.59130947006224832e-01
54 35 8.58272861404232090e-01
55 35 8.57486282935739141e-01
56 35 8.56771211600745319e-01
57 35 8.56127647399251512e-01
58 35 8.55555590331255944e-01
59 35 8.55055040396760280e-01
60 35 8.54625997595764075e-01
61 35 8.54268461928267442e-01
62 35 8.53982433394269491e-01
63 35 8.53767911993771778e-01
64 35 8.53624897726772636e-01
65 35 8.53553390593273065e-01
66 35 8.53553390593273065e-01
67 35 8.53624897726772636e-01
68 35 8.53767911993771444e-01
69 35 8.53982433394269491e-01
70 35 8.54268461928267442e-01
71 35 8.54625997595764075e-01
72 35 8.55055040396760280e-01
73 35 8.55555590331255944e-01
74 35 8.56127647399251179e-01
75 35 8.56771211600745319e-01
76 35 8.57486282935738919e-01
77 35 8.58272861404232090e-01
78 35 8.59130947006224832e-01
79 35 8.60060539741716812e-01
80 35 8.61061639610708029e-01
81 35 8.62134246613199262e-01
82 35 8.63278360749188733e-01
83 35 8.64493982018678109e-01
84 35 8.65781110421666833e-01
85 35 8.67139745958155461e-01
86 35 8.68569888628142994e-01
87 35 8.70071538431629432e-01
88 35 8.71644695368615885e-01
89 35 8.73289359439101465e-01
90 35 8.75005530643086726e-01
91 35 8.76793208980571004e-01
92 35 8.78652394451555407e-01
93 35 8.80583087056038827e-01
94 35 8.82585286794020818e-01
95 35 8.84658993665503046e-01
96 35 8.86804207670484290e-01
97 35 8.89020928808964772e-01
98 35 8.91309157080944936e-01
99 35 8.93668892486424449e-01
100 35 8.96100135025403866e-01
101 35 8.98602884697881743e-01
102 35 9.01177141503859191e-01
103 35 9.03822905443336211e-01
104 35 9.06540176516312468e-01
105 35 9.09328954722788185e-01
106 35 9.12189240062763806e-01
107 35 9.15121032536238110e-01
108 35 9.18124332143212096e-01
109 35 9.21199138883685098e-01
110 35 9.24345452757657893e-01
111 35 9.27563273765129703e-01
112 35 9.30852601906101529e-01
113 35 9.34213437180572481e-01
114 35 9.37645779588542450e-01
115 35 9.41149629130012100e-01
116 35 9.44724985804981432e-01
117 35 9.48371849613449003e-01
118 35 9.52090220555417477e-01
119 35 9.55880098630884412e-01
120 35 9.59741483839850140e-01
121 35 9.63674376182315995e-01
122 35 9.67678775658281087e-01
123 35 9.71754682267745640e-01
124 35 9.75902096010709874e-01
125 35 9.80121016887173235e-01
126 35 9.84411444897135834e-01
127 35 9.88773380040597782e-01
128 35 9.93206822317559634e-01
129 35 9.97711771728020169e-01
130 35 1.00000000000000000e+00
1 36 1.00000000000000000e+00
2 36 9.97711771728020169e-01
3 36 9.93206822317559634e-01
4 36 9.88773380040597782e-01
5 36 9.84411444897135723e-01
6 36 9.80121016887173124e-01
7 36 9.75902096010709985e-01
8 36 9.71754682267745640e-01
9 36 9.67678775658280976e-01
10 36 9.63674376182315440e-01
11 36 9.59741483839850029e-01
12 36 9.55880098630883634e-01
13 36 9.52090220555417033e-01
14 36 9.48371849613448892e-01
15 36 9.44724985804980655e-01
16 36 9.41149629130011767e-01
17 36 9.37645779588542228e-01
18 36 9.34213437180572370e-01
19 36 9.30852601906101529e-01
20 36 9.27563273765129703e-01
21 36 9.24345452757658004e-01
22 36 9.21199138883685209e-01
23 36 9.18124332143212318e-01
24 36 9.15121032536238443e-01
25 36 9.12189240062763917e-01
26 36 9.09328954722788407e-01
27 36 9.06540176516312912e-01
28 36 9.03822905443336322e-01
29 36 9.01177141503859525e-01
30 36 8.98602884697881965e-01
31 36 8.96100135025403977e-01
32 36 8.93668892486424449e-01
33 36 8.91309157080944936e-01
34 36 8.89020928808964772e-01
35 36 8.86804207670484290e-01
36 36 8.84658993665503046e-01
37 36 8.82585286794020929e-01
38 36 8.80583087056038827e-01
39 36 8.78652394451555185e-01
40 36 8.76793208980571004e-01
41 36 8.75005530643086726e-01
42 36 8.73289359439101687e-01
43 36 8.71644695368615996e-01
44 36 8.70071538431629432e-01
45 36 8.68569888628142994e-01
46 36 8.67139745958155572e-01
47 36 8.65781110421666833e-01
48 36 8.64493982018678109e-01
49 36 8.63278360749188733e-01
50 36 8.62134246613199373e-01
51 36 8.61061639610708029e-01
52 36 8.60060539741717145e-01
53 36 8.59130947006224832e-01
54 36 8.58272861404232090e-01
55 36 8.57486282935739252e-01
56 36 8.56771211600745319e-01
57 36 8.56127647399251512e-01
58 36 8.55555590331256055e-01
59 36 8.55055040396760391e-01
60 36 8.54625997595764075e-01
61 36 8.54268461928267442e-01
62 36 8.53982433394269491e-01
63 36 8.53767911993771778e-01
64 36 8.53624897726772636e-01
65 36 8.53553390593273176e-01
66 36 8.53553390593273176e-01
67 36 8.53624897726772636e-01
68 36 8.53767911993771444e-01
69 36 8.53982433394269491e-01
70 36 8.54268461928267442e-01
71 36 8.54625997595764075e-01
72 36 8.55055040396760280e-01
73 36 8.55555590331256055e-01
74 36 8.56127647399251179e-01
75 36 8.56771211600745319e-01
76 36 8.57486282935738919e-01
77 36 8.58272861404232090e-01
78 36 8.59130947006224832e-01
79 36 8.60060539741716812e-01
80 36 8.61061639610708029e-01
81 36 8.62134246613199373e-01
82 36 8.63278360749188733e-01
83 36 8.64493982018678109e-01
84 36 8.65781110421666833e-01
85 36 8.67139745958155572e-01
86 36 8.68569888628142994e-01
87 36 8.70071538431629432e-01
88 36 8.71644695368615996e-01
89 36 8.73289359439101465e-01
90 36 8.75005530643086726e-01
91 36 8.76793208980571004e-01
92 36 8.78652394451555407e-01
93 36 8.80583087056038827e-01
94 36 8.82585286794020929e-01
95 36 8.84658993665503046e-01
96 36 8.86804207670484290e-01
97 36 8.89020928808964772e-01
98 36 8.91309157080944936e-01
99 36 8.93668892486424449e-01
100 36 8.96100135025403866e-01
101 36 8.98602884697881743e-01
102 36 9.01177141503859302e-01
103 36 9.03822905443336322e-01
104 36 9.06540176516312579e-01
105 36 9.09328954722788185e-01
106 36 9.12189240062763806e-01
107 36 9.15121032536238110e-01
108 36 9.18124332143212096e-01
109 36 9.21199138883685098e-01
110 36 9.24345452757658004e-01
111 36 9.27563273765129703e-01
112 36 9.30852601906101529e-01
113 36 9.34213437180572481e-01
114 36 9.37645779588542450e-01
115 36 9.41149629130012100e-01
116 36 9.44724985804981432e-01
117 36 9.48371849613449003e-01
118 36 9.52090220555417477e-01
119 36 9.55880098630884412e-01
120 36 9.59741483839850140e-01
121 36 9.63674376182315995e-01
122 36 9.67678775658281198e-01
123 36 9.71754682267745640e-01
124 36 9.75902096010709985e-01
125 36 9.80121016887173346e-01
126 36 9.84411444897135945e-01
127 36 9.88773380040597782e-01
128 36 9.93206822317559634e-01
129 36 9.97711771728020169e-01
130 36 1.00000000000000000e+00
1 37 1.00000000000000000e+00
2 37 9.97711771728020169e-01
3 37 9.93206822317559745e-01
4 37 9.88773380040597782e-01
5 37 9.84411444897135723e-01
6 37 9.80121016887173235e-01
7 37 9.75902096010709985e-01
8 37 9.71754682267745751e-01
9 37 9.67678775658280976e-01
10 37 9.63674376182315440e-01
11 37 9.59741483839850029e-01
12 37 9.55880098630883746e-01
13 37 9.52090220555417144e-01
14 37 9.48371849613449003e-01
15 37 9.44724985804980655e-01
16 37 9.41149629130011767e-01
17 37 9.37645779588542339e-01
18 37 9.34213437180572481e-01
19 37 9.30852601906101529e-01
20 37 9.27563273765129703e-01
21 37 9.24345452757658004e-01
22 37 9.21199138883685209e-01
23 37 9.18124332143212429e-01
24 37 9.15121032536238443e-01
25 37 9.12189240062763917e-01
26 37 9.09328954722788407e-01
27 37 9.06540176516312912e-01
28 37 9.03822905443336433e-01
29 37 9.01177141503859636e-01
30 37 8.98602884697881965e-01
31 37 8.96100135025403977e-01
32 37 8.93668892486424449e-01
33 37 8.91309157080944936e-01
34 37 8.89020928808964772e-01
35 37 8.86804207670484290e-01
36 37 8.84658993665503046e-01
37 37 8.82585286794020929e-01
38 37 8.80583087056038938e-01
39 37 8.78652394451555296e-01
40 37 8.76793208980571115e-01
41 37 8.75005530643086726e-01
42 37 8.73289359439101687e-01
43 37 8.71644695368616107e-01
44 37 8.70071538431629543e-01
45 37 8.68569888628142994e-01
46 37 8.67139745958155572e-01
47 37 8.65781110421666833e-01
48 37 8.64493982018678109e-01
49 37 8.63278360749188733e-01
50 37 8.62134246613199373e-01
51 37 8.61061639610708029e-01
52 37 8.60060539741717145e-01
53 37 8.59130947006224832e-01
54 37 8.58272861404232090e-01
55 37 8.57486282935739252e-01
56 37 8.56771211600745319e-01
57 37 8.56127647399251623e-01
58 37 8.55555590331256166e-01
59 37 8.55055040396760391e-01
60 37 8.54625997595764186e-01
61 37 8.54268461928267442e-01
62 37 8.53982433394269491e-01
63 37 8.53767911993771778e-01
64 37 8.53624897726772636e-01
65 37 8.53553390593273287e-01
66 37 8.53553390593273287e-01
67 37 8.53624897726772636e-01
68 37 8.53767911993771444e-01
69 37 8.53982433394269491e-01
70 37 8.54268461928267442e-01
71 37 8.54625997595764186e-01
72 37 8.55055040396760280e-01
73 37 8.55555590331256166e-01
74 37 8.56127647399251179e-01
75 37 8.56771211600745319e-01
76 37 8.57486282935738919e-01
77 37 8.58272861404232090e-01
78 37 8.59130947006224832e-01
79 37 8.60060539741716812e-01
80 37 8.61061639610708029e-01
81 37 8.62134246613199373e-01
82 37 8.63278360749188733e-01
83 37 8.64493982018678109e-01
84 37 8.65781110421666833e-01
85 37 8.67139745958155572e-01
86 37 8.68569888628142994e-01
87 37 8.70071538431629543e-01
88 37 8.71644695368616107e-01
89 37 8.73289359439101465e-01
90 37 8.75005530643086726e-01
91 37 8.76793208980571115e-01
92 37 8.78652394451555407e-01
93 37 8.80583087056038938e-01
94 37 8.82585286794020929e-01
95 37 8.84658993665503046e-01
96 37 8.86804207670484290e-01
97 37 8.89020928808964772e-01
98 37 8.91309157080944936e-01
99 37 8.93668892486424449e-01
100 37 8.96100135025403866e-01
101 37 8.98602884697881743e-01
102 37 9.01177141503859302e-01
103 37 9.03822905443336433e-01
104 37 9.06540176516312579e-01
105 37 9.09328954722788296e-01
106 37 9.12189240062763806e-01
107 37 9.15121032536238110e-01
108 37 9.18124332143212096e-01
109 37 9.21199138883685098e-01
110 37 9.24345452757658004e-01
111 37 9.27563273765129703e-01
112 37 9.30852601906101529e-01
113 37 9.34213437180572592e-01
114 37 9.37645779588542561e-01
115 37 9.41149629130012100e-01
116 37 9.44724985804981432e-01
117 37 9.48371849613449114e-01
118 37 9.52090220555417588e-01
119 37 9.55880098630884412e-01
120 37 9.59741483839850251e-01
121 37 9.63674376182315995e-01
122 37 9.67678775658281309e-01
123 37 9.71754682267745751e-01
124 37 9.75902096010710096e-01
125 37 9.80121016887173457e-01
126 37 9.84411444897135945e-01
127 37 9.88773380040597782e-01
128 37 9.93206822317559745e-01
129 37 9.97711771728020169e-01
130 37 1.00000000000000000e+00
1 38 1.00000000000000000e+00
2 38 9.97711771728020169e-01
3 38 9.93206822317559745e-01
4 38 9.88773380040597782e-01
5 38 9.84411444897135723e-01
6 38 9.80121016887173346e-01
7 38 9.75902096010709985e-01
8 38 9.71754682267745751e-01
9 38 9.67678775658280976e-01
10 38 9.63674376182315440e-01
11 38 9.59741483839850029e-01
12 38 9.55880098630883746e-01
13 38 9.52090220555417144e-01
14 38 9.48371849613449003e-01
15 38 9.44724985804980655e-01
16 38 9.41149629130011767e-01
17 38 9.37645779588542339e-01
18 38 9.34213437180572592e-01
19 38 9.30852601906101529e-01
20 38 9.27563273765129703e-01
21 38 9.24345452757658004e-01
22 38 9.21199138883685209e-01
23 38 9.18124332143212429e-01
24 38 9.15121032536238443e-01
25 38 9.12189240062763917e-01
26 38 9.09328954722788407e-01
27 38 9.06540176516312912e-01
28 38 9.03822905443336433e-01
29 38 9.01177141503859636e-01
30 38 8.98602884697881965e-01
31 38 8.96100135025403977e-01
32 38 8.93668892486424449e-01
33 38 8.91309157080944936e-01
34 38 8.89020928808964772e-01
35 38 8.86804207670484290e-01
36 38 8.84658993665503046e-01
37 38 8.82585286794020929e-01
38 38 8.80583087056038938e-01
39 38 8.78652394451555296e-01
40 38 8.76793208980571226e-01
41 38 8.75005530643086726e-01
42 38 8.73289359439101687e-01
43 38 8.71644695368616218e-01
44 38 8.70071538431629543e-01
45 38 8.68569888628142994e-01
46 38 8.67139745958155683e-01
47 38 8.65781110421666833e-01
48 38 8.64493982018678109e-01
49 38 8.63278360749188733e-01
50 38 8.62134246613199484e-01
51 38 8.61061639610708141e-01
52 38 8.60060539741717145e-01
53 38 8.59130947006224832e-01
54 38 8.58272861404232090e-01
55 38 8.57486282935739252e-01
56 38 8.56771211600745319e-01
57 38 8.56127647399251623e-01
58 38 8.55555590331256166e-01
59 38 8.55055040396760391e-01
60 38 8.54625997595764186e-01
61 38 8.54268461928267442e-01
62 38 8.53982433394269491e-01
63 38 8.53767911993771778e-01
64 38 8.53624897726772636e-01
65 38 8.53553390593273287e-01
66 38 8.53553390593273287e-01
67 38 8.53624897726772636e-01
68 38 8.53767911993771444e-01
69 38 8.53982433394269491e-01
70 38 8.54268461928267442e-01
71 38 8.54625997595764186e-01
72 38 8.55055040396760280e-01
73 38 8.55555590331256166e-01
74 38 8.56127647399251179e-01
75 38 8.56771211600745319e-01
76 38 8.57486282935738919e-01
77 38 8.58272861404232090e-01
78 38 8.59130947006224832e-01
79 38 8.60060539741716812e-01
80 38 8.61061639610708029e-01
81 38 8.62134246613199484e-01
82 38 8.63278360749188733e-01
83 38 8.64493982018678109e-01
84 38 8.65781110421666833e-01
85 38 8.67139745958155683e-01
86 38 8.68569888628142994e-01
87 38 8.70071538431629543e-01
88 38 8.71644695368616218e-01
89 38 8.73289359439101465e-01
90 38 8.75005530643086726e-01
91 38 8.76793208980571226e-01
92 38 8.78652394451555407e-01
93 38 8.80583087056038938e-01
94 38 8.82585286794020929e-01
95 38 8.84658993665503046e-01
96 38 8.86804207670484290e-01
97 38 8.89020928808964772e-01
98 38 8.91309157080944936e-01
99 38 8.93668892486424449e-01
100 38 8.96100135025403866e-01
101 38 8.98602884697881743e-01
102 38 9.01177141503859414e-01
103 38 9.03822905443336433e-01
104 38 9.06540176516312579e-01
105 38 9.09328954722788296e-01
106 38 9.12189240062763806e-01
107 38 9.15121032536238110e-01
108 38 9.18124332143212096e-01
109 38 9.21199138883685098e-01
110 38 9.24345452757658004e-01
111 38 9.27563273765129703e-01
112 38 9.30852601906101529e-01
113 38 9.34213437180572703e-01
114 38 9.37645779588542561e-01
115 38 9.41149629130012100e-01
116 38 9.44724985804981432e-01
117 38 9.48371849613449114e-01
118 38 9.52090220555417588e-01
119 38 9.55880098630884412e-01
120 38 9.59741483839850251e-01
121 38 9.63674376182315995e-01
122 38 9.67678775658281420e-01
123 38 9.71754682267745751e-01
124 38 9.75902096010710096e-01
125 38 9.80121016887173568e-01
126 38 9.84411444897135945e-01
127 38 9.88773380040597782e-01
128 38 9.93206822317559745e-01
129 38 9.97711771728020169e-01
130 38 1.00000000000000000e+00
1 39 1.00000000000000000e+00
2 39 9.97711771728020169e-01
3 39 9.93206822317559745e-01
4 39 9.88773380040597671e-01
5 39 9.84411444897135723e-01
6 39 9.80121016887173346e-01
7 39 9.75902096010709985e-01
8 39 9.71754682267745640e-01
9 39 9.67678775658280865e-01
10 39 9.63674376182315329e-01
11 39 9.59741483839849918e-01
12 39 9.55880098630883634e-01
13 39 9.52090220555417033e-01
14 39 9.48371849613449003e-01
15 39 9.44724985804980655e-01
16 39 9.41149629130011656e-01
17 39 9.37645779588542339e-01
18 39 9.34213437180572481e-01
19 39 9.30852601906101418e-01
20 39 9.27563273765129703e-01
21 39 9.24345452757658004e-01
22 39 9.21199138883685209e-01
23 39 9.18124332143212429e-01
24 39 9.15121032536238443e-01
25 39 9.12189240062763806e-01
26 39 9.09328954722788407e-01
27 39 9.06540176516312912e-01
28 39 9.03822905443336433e-01
29 39 9.01177141503859525e-01
30 39 8.98602884697881965e-01
31 39 8.96100135025403977e-01
32 39 8.93668892486424449e-01
33 39 8.91309157080944936e-01
34 39 8.89020928808964772e-01
35 39 8.86804207670484290e-01
36 39 8.84658993665502935e-01
37 39 8.82585286794020929e-01
38 39 8.80583087056038938e-01
39 39 8.78652394451555296e-01
40 39 8.76793208980571115e-01
41 39 8.75005530643086726e-01
42 39 8.73289359439101687e-01
43 39 8.71644695368616218e-01
44 39 8.70071538431629543e-01
45 39 8.68569888628142994e-01
46 39 8.67139745958155683e-01
47 39 8.65781110421666722e-01
48 39 8.64493982018677998e-01
49 39 8.63278360749188733e-01
50 39 8.62134246613199373e-01
51 39 8.61061639610708141e-01
52 39 8.60060539741717145e-01
53 39 8.59130947006224832e-01
54 39 8.58272861404232090e-01
55 39 8.57486282935739252e-01
56 39 8.56771211600745319e-01
57 39 8.56127647399251623e-01
58 39 8.55555590331256166e-01
59 39 8.55055040396760280e-01
60 39 8.54625997595764186e-01
61 39 8.54268461928267331e-01
62 39 8.53982433394269380e-01
63 39 8.53767911993771778e-01
64 39 8.53624897726772636e-01
65 39 8.53553390593273287e-01
66 39 8.53553390593273287e-01
67 39 8.53624897726772636e-01
68 39 8.53767911993771444e-01
69 39 8.53982433394269380e-01
70 39 8.54268461928267331e-01
71 39 8.54625997595764186e-01
72 39 8.55055040396760169e-01
73 39 8.55555590331256166e-01
74 39 8.56127647399251179e-01
75 39 8.56771211600745319e-01
76 39 8.57486282935738919e-01
77 39 8.58272861404232090e-01
78 39 8.59130947006224832e-01
79 39 8.60060539741716812e-01
80 39 8.61061639610708029e-01
81 39 8.62134246613199373e-01
82 39 8.63278360749188733e-01
83 39 8.64493982018677998e-01
84 39 8.65781110421666722e-01
85 39 8.67139745958155683e-01
86 39 8.68569888628142994e-01
87 39 8.70071538431629543e-01
88 39 8.71644695368616218e-01
89 39 8.73289359439101465e-01
90 39 8.75005530643086726e-01
91 39 8.76793208980571115e-01
92 39 8.78652394451555296e-01
93 39 8.80583087056038938e-01
94 39 8.82585286794020929e-01
95 39 8.84658993665502935e-01
96 39 8.86804207670484290e-01
97 39 8.89020928808964772e-01
98 39 8.91309157080944936e-01
99 39 8.93668892486424449e-01
100 39 8.96100135025403866e-01
101 39 8.98602884697881743e-01
102 39 9.01177141503859302e-01
103 39 9.03822905443336433e-01
104 39 9.06540176516312468e-01
105 39 9.09328954722788296e-01
106 39 9.12189240062763695e-01
107 39 9.15121032536238110e-01
108 39 9.18124332143212096e-01
109 39 9.21199138883685098e-01
110 39 9.24345452757658004e-01
111 39 9.27563273765129703e-01
112 39 9.30852601906101418e-01
113 39 9.34213437180572592e-01
114 39 9.37645779588542561e-01
115 39 9.41149629130011989e-01
116 39 9.44724985804981432e-01
117 39 9.48371849613449003e-01
118 39 9.52090220555417588e-01
119 39 9.55880098630884412e-01
120 39 9.59741483839850251e-01
121 39 9.63674376182315884e-01
122 39 9.67678775658281309e-01
123 39 9.71754682267745640e-01
124 39 9.75902096010710096e-01
125 39 9.80121016887173568e-01
126 39 9.84411444897135834e-01
127 39 9.88773380040597671e-01
128 39 9.93206822317559745e-01
129 39 9.97711771728020169e-01
130 39 1.00000000000000000e+00
1 40 1.00000000000000000e+00
2 40 9.97711771728020169e-01
3 40 9.93206822317559745e-01
4 40 9.88773380040597782e-01
5 40 9.84411444897135723e-01
6 40 9.80121016887173457e-01
7 40 9.75902096010709985e-01
8 40 9.71754682267745640e-01
9 40 9.67678775658280865e-01
10 40 9.63674376182315440e-01
11 40 9.59741483839850029e-01
12 40 9.55880098630883634e-01
13 40 9.52090220555417144e-01
14 40 9.48371849613449114e-01
15 40 9.44724985804980766e-01
16 40 9.41149629130011656e-01
17 40 9.37645779588542450e-01
18 40 9.34213437180572592e-01
19 40 9.30852601906101529e-01
20 40 9.27563273765129814e-01
21 40 9.24345452757658004e-01
22 40 9.21199138883685320e-01
23 40 9.18124332143212540e-01
24 40 9.15121032536238443e-01
25 40 9.12189240062763806e-01
26 40 9.09328954722788407e-01
27 40 9.06540176516313023e-01
28 40 9.03822905443336433e-01
29 40 9.01177141503859636e-01
30 40 8.98602884697881965e-01
31 40 8.96100135025403977e-01
32 40 8.93668892486424449e-01
33 40 8.91309157080945047e-01
34 40 8.89020928808964772e-01
35 40 8.86804207670484290e-01
36 40 8.84658993665502935e-01
37 40 8.82585286794020929e-01
38 40 8.80583087056039049e-01
39 40 8.78652394451555296e-01
40 40 8.76793208980571115e-01
41 40 8.75005530643086837e-01
42 40 8.73289359439101687e-01
43 40 8.71644695368616218e-01
44 40 8.70071538431629654e-01
45 40 8.68569888628143105e-01
46 40 8.67139745958155794e-01
47 40 8.65781110421666833e-01
48 40 8.64493982018678109e-01
49 40 8.63278360749188844e-01
50 40 8.62134246613199373e-01
51 40 8.61061639610708141e-01
52 40 8.60060539741717145e-01
53 40 8.59130947006224943e-01
54 40 8.58272861404232090e-01
55 40 8.57486282935739363e-01
56 40 8.56771211600745319e-01
57 40 8.56127647399251623e-01
58 40 8.55555590331256166e-01
59 40 8.55055040396760391e-01
60 40 8.54625997595764297e-01
61 40 8.54268461928267331e-01
62 40 8.53982433394269491e-01
63 40 8.53767911993771889e-01
64 40 8.53624897726772747e-01
65 40 8.53553390593273287e-01
66 40 8.53553390593273287e-01
67 40 8.53624897726772747e-01
68 40 8.53767911993771556e-01
69 40 8.53982433394269491e-01
70 40 8.54268461928267331e-01
71 40 8.54625997595764297e-01
72 40 8.55055040396760280e-01
73 40 8.55555590331256166e-01
74 40 8.56127647399251179e-01
75 40 8.56771211600745319e-01
76 40 8.57486282935739030e-01
77 40 8.58272861404232090e-01
78 40 8.59130947006224943e-01
79 40 8.60060539741716812e-01
80 40 8.61061639610708141e-01
81 40 8.62134246613199373e-01
82 40 8.63278360749188844e-01
83 40 8.64493982018678109e-01
84 40 8.65781110421666833e-01
85 40 8.67139745958155794e-01
86 40 8.68569888628142994e-01
87 40 8.70071538431629654e-01
88 40 8.71644695368616218e-01
89 40 8.73289359439101465e-01
90 40 8.75005530643086837e-01
91 40 8.76793208980571115e-01
92 40 8.78652394451555296e-01
93 40 8.80583087056039049e-01
94 40 8.82585286794020929e-01
95 40 8.84658993665502935e-01
96 40 8.86804207670484290e-01
97 40 8.89020928808964772e-01
98 40 8.91309157080945047e-01
99 40 8.93668892486424449e-01
100 40 8.96100135025403866e-01
101 40 8.98602884697881743e-01
102 40 9.01177141503859414e-01
103 40 9.03822905443336433e-01
104 40 9.06540176516312579e-01
105 40 9.09328954722788296e-01
106 40 9.12189240062763695e-01
107 40 9.15121032536238110e-01
108 40 9.18124332143212207e-01
109 40 9.21199138883685209e-01
110 40 9.24345452757658004e-01
111 40 9.27563273765129814e-01
112 40 9.30852601906101529e-01
113 40 9.34213437180572592e-01
114 40 9.37645779588542672e-01
115 40 9.41149629130012100e-01
116 40 9.44724985804981432e-01
117 40 9.48371849613449114e-01
118 40 9.52090220555417699e-01
119 40 9.55880098630884412e-01
120 40 9.59741483839850362e-01
121 40 9.63674376182315884e-01
122 40 9.67678775658281309e-01
123 40 9.71754682267745640e-01
124 40 9.75902096010710096e-01
125 40 9.80121016887173679e-01
126 40 9.84411444897135945e-01
127 40 9.88773380040597782e-01
128 40 9.93206822317559745e-01
129 40 9.97711771728020169e-01
130 40 1.00000000000000000e+00
1 41 1.00000000000000000e+00
2 41 9.97711771728020169e-01
3 41 9.93206822317559856e-01
4 41 9.88773380040597893e-01
5 41 9.84411444897135834e-01
6 41 9.80121016887173568e-01
7 41 9.75902096010709985e-01
8 41 9.71754682267745640e-01
9 41 9.67678775658280976e-01
10 41 9.63674376182315440e-01
11 41 9.59741483839850140e-01
12 41 9.55880098630883634e-01
13 41 9.52090220555417144e-01
14 41 9.48371849613449114e-01
15 41 9.44724985804980766e-01
16 41 9.41149629130011767e-01
17 41 9.37645779588542450e-01
18 41 9.34213437180572703e-01
19 41 9.30852601906101640e-01
20 41 9.27563273765129925e-01
21 41 9.24345452757658004e-01
22 41 9.21199138883685320e-01
23 41 9.18124332143212540e-01
24 41 9.15121032536238443e-01
25 41 9.12189240062763806e-01
26 41 9.09328954722788518e-01
27 41 9.06540176516313134e-01
28 41 9.03822905443336433e-01
29 41 9.01177141503859747e-01
30 41 8.98602884697882076e-01
31 41 8.96100135025403977e-01
32 41 8.93668892486424560e-01
33 41 8.91309157080945158e-01
34 41 8.89020928808964772e-01
35 41 8.86804207670484401e-01
36 41 8.84658993665502935e-01
37 41 8.82585286794021040e-01
38 41 8.80583087056039049e-01
39 41 8.78652394451555296e-01
40 41 8.76793208980571226e-01
41 41 8.75005530643086837e-01
42 41 8.73289359439101687e-01
43 41 8.71644695368616218e-01
44 41 8.70071538431629654e-01
45 41 8.68569888628143105e-01
46 41 8.67139745958155794e-01
47 41 8.65781110421666944e-01
48 41 8.64493982018678220e-01
49 41 8.63278360749188844e-01
50 41 8.62134246613199373e-01
51 41 8.61061639610708252e-01
52 41 8.60060539741717256e-01
53 41 8.59130947006224943e-01
54 41 8.58272861404232090e-01
55 41 8.57486282935739363e-01
56 41 8.56771211600745430e-01
57 41 8.56127647399251623e-01
58 41 8.55555590331256166e-01
59 41 8.55055040396760502e-01
60 41 8.54625997595764408e-01
61 41 8.54268461928267331e-01
62 41 8.53982433394269602e-01
63 41 8.53767911993771889e-01
64 41 8.53624897726772747e-01
65 41 8.53553390593273287e-01
66 41 8.53553390593273287e-01
67 41 8.53624897726772747e-01
68 41 8.53767911993771667e-01
69 41 8.53982433394269491e-01
70 41 8.54268461928267331e-01
71 41 8.54625997595764408e-01
72 41 8.55055040396760391e-01
73 41 8.55555590331256166e-01
74 41 8.56127647399251179e-01
75 41 8.56771211600745319e-01
76 41 8.57486282935739030e-01
77 41 8.58272861404232090e-01
78 41 8.59130947006224943e-01
79 41 8.60060539741716923e-01
80 41 8.61061639610708252e-01
81 41 8.62134246613199373e-01
82 41 8.63278360749188844e-01
83 41 8.64493982018678220e-01
84 41 8.65781110421666944e-01
85 41 8.67139745958155794e-01
86 41 8.68569888628142994e-01
87 41 8.70071538431629654e-01
88 41 8.71644695368616218e-01
89 41 8.73289359439101465e-01
90 41 8.75005530643086837e-01
91 41 8.76793208980571226e-01
92 41 8.78652394451555296e-01
93 41 8.80583087056039049e-01
94 41 8.82585286794021040e-01
95 41 8.84658993665502935e-01
96 41 8.86804207670484401e-01
97 41 8.89020928808964772e-01
98 41 8.91309157080945158e-01
99 41 8.93668892486424560e-01
100 41 8.96100135025403866e-01
101 41 8.98602884697881854e-01
102 41 9.01177141503859414e-01
103 41 9.03822905443336433e-01
104 41 9.06540176516312579e-01
105 41 9.09328954722788407e-01
106 41 9.12189240062763695e-01
107 41 9.15121032536238110e-01
108 41 9.18124332143212207e-01
109 41 9.21199138883685209e-01
110 41 9.24345452757658004e-01
111 41 9.27563273765129814e-01
112 41 9.30852601906101640e-01
113 41 9.34213437180572703e-01
114 41 9.37645779588542672e-01
115 41 9.41149629130012211e-01
116 41 9.44724985804981543e-01
117 41 9.48371849613449114e-01
118 41 9.52090220555417810e-01
119 41 9.55880098630884523e-01
120 41 9.59741483839850362e-01
121 41 9.63674376182315995e-01
122 41 9.67678775658281420e-01
123 41 9.71754682267745640e-01
124 41 9.75902096010710096e-01
125 41 9.80121016887173679e-01
126 41 9.84411444897136056e-01
127 41 9.88773380040597893e-01
128 41 9.93206822317559856e-01
129 41 9.97711771728020169e-01
130 41 1.00000000000000000e+00
1 42 1.00000000000000000e+00
2 42 9.97711771728020169e-01
3 42 9.93206822317559856e-01
4 42 9.88773380040597893e-01
5 42 9.84411444897135834e-01
6 42 9.80121016887173568e-01
7 42 9.75902096010709985e-01
8 42 9.71754682267745640e-01
9 42 9.67678775658281087e-01
10 42 9.63674376182315551e-01
11 42 9.59741483839850251e-01
12 42 9.55880098630883746e-01
13 42 9.52090220555417144e-01
14 42 9.48371849613449225e-01
15 42 9.44724985804980877e-01
16 42 9.41149629130011878e-01
17 42 9.37645779588542450e-01
18 42 9.34213437180572703e-01
19 42 9.30852601906101751e-01
20 42 9.27563273765129925e-01
21 42 9.24345452757658004e-01
22 42 9.21199138883685431e-01
23 42 9.18124332143212540e-01
24 42 9.15121032536238443e-01
25 42 9.12189240062763917e-01
26 42 9.09328954722788629e-01
27 42 9.06540176516313134e-01
28 42 9.03822905443336544e-01
29 42 9.01177141503859858e-01
30 42 8.98602884697882076e-01
31 42 8.96100135025404088e-01
32 42 8.93668892486424560e-01
33 42 8.91309157080945269e-01
34 42 8.89020928808964883e-01
35 42 8.86804207670484401e-01
36 42 8.84658993665503046e-01
37 42 8.82585286794021151e-01
38 42 8.80583087056039049e-01
39 42 8.78652394451555296e-01
40 42 8.76793208980571226e-01
41 42 8.75005530643086948e-01
42 42 8.73289359439101798e-01
43 42 8.71644695368616218e-01
44 42 8.70071538431629765e-01
45 42 8.68569888628143216e-01
46 42 8.67139745958155794e-01
47 42 8.65781110421666944e-01
48 42 8.64493982018678220e-01
49 42 8.63278360749188955e-01
50 42 8.62134246613199484e-01
51 42 8.61061639610708252e-01
52 42 8.60060539741717367e-01
53 42 8.59130947006224943e-01
54 42 8.58272861404232201e-01
55 42 8.57486282935739363e-01
56 42 8.56771211600745541e-01
57 42 8.56127647399251623e-01
58 42 8.55555590331256166e-01
59 42 8.55055040396760613e-01
60 42 8.54625997595764408e-01
61 42 8.54268461928267331e-01
62 42 8.53982433394269713e-01
63 42 8.53767911993772000e-01
64 42 8.53624897726772747e-01
65 42 8.53553390593273398e-01
66 42 8.53553390593273398e-01
67 42 8.53624897726772747e-01
68 42 8.53767911993771778e-01
69 42 8.53982433394269491e-01
70 42 8.54268461928267331e-01
71 42 8.54625997595764408e-01
72 42 8.55055040396760502e-01
73 42 8.55555590331256166e-01
74 42 8.56127647399251179e-01
75 42 8.56771211600745430e-01
76 42 8.57486282935739030e-01
77 42 8.58272861404232201e-01
78 42 8.59130947006224943e-01
79 42 8.60060539741717034e-01
80 42 8.61061639610708252e-01
81 42 8.62134246613199484e-01
82 42 8.63278360749188844e-01
83 42 8.64493982018678220e-01
84 42 8.65781110421666944e-01
85 42 8.67139745958155794e-01
86 42 8.68569888628143105e-01
87 42 8.70071538431629765e-01
88 42 8.71644695368616218e-01
89 42 8.73289359439101576e-01
90 42 8.75005530643086948e-01
91 42 8.76793208980571226e-01
92 42 8.78652394451555296e-01
93 42 8.80583087056039049e-01
94 42 8.82585286794021151e-01
95 42 8.84658993665503046e-01
96 42 8.86804207670484401e-01
97 42 8.89020928808964883e-01
98 42 8.91309157080945269e-01
99 42 8.93668892486424560e-01
100 42 8.96100135025403866e-01
101 42 8.98602884697881854e-01
102 42 9.01177141503859525e-01
103 42 9.03822905443336544e-01
104 42 9.06540176516312579e-01
105 42 9.09328954722788518e-01
106 42 9.12189240062763695e-01
107 42 9.15121032536238110e-01
108 42 9.18124332143212207e-01
109 42 9.21199138883685320e-01
110 42 9.24345452757658004e-01
111 42 9.27563273765129814e-01
112 42 9.30852601906101751e-01
113 42 9.34213437180572703e-01
114 42 9.37645779588542672e-01
115 42 9.41149629130012322e-01
116 42 9.44724985804981543e-01
117 42 9.48371849613449225e-01
118 42 9.52090220555417810e-01
119 42 9.55880098630884523e-01
120 42 9.59741483839850473e-01
121 42 9.63674376182316106e-01
122 42 9.67678775658281531e-01
123 42 9.71754682267745640e-01
124 42 9.75902096010710096e-01
125 42 9.80121016887173679e-01
126 42 9.84411444897136056e-01
127 42 9.88773380040597893e-01
128 42 9.93206822317559856e-01
129 42 9.97711771728020169e-01
130 42 1.00000000000000000e+00
1 43 1.00000000000000000e+00
2 43 9.97711771728020169e-01
3 43 9.93206822317559967e-01
4 43 9.88773380040598004e-01
5 43 9.84411444897135945e-01
6 43 9.80121016887173679e-01
7 43 9.75902096010709985e-01
8 43 9.71754682267745751e-01
9 43 9.67678775658281198e-01
10 43 9.63674376182315662e-01
11 43 9.59741483839850362e-01
12 43 9.55880098630883857e-01
13 43 9.52090220555417144e-01
14 43 9.48371849613449336e-01
15 43 9.44724985804980988e-01
16 43 9.41149629130011989e-01
17 43 9.37645779588542561e-01
18 43 9.34213437180572703e-01
19 43 9.30852601906101751e-01
20 43 9.27563273765130036e-01
21 43 9.24345452757658004e-01
22 43 9.21199138883685542e-01
23 43 9.18124332143212540e-01
24 43 9.15121032536238554e-01
25 43 9.12189240062764028e-01
26 43 9.09328954722788740e-01
27 43 9.06540176516313134e-01
28 43 9.03822905443336655e-01
29 43 9.01177141503859969e-01
30 43 8.98602884697882187e-01
31 43 8.96100135025404088e-01
32 43 8.93668892486424671e-01
33 43 8.91309157080945380e-01
34 43 8.89020928808964994e-01
35 43 8.86804207670484512e-01
36 43 8.84658993665503046e-01
37 43 8.82585286794021262e-01
38 43 8.80583087056039160e-01
39 43 8.78652394451555296e-01
40 43 8.76793208980571337e-01
41 43 8.75005530643087059e-01
42 43 8.73289359439101798e-01
43 43 8.71644695368616329e-01
44 43 8.70071538431629876e-01
45 43 8.68569888628143327e-01
46 43 8.67139745958155794e-01
47 43 8.65781110421667055e-01
48 43 8.64493982018678331e-01
49 43 8.63278360749188955e-01
50 43 8.62134246613199595e-01
51 43 8.61061639610708252e-01
52 43 8.60060539741717478e-01
53 43 8.59130947006225054e-01
54 43 8.58272861404232312e-01
55 43 8.57486282935739363e-01
56 43 8.56771211600745652e-01
57 43 8.56127647399251734e-01
58 43 8.55555590331256277e-01
59 43 8.55055040396760613e-01
60 43 8.54625997595764408e-01
61 43 8.54268461928267442e-01
62 43 8.53982433394269824e-01
63 43 8.53767911993772000e-01
64 43 8.53624897726772858e-01
65 43 8.53553390593273509e-01
66 43 8.53553390593273509e-01
67 43 8.53624897726772858e-01
68 43 8.53767911993771889e-01
69 43 8.53982433394269602e-01
70 43 8.54268461928267442e-01
71 43 8.54625997595764408e-01
72 43 8.55055040396760502e-01
73 43 8.55555590331256277e-01
74 43 8.56127647399251179e-01
75 43 8.56771211600745430e-01
76 43 8.57486282935739030e-01
77 43 8.58272861404232312e-01
78 43 8.59130947006225054e-01
79 43 8.60060539741717145e-01
80 43 8.61061639610708252e-01
81 43 8.62134246613199595e-01
82 43 8.63278360749188844e-01
83 43 8.64493982018678331e-01
84 43 8.65781110421667055e-01
85 43 8.67139745958155794e-01
86 43 8.68569888628143216e-01
87 43 8.70071538431629876e-01
88 43 8.71644695368616329e-01
89 43 8.73289359439101576e-01
90 43 8.75005530643087059e-01
91 43 8.76793208980571337e-01
92 43 8.78652394451555296e-01
93 43 8.80583087056039160e-01
94 43 8.82585286794021262e-01
95 43 8.84658993665503046e-01
96 43 8.86804207670484512e-01
97 43 8.89020928808964994e-01
98 43 8.91309157080945380e-01
99 43 8.93668892486424671e-01
100 43 8.96100135025403866e-01
101 43 8.98602884697881965e-01
102 43 9.01177141503859525e-01
103 43 9.03822905443336544e-01
104 43 9.06540176516312579e-01
105 43 9.09328954722788629e-01
106 43 9.12189240062763806e-01
107 43 9.15121032536238221e-01
108 43 9.18124332143212207e-01
109 43 9.21199138883685320e-01
110 43 9.24345452757658004e-01
111 43 9.27563273765129925e-01
112 43 9.30852601906101751e-01
113 43 9.34213437180572703e-01
114 43 9.37645779588542783e-01
115 43 9.41149629130012433e-01
116 43 9.44724985804981543e-01
117 43 9.48371849613449336e-01
118 43 9.52090220555417810e-01
119 43 9.55880098630884523e-01
120 43 9.59741483839850584e-01
121 43 9.63674376182316106e-01
122 43 9.67678775658281531e-01
123 43 9.71754682267745751e-01
124 43 9.75902096010710096e-01
125 43 9.80121016887173790e-01
126 43 9.84411444897136056e-01
127 43 9.88773380040598004e-01
128 43 9.93206822317559967e-01
129 43 9.97711771728020169e-01
130 43 1.00000000000000000e+00
1 44 1.00000000000000000e+00
2 44 9.97711771728020058e-01
3 44 9.93206822317559967e-01
4 44 9.88773380040598004e-01
5 44 9.84411444897135945e-01
6 44 9.80121016887173679e-01
7 44 9.75902096010709985e-01
8 44 9.71754682267745751e-01
9 44 9.67678775658281198e-01
10 44 9.63674376182315662e-01
11 44 9.59741483839850251e-01
12 44 9.55880098630883857e-01
13 44 9.52090220555417144e-01
14 44 9.48371849613449336e-01
15 44 9.44724985804980988e-01
16 44 9.41149629130011989e-01
17 44 9.37645779588542450e-01
18 44 9.34213437180572703e-01
19 44 9.30852601906101751e-01
20 44 9.27563273765130036e-01
21 44 9.24345452757658004e-01
22 44 9.21199138883685542e-01
23 44 9.18124332143212540e-01
24 44 9.15121032536238554e-01
25 44 9.12189240062764028e-01
26 44 9.09328954722788740e-01
27 44 9.06540176516313134e-01
28 44 9.03822905443336655e-01
29 44 9.01177141503859969e-01
30 44 8.98602884697882187e-01
31 44 8.96100135025404088e-01
32 44 8.93668892486424671e-01
33 44 8.91309157080945380e-01
34 44 8.89020928808964994e-01
35 44 8.86804207670484512e-01
36 44 8.84658993665503046e-01
37 44 8.82585286794021262e-01
38 44 8.80583087056039160e-01
39 44 8.78652394451555296e-01
40 44 8.76793208980571337e-01
41 44 8.75005530643087059e-01
42 44 8.73289359439101687e-01
43 44 8.71644695368616329e-01
44 44 8.70071538431629876e-01
45 44 8.68569888628143327e-01
46 44 8.67139745958155794e-01
47 44 8.65781110421667055e-01
48 44 8.64493982018678331e-01
49 44 8.63278360749188955e-01
50 44 8.62134246613199595e-01
51 44 8.61061639610708252e-01
52 44 8.60060539741717478e-01
53 44 8.59130947006225054e-01
54 44 8.58272861404232312e-01
55 44 8.57486282935739363e-01
56 44 8.56771211600745652e-01
57 44 8.56127647399251734e-01
58 44 8.55555590331256277e-01
59 44 8.55055040396760613e-01
60 44 8.54625997595764408e-01
61 44 8.54268461928267442e-01
62 44 8.53982433394269824e-01
63 44 8.53767911993772000e-01
64 44 8.53624897726772858e-01
65 44 8.53553390593273509e-01
66 44 8.53553390593273509e-01
67 44 8.53624897726772858e-01
68 44 8.53767911993771889e-01
69 44 8.53982433394269602e-01
70 44 8.54268461928267442e-01
71 44 8.54625997595764408e-01
72 44 8.55055040396760502e-01
73 44 8.55555590331256277e-01
74 44 8.56127647399251179e-01
75 44 8.56771211600745430e-01
76 44 8.57486282935739030e-01
77 44 8.58272861404232312e-01
78 44 8.59130947006225054e-01
79 44 8.60060539741717145e-01
80 44 8.61061639610708252e-01
81 44 8.62134246613199595e-01
82 44 8.63278360749188844e-01
83 44 8.64493982018678331e-01
84 44 8.65781110421667055e-01
85 44 8.67139745958155794e-01
86 44 8.68569888628143216e-01
87 44 8.70071538431629876e-01
88 44 8.71644695368616329e-01
89 44 8.73289359439101576e-01
90 44 8.75005530643087059e-01
91 44 8.76793208980571337e-01
92 44 8.78652394451555296e-01
93 44 8.80583087056039160e-01
94 44 8.82585286794021262e-01
95 44 8.84658993665503046e-01
96 44 8.86804207670484512e-01
97 44 8.89020928808964994e-01
98 44 8.91309157080945380e-01
99 44 8.93668892486424671e-01
100 44 8.96100135025403866e-01
101 44 8.98602884697881965e-01
102 44 9.01177141503859525e-01
103 44 9.03822905443336544e-01
104 44 9.06540176516312579e-01
105 44 9.09328954722788629e-01
106 44 9.12189240062763806e-01
107 44 9.15121032536238221e-01
108 44 9.18124332143212207e-01
109 44 9.21199138883685320e-01
110 44 9.24345452757658004e-01
111 44 9.27563273765129925e-01
112 44 9.30852601906101751e-01
113 44 9.34213437180572703e-01
114 44 9.37645779588542783e-01
115 44 9.41149629130012433e-01
116 44 9.44724985804981543e-01
117 44 9.48371849613449336e-01
118 44 9.52090220555417810e-01
119 44 9.55880098630884412e-01
120 44 9.59741483839850584e-01
121 44 9.63674376182316106e-01
122 44 9.67678775658281420e-01
123 44 9.71754682267745751e-01
124 44 9.75902096010710096e-01
125 44 9.80121016887173790e-01
126 44 9.84411444897136056e-01
127 44 9.88773380040598004e-01
128 44 9.93206822317559967e-01
129 44 9.97711771728020058e-01
130 44 1.00000000000000000e+00
1 45 1.00000000000000000e+00
2 45 9.97711771728020058e-01
3 45 9.93206822317559967e-01
4 45 9.88773380040597893e-01
5 45 9.84411444897135945e-01
6 45 9.80121016887173679e-01
7 45 9.75902096010709985e-01
8 45 9.71754682267745640e-01
9 45 9.67678775658281198e-01
10 45 9.63674376182315662e-01
11 45 9.59741483839850140e-01
12 45 9.55880098630883857e-01
13 45 9.52090220555417144e-01
14 45 9.48371849613449225e-01
15 45 9.44724985804980988e-01
16 45 9.41149629130011989e-01
17 45 9.37645779588542450e-01
18 45 9.34213437180572703e-01
19 45 9.30852601906101751e-01
20 45 9.27563273765130036e-01
21 45 9.24345452757657893e-01
22 45 9.21199138883685542e-01
23 45 9.18124332143212429e-01
24 45 9.15121032536238554e-01
25 45 9.12189240062763917e-01
26 45 9.09328954722788740e-01
27 45 9.06540176516313023e-01
28 45 9.03822905443336655e-01
29 45 9.01177141503859969e-01
30 45 8.98602884697882187e-01
31 45 8.96100135025404088e-01
32 45 8.93668892486424671e-01
33 45 8.91309157080945380e-01
34 45 8.89020928808964883e-01
35 45 8.86804207670484512e-01
36 45 8.84658993665503046e-01
37 45 8.82585286794021151e-01
38 45 8.80583087056039160e-01
39 45 8.78652394451555296e-01
40 45 8.76793208980571226e-01
41 45 8.75005530643087059e-01
42 45 8.73289359439101687e-01
43 45 8.71644695368616329e-01
44 45 8.70071538431629876e-01
45 45 8.68569888628143327e-01
46 45 8.67139745958155794e-01
47 45 8.65781110421666944e-01
48 45 8.64493982018678220e-01
49 45 8.63278360749188955e-01
50 45 8.62134246613199595e-01
51 45 8.61061639610708252e-01
52 45 8.60060539741717478e-01
53 45 8.59130947006224943e-01
54 45 8.58272861404232312e-01
55 45 8.57486282935739363e-01
56 45 8.56771211600745652e-01
57 45 8.56127647399251734e-01
58 45 8.55555590331256277e-01
59 45 8.55055040396760613e-01
60 45 8.54625997595764408e-01
61 45 8.54268461928267442e-01
62 45 8.53982433394269824e-01
63 45 8.53767911993772000e-01
64 45 8.53624897726772858e-01
65 45 8.53553390593273509e-01
66 45 8.53553390593273509e-01
67 45 8.53624897726772858e-01
68 45 8.53767911993771889e-01
69 45 8.53982433394269491e-01
70 45 8.54268461928267442e-01
71 45 8.54625997595764408e-01
72 45 8.55055040396760502e-01
73 45 8.55555590331256277e-01
74 45 8.56127647399251179e-01
75 45 8.56771211600745430e-01
76 45 8.57486282935739030e-01
77 45 8.58272861404232312e-01
78 45 8.59130947006224943e-01
79 45 8.60060539741717145e-01
80 45 8.61061639610708252e-01
81 45 8.62134246613199595e-01
82 45 8.63278360749188844e-01
83 45 8.64493982018678220e-01
84 45 8.65781110421666944e-01
85 45 8.67139745958155794e-01
86 45 8.68569888628143216e-01
87 45 8.70071538431629876e-01
88 45 8.71644695368616329e-01
89 45 8.73289359439101576e-01
90 45 8.75005530643087059e-01
91 45 8.76793208980571226e-01
92 45 8.78652394451555296e-01
93 45 8.80583087056039160e-01
94 45 8.82585286794021151e-01
95 45 8.84658993665503046e-01
96 45 8.86804207670484512e-01
97 45 8.89020928808964883e-01
98 45 8.91309157080945380e-01
99 45 8.93668892486424671e-01
100 45 8.96100135025403866e-01
101 45 8.98602884697881965e-01
102 45 9.01177141503859525e-01
103 45 9.03822905443336544e-01
104 45 9.06540176516312468e-01
105 45 9.09328954722788629e-01
106 45 9.12189240062763695e-01
107 45 9.15121032536238221e-01
108 45 9.18124332143212096e-01
109 45 9.21199138883685320e-01
110 45 9.24345452757657893e-01
111 45 9.27563273765129925e-01
112 45 9.30852601906101751e-01
113 45 9.34213437180572703e-01
114 45 9.37645779588542783e-01
115 45 9.41149629130012322e-01
116 45 9.44724985804981543e-01
117 45 9.48371849613449336e-01
118 45 9.52090220555417699e-01
119 45 9.55880098630884412e-01
120 45 9.59741483839850473e-01
121 45 9.63674376182316106e-01
122 45 9.67678775658281420e-01
123 45 9.71754682267745640e-01
124 45 9.75902096010710096e-01
125 45 9.80121016887173790e-01
126 45 9.84411444897136056e-01
127 45 9.88773380040597893e-01
128 45 9.93206822317559967e-01
129 45 9.97711771728020058e-01
130 45 1.00000000000000000e+00
1 46 1.00000000000000000e+00
2 46 9.97711771728019947e-01
3 46 9.93206822317559856e-01
4 46 9.88773380040597782e-01
5 46 9.84411444897135834e-01
6 46 9.80121016887173568e-01
7 46 9.75902096010709874e-01
8 46 9.71754682267745640e-01
9 46 9.67678775658281198e-01
10 46 9.63674376182315662e-01
11 46 9.59741483839850029e-01
12 46 9.55880098630883746e-01
13 46 9.52090220555417144e-01
14 46 9.48371849613449225e-01
15 46 9.44724985804980877e-01
16 46 9.41149629130011989e-01
17 46 9.37645779588542450e-01
18 46 9.34213437180572592e-01
19 46 9.30852601906101751e-01
20 46 9.27563273765129925e-01
21 46 9.24345452757657893e-01
22 46 9.21199138883685431e-01
23 46 9.18124332143212429e-01
24 46 9.15121032536238554e-01
25 46 9.12189240062763806e-01
26 46 9.09328954722788740e-01
27 46 9.06540176516313023e-01
28 46 9.03822905443336544e-01
29 46 9.01177141503859858e-01
30 46 8.98602884697882187e-01
31 46 8.96100135025404088e-01
32 46 8.93668892486424671e-01
33 46 8.91309157080945380e-01
34 46 8.89020928808964883e-01
35 46 8.86804207670484512e-01
36 46 8.84658993665503046e-01
37 46 8.82585286794021151e-01
38 46 8.80583087056039160e-01
39 46 8.78652394451555296e-01
40 46 8.76793208980571115e-01
41 46 8.75005530643087059e-01
42 46 8.73289359439101687e-01
43 46 8.71644695368616329e-01
44 46 8.70071538431629765e-01
45 46 8.68569888628143216e-01
46 46 8.67139745958155794e-01
47 46 8.65781110421666833e-01
48 46 8.64493982018678220e-01
49 46 8.63278360749188955e-01
50 46 8.62134246613199484e-01
51 46 8.61061639610708252e-01
52 46 8.60060539741717367e-01
53 46 8.59130947006224832e-01
54 46 8.58272861404232312e-01
55 46 8.57486282935739252e-01
56 46 8.56771211600745652e-01
57 46 8.56127647399251734e-01
58 46 8.55555590331256166e-01
59 46 8.55055040396760502e-01
60 46 8.54625997595764408e-01
61 46 8.54268461928267442e-01
62 46 8.53982433394269824e-01
63 46 8.53767911993772000e-01
64 46 8.53624897726772858e-01
65 46 8.53553390593273509e-01
66 46 8.53553390593273509e-01
67 46 8.53624897726772858e-01
68 46 8.53767911993771889e-01
69 46 8.53982433394269491e-01
70 46 8.54268461928267442e-01
71 46 8.54625997595764408e-01
72 46 8.55055040396760391e-01
73 46 8.55555590331256166e-01
74 46 8.56127647399251179e-01
75 46 8.56771211600745430e-01
76 46 8.57486282935738919e-01
77 46 8.58272861404232312e-01
78 46 8.59130947006224832e-01
79 46 8.60060539741717145e-01
80 46 8.61061639610708252e-01
81 46 8.62134246613199484e-01
82 46 8.63278360749188844e-01
83 46 8.64493982018678220e-01
84 46 8.65781110421666833e-01
85 46 8.67139745958155794e-01
86 46 8.68569888628143105e-01
87 46 8.70071538431629765e-01
88 46 8.71644695368616329e-01
89 46 8.73289359439101576e-01
90 46 8.75005530643087059e-01
91 46 8.76793208980571115e-01
92 46 8.78652394451555296e-01
93 46 8.80583087056039160e-01
94 46 8.82585286794021151e-01
95 46 8.84658993665503046e-01
96 46 8.86804207670484512e-01
97 46 8.89020928808964883e-01
98 46 8.91309157080945380e-01
99 46 8.93668892486424671e-01
100 46 8.96100135025403866e-01
101 46 8.98602884697881854e-01
102 46 9.01177141503859414e-01
103 46 9.03822905443336544e-01
104 46 9.06540176516312468e-01
105 46 9.09328954722788629e-01
106 46 9.12189240062763584e-01
107 46 9.15121032536238221e-01
108 46 9.18124332143212096e-01
109 46 9.21199138883685320e-01
110 46 9.24345452757657893e-01
111 46 9.27563273765129925e-01
112 46 9.30852601906101751e-01
113 46 9.34213437180572592e-01
114 46 9.37645779588542783e-01
115 46 9.41149629130012322e-01
116 46 9.44724985804981543e-01
117 46 9.48371849613449336e-01
118 46 9.52090220555417588e-01
119 46 9.55880098630884412e-01
120 46 9.59741483839850473e-01
121 46 9.63674376182316106e-01
122 46 9.67678775658281420e-01
123 46 9.71754682267745640e-01
124 46 9.75902096010709985e-01
125 46 9.80121016887173679e-01
126 46 9.84411444897135945e-01
127 46 9.88773380040597782e-01
128 46 9.93206822317559856e-01
129 46 9.97711771728019947e-01
130 46 1.00000000000000000e+00
1 47 1.00000000000000000e+00
2 47 9.97711771728019947e-01
3 47 9.93206822317559856e-01
4 47 9.88773380040597782e-01
5 47 9.84411444897135723e-01
6 47 9.80121016887173568e-01
7 47 9.75902096010709763e-01
8 47 9.71754682267745640e-01
9 47 9.67678775658281198e-01
10 47 9.63674376182315662e-01
11 47 9.59741483839849918e-01
12 47 9.55880098630883746e-01
13 47 9.52090220555417144e-01
14 47 9.48371849613449225e-01
15 47 9.44724985804980877e-01
16 47 9.41149629130011989e-01
17 47 9.37645779588542339e-01
18 47 9.34213437180572592e-01
19 47 9.30852601906101640e-01
20 47 9.27563273765129925e-01
21 47 9.24345452757657893e-01
22 47 9.21199138883685431e-01
23 47 9.18124332143212429e-01
24 47 9.15121032536238443e-01
25 47 9.12189240062763806e-01
26 47 9.09328954722788740e-01
27 47 9.06540176516313023e-01
28 47 9.03822905443336544e-01
29 47 9.01177141503859858e-01
30 47 8.98602884697882187e-01
31 47 8.96100135025404088e-01
32 47 8.93668892486424671e-01
33 47 8.91309157080945380e-01
34 47 8.89020928808964883e-01
35 47 8.86804207670484512e-01
36 47 8.84658993665503046e-01
37 47 8.82585286794021151e-01
38 47 8.80583087056039160e-01
39 47 8.78652394451555296e-01
40 47 8.76793208980571004e-01
41 47 8.75005530643087059e-01
42 47 8.73289359439101687e-01
43 47 8.71644695368616329e-01
44 47 8.70071538431629765e-01
45 47 8.68569888628143216e-01
46 47 8.67139745958155794e-01
47 47 8.65781110421666833e-01
48 47 8.64493982018678109e-01
49 47 8.63278360749188955e-01
50 47 8.62134246613199484e-01
51 47 8.61061639610708252e-01
52 47 8.60060539741717256e-01
53 47 8.59130947006224832e-01
54 47 8.58272861404232312e-01
55 47 8.57486282935739141e-01
56 47 8.56771211600745652e-01
57 47 8.56127647399251734e-01
58 47 8.55555590331256166e-01
59 47 8.55055040396760502e-01
60 47 8.54625997595764408e-01
61 47 8.54268461928267442e-01
62 47 8.53982433394269824e-01
63 47 8.53767911993772000e-01
64 47 8.53624897726772858e-01
65 47 8.53553390593273509e-01
66 47 8.53553390593273509e-01
67 47 8.53624897726772858e-01
68 47 8.53767911993771889e-01
69 47 8.53982433394269491e-01
70 47 8.54268461928267442e-01
71 47 8.54625997595764408e-01
72 47 8.55055040396760391e-01
73 47 8.55555590331256166e-01
74 47 8.56127647399251179e-01
75 47 8.56771211600745430e-01
76 47 8.57486282935738808e-01
77 47 8.58272861404232312e-01
78 47 8.59130947006224832e-01
79 47 8.60060539741717034e-01
80 47 8.61061639610708252e-01
81 47 8.62134246613199484e-01
82 47 8.63278360749188844e-01
83 47 8.64493982018678109e-01
84 47 8.65781110421666833e-01
85 47 8.67139745958155794e-01
86 47 8.68569888628143105e-01
87 47 8.70071538431629765e-01
88 47 8.71644695368616329e-01
89 47 8.73289359439101576e-01
90 47 8.75005530643087059e-01
91 47 8.76793208980571004e-01
92 47 8.78652394451555296e-01
93 47 8.80583087056039160e-01
94 47 8.82585286794021151e-01
95 47 8.84658993665503046e-01
96 47 8.86804207670484512e-01
97 47 8.89020928808964883e-01
98 47 8.91309157080945380e-01
99 47 8.93668892486424671e-01
100 47 8.96100135025403866e-01
101 47 8.98602884697881854e-01
102 47 9.01177141503859414e-01
103 47 9.03822905443336433e-01
104 47 9.06540176516312468e-01
105 47 9.09328954722788629e-01
106 47 9.12189240062763584e-01
107 47 9.15121032536238221e-01
108 47 9.18124332143212096e-01
109 47 9.21199138883685320e-01
110 47 9.24345452757657893e-01
111 47 9.27563273765129925e-01
112 47 9.30852601906101640e-01
113 47 9.34213437180572592e-01
114 47 9.37645779588542672e-01
115 47 9.41149629130012322e-01
116 47 9.44724985804981543e-01
117 47 9.48371849613449336e-01
118 47 9.52090220555417588e-01
119 47 9.55880098630884412e-01
120 47 9.59741483839850473e-01
121 47 9.63674376182316106e-01
122 47 9.67678775658281420e-01
123 47 9.71754682267745640e-01
124 47 9.75902096010709985e-01
125 47 9.80121016887173679e-01
126 47 9.84411444897135834e-01
127 47 9.88773380040597782e-01
128 47 9.93206822317559856e-01
129 47 9.97711771728019947e-01
130 47 1.00000000000000000e+00
1 48 1.00000000000000000e+00
2 48 9.97711771728019836e-01
3 48 9.93206822317559745e-01
4 48 9.88773380040597782e-01
5 48 9.84411444897135723e-01
6 48 9.80121016887173568e-01
7 48 9.75902096010709652e-01
8 48 9.71754682267745640e-01
9 48 9.67678775658281198e-01
10 48 9.63674376182315662e-01
11 48 9.59741483839849807e-01
12 48 9.55880098630883746e-01
13 48 9.52090220555417144e-01
14 48 9.48371849613449225e-01
15 48 9.44724985804980877e-01
16 48 9.41149629130011878e-01
17 48 9.37645779588542228e-01
18 48 9.34213437180572481e-01
19 48 9.30852601906101640e-01
20 48 9.27563273765129925e-01
21 48 9.24345452757657893e-01
22 48 9.21199138883685431e-01
23 48 9.18124332143212429e-01
24 48 9.15121032536238443e-01
25 48 9.12189240062763806e-01
26 48 9.09328954722788740e-01
27 48 9.06540176516313023e-01
28 48 9.03822905443336544e-01
29 48 9.01177141503859858e-01
30 48 8.98602884697882187e-01
31 48 8.96100135025404088e-01
32 48 8.93668892486424671e-01
33 48 8.91309157080945269e-01
34 48 8.89020928808964883e-01
35 48 8.86804207670484512e-01
36 48 8.84658993665503046e-01
37 48 8.82585286794021151e-01
38 48 8.80583087056039049e-01
39 48 8.78652394451555185e-01
40 48 8.76793208980570893e-01
41 48 8.75005530643087059e-01
42 48 8.73289359439101576e-01
43 48 8.71644695368616218e-01
44 48 8.70071538431629765e-01
45 48 8.68569888628143216e-01
46 48 8.67139745958155683e-01
47 48 8.65781110421666833e-01
48 48 8.64493982018678109e-01
49 48 8.63278360749188844e-01
50 48 8.62134246613199484e-01
51 48 8.61061639610708252e-01
52 48 8.60060539741717145e-01
53 48 8.59130947006224832e-01
54 48 8.58272861404232312e-01
55 48 8.57486282935739141e-01
56 48 8.56771211600745652e-01
57 48 8.56127647399251734e-01
58 48 8.55555590331256166e-01
59 48 8.55055040396760502e-01
60 48 8.54625997595764408e-01
61 48 8.54268461928267442e-01
62 48 8.53982433394269824e-01
63 48 8.53767911993772000e-01
64 48 8.53624897726772858e-01
65 48 8.53553390593273509e-01
66 48 8.53553390593273509e-01
67 48 8.53624897726772858e-01
68 48 8.53767911993771889e-01
69 48 8.53982433394269491e-01
70 48 8.54268461928267442e-01
71 48 8.54625997595764408e-01
72 48 8.55055040396760391e-01
73 48 8.55555590331256166e-01
74 48 8.56127647399251179e-01
75 48 8.56771211600745430e-01
76 48 8.57486282935738808e-01
77 48 8.58272861404232312e-01
78 48 8.59130947006224832e-01
79 48 8.60060539741716923e-01
80 48 8.61061639610708252e-01
81 48 8.62134246613199484e-01
82 48 8.63278360749188733e-01
83 48 8.64493982018678109e-01
84 48 8.65781110421666833e-01
85 48 8.67139745958155683e-01
86 48 8.68569888628143105e-01
87 48 8.70071538431629765e-01
88 48 8.71644695368616218e-01
89 48 8.73289359439101576e-01
90 48 8.75005530643087059e-01
91 48 8.76793208980570893e-01
92 48 8.78652394451555185e-01
93 48 8.80583087056039049e-01
94 48 8.82585286794021151e-01
95 48 8.84658993665503046e-01
96 48 8.86804207670484512e-01
97 48 8.89020928808964883e-01
98 48 8.91309157080945269e-01
99 48 8.93668892486424671e-01
100 48 8.96100135025403866e-01
101 48 8.98602884697881743e-01
102 48 9.01177141503859414e-01
103 48 9.03822905443336433e-01
104 48 9.06540176516312468e-01
105 48 9.09328954722788629e-01
106 48 9.12189240062763584e-01
107 48 9.15121032536238221e-01
108 48 9.18124332143212096e-01
109 48 9.21199138883685209e-01
110 48 9.24345452757657893e-01
111 48 9.27563273765129925e-01
112 48 9.30852601906101640e-01
113 48 9.34213437180572481e-01
114 48 9.37645779588542672e-01
115 48 9.41149629130012322e-01
116 48 9.44724985804981432e-01
117 48 9.48371849613449336e-01
118 48 9.52090220555417477e-01
119 48 9.55880098630884412e-01
120 48 9.59741483839850473e-01
121 48 9.63674376182316106e-01
122 48 9.67678775658281420e-01
123 48 9.71754682267745640e-01
124 48 9.75902096010709985e-01
125 48 9.80121016887173568e-01
126 48 9.84411444897135834e-01
127 48 9.88773380040597782e-01
128 48 9.93206822317559745e-01
129 48 9.97711771728019836e-01
130 48 1.00000000000000000e+00
1 49 1.00000000000000000e+00
2 49 9.97711771728019836e-01
3 49 9.93206822317559745e-01
4 49 9.88773380040597671e-01
5 49 9.84411444897135723e-01
6 49 9.80121016887173568e-01
7 49 9.75902096010709652e-01
8 49 9.71754682267745640e-01
9 49 9.67678775658281087e-01
10 49 9.63674376182315662e-01
11 49 9.59741483839849807e-01
12 49 9.55880098630883746e-01
13 49 9.52090220555417144e-01
14 49 9.48371849613449114e-01
15 49 9.44724985804980766e-01
16 49 9.41149629130011878e-01
17 49 9.37645779588542228e-01
18 49 9.34213437180572370e-01
19 49 9.30852601906101640e-01
20 49 9.27563273765129925e-01
21 49 9.24345452757657893e-01
22 49 9.21199138883685431e-01
23 49 9.18124332143212318e-01
24 49 9.15121032536238443e-01
25 49 9.12189240062763695e-01
26 49 9.09328954722788740e-01
27 49 9.06540176516313023e-01
28 49 9.03822905443336433e-01
29 49 9.01177141503859858e-01
30 49 8.98602884697882187e-01
31 49 8.96100135025403977e-01
32 49 8.93668892486424560e-01
33 49 8.91309157080945269e-01
34 49 8.89020928808964883e-01
35 49 8.86804207670484512e-01
36 49 8.84658993665503046e-01
37 49 8.82585286794021151e-01
38 49 8.80583087056039049e-01
39 49 8.78652394451555074e-01
40 49 8.76793208980570893e-01
41 49 8.75005530643087059e-01
42 49 8.73289359439101576e-01
43 49 8.71644695368616107e-01
44 49 8.70071538431629765e-01
45 49 8.68569888628143216e-01
46 49 8.67139745958155572e-01
47 49 8.65781110421666833e-01
48 49 8.64493982018678109e-01
49 49 8.63278360749188844e-01
50 49 8.62134246613199373e-01
51 49 8.61061639610708252e-01
52 49 8.60060539741717145e-01
53 49 8.59130947006224832e-01
54 49 8.58272861404232312e-01
55 49 8.57486282935739030e-01
56 49 8.56771211600745652e-01
57 49 8.56127647399251623e-01
58 49 8.55555590331256166e-01
59 49 8.55055040396760502e-01
60 49 8.54625997595764408e-01
61 49 8.54268461928267331e-01
62 49 8.53982433394269824e-01
63 49 8.53767911993772000e-01
64 49 8.53624897726772858e-01
65 49 8.53553390593273509e-01
66 49 8.53553390593273509e-01
67 49 8.53624897726772858e-01
68 49 8.53767911993771778e-01
69 49 8.53982433394269491e-01
70 49 8.54268461928267331e-01
71 49 8.54625997595764408e-01
72 49 8.55055040396760391e-01
73 49 8.55555590331256166e-01
74 49 8.56127647399251179e-01
75 49 8.56771211600745430e-01
76 49 8.57486282935738808e-01
77 49 8.58272861404232312e-01
78 49 8.59130947006224832e-01
79 49 8.60060539741716923e-01
80 49 8.61061639610708252e-01
81 49 8.62134246613199373e-01
82 49 8.63278360749188733e-01
83 49 8.64493982018678109e-01
84 49 8.65781110421666833e-01
85 49 8.67139745958155572e-01
86 49 8.68569888628143105e-01
87 49 8.70071538431629765e-01
88 49 8.71644695368616107e-01
89 49 8.73289359439101576e-01
90 49 8.75005530643087059e-01
91 49 8.76793208980570893e-01
92 49 8.78652394451555074e-01
93 49 8.80583087056039049e-01
94 49 8.82585286794021151e-01
95 49 8.84658993665503046e-01
96 49 8.86804207670484512e-01
97 49 8.89020928808964883e-01
98 49 8.91309157080945269e-01
99 49 8.93668892486424560e-01
100 49 8.96100135025403755e-01
101 49 8.98602884697881743e-01
102 49 9.01177141503859414e-01
103 49 9.03822905443336322e-01
104 49 9.06540176516312357e-01
105 49 9.09328954722788518e-01
106 49 9.12189240062763584e-01
107 49 9.15121032536238221e-01
108 49 9.18124332143211985e-01
109 49 9.21199138883685209e-01
110 49 9.24345452757657893e-01
111 49 9.27563273765129925e-01
112 49 9.30852601906101640e-01
113 49 9.34213437180572370e-01
114 49 9.37645779588542672e-01
115 49 9.41149629130012211e-01
116 49 9.44724985804981432e-01
117 49 9.48371849613449336e-01
118 49 9.52090220555417477e-01
119 49 9.55880098630884301e-01
120 49 9.59741483839850473e-01
121 49 9.63674376182316106e-01
122 49 9.67678775658281420e-01
123 49 9.71754682267745640e-01
124 49 9.75902096010709985e-01
125 49 9.80121016887173568e-01
126 49 9.84411444897135834e-01
127 49 9.88773380040597671e-01
128 49 9.93206822317559745e-01
129 49 9.97711771728019836e-01
130 49 1.00000000000000000e+00
1 50 1.00000000000000000e+00
2 50 9.97711771728019947e-01
3 50 9.93206822317559745e-01
4 50 9.88773380040597671e-01
5 50 9.84411444897135723e-01
6 50 9.80121016887173679e-01
7 50 9.75902096010709763e-01
8 50 9.71754682267745751e-01
9 50 9.67678775658281087e-01
10 50 9.63674376182315773e-01
11 50 9.59741483839849918e-01
12 50 9.55880098630883857e-01
13 50 9.52090220555417144e-01
14 50 9.48371849613449225e-01
15 50 9.44724985804980877e-01
16 50 9.41149629130011878e-01
17 50 9.37645779588542339e-01
18 50 9.34213437180572370e-01
19 50 9.30852601906101640e-01
20 50 9.27563273765130036e-01
21 50 9.24345452757658004e-01
22 50 9.21199138883685431e-01
23 50 9.18124332143212429e-01
24 50 9.15121032536238443e-01
25 50 9.12189240062763806e-01
26 50 9.09328954722788851e-01
27 50 9.06540176516313023e-01
28 50 9.03822905443336544e-01
29 50 9.01177141503859858e-01
30 50 8.98602884697882187e-01
31 50 8.96100135025404088e-01
32 50 8.93668892486424671e-01
33 50 8.91309157080945380e-01
34 50 8.89020928808964994e-01
35 50 8.86804207670484512e-01
36 50 8.84658993665503157e-01
37 50 8.82585286794021151e-01
38 50 8.80583087056039049e-01
39 50 8.78652394451555185e-01
40 50 8.76793208980571004e-01
41 50 8.75005530643087170e-01
42 50 8.73289359439101576e-01
43 50 8.71644695368616107e-01
44 50 8.70071538431629765e-01
45 50 8.68569888628143216e-01
46 50 8.67139745958155572e-01
47 50 8.65781110421666833e-01
48 50 8.64493982018678109e-01
49 50 8.63278360749188955e-01
50 50 8.62134246613199373e-01
51 50 8.61061639610708252e-01
52 50 8.60060539741717145e-01
53 50 8.59130947006224943e-01
54 50 8.58272861404232423e-01
55 50 8.57486282935739030e-01
56 50 8.56771211600745763e-01
57 50 8.56127647399251623e-01
58 50 8.55555590331256166e-01
59 50 8.55055040396760502e-01
60 50 8.54625997595764408e-01
61 50 8.54268461928267331e-01
62 50 8.53982433394269824e-01
63 50 8.53767911993772000e-01
64 50 8.53624897726772969e-01
65 50 8.53553390593273509e-01
66 50 8.53553390593273509e-01
67 50 8.53624897726772969e-01
68 50 8.53767911993771778e-01
69 50 8.53982433394269491e-01
70 50 8.54268461928267331e-01
71 50 8.54625997595764408e-01
72 50 8.55055040396760391e-01
73 50 8.55555590331256166e-01
74 50 8.56127647399251179e-01
75 50 8.56771211600745541e-01
76 50 8.57486282935738808e-01
77 50 8.58272861404232423e-01
78 50 8.59130947006224943e-01
79 50 8.60060539741716923e-01
80 50 8.61061639610708252e-01
81 50 8.62134246613199373e-01
82 50 8.63278360749188844e-01
83 50 8.64493982018678109e-01
84 50 8.65781110421666833e-01
85 50 8.67139745958155572e-01
86 50 8.68569888628143105e-01
87 50 8.70071538431629765e-01
88 50 8.71644695368616107e-01
89 50 8.73289359439101576e-01
90 50 8.75005530643087170e-01
91 50 8.76793208980571004e-01
92 50 8.78652394451555185e-01
93 50 8.80583087056039049e-01
94 50 8.82585286794021151e-01
95 50 8.84658993665503046e-01
96 50 8.86804207670484512e-01
97 50 8.89020928808964994e-01
98 50 8.91309157080945380e-01
99 50 8.93668892486424671e-01
100 50 8.96100135025403866e-01
101 50 8.98602884697881854e-01
102 50 9.01177141503859525e-01
103 50 9.03822905443336433e-01
104 50 9.06540176516312357e-01
105 50 9.09328954722788629e-01
106 50 9.12189240062763695e-01
107 50 9.15121032536238221e-01
108 50 9.18124332143212096e-01
109 50 9.21199138883685209e-01
110 50 9.24345452757658004e-01
111 50 9.27563273765130036e-01
112 50 9.30852601906101640e-01
113 50 9.34213437180572370e-01
114 50 9.37645779588542672e-01
115 50 9.41149629130012211e-01
116 50 9.44724985804981543e-01
117 50 9.48371849613449447e-01
118 50 9.52090220555417588e-01
119 50 9.55880098630884412e-01
120 50 9.59741483839850584e-01
121 50 9.63674376182316217e-01
122 50 9.67678775658281420e-01
123 50 9.71754682267745751e-01
124 50 9.75902096010710096e-01
125 50 9.80121016887173679e-01
126 50 9.84411444897135834e-01
127 50 9.88773380040597671e-01
128 50 9.93206822317559745e-01
129 50 9.97711771728019947e-01
130 50 1.00000000000000000e+00
1 51 1.00000000000000000e+00
2 51 9.97711771728019947e-01
3 51 9.93206822317559745e-01
4 51 9.88773380040597671e-01
5 51 9.84411444897135834e-01
6 51 9.80121016887173790e-01
7 51 9.75902096010709763e-01
8 51 9.71754682267745862e-01
9 51 9.67678775658281087e-01
10 51 9.63674376182315773e-01
11 51 9.59741483839850029e-01
12 51 9.55880098630883857e-01
13 51 9.52090220555417144e-01
14 51 9.48371849613449225e-01
15 51 9.44724985804980877e-01
16 51 9.41149629130011989e-01
17 51 9.37645779588542450e-01
18 51 9.34213437180572370e-01
19 51 9.30852601906101640e-01
20 51 9.27563273765130036e-01
21 51 9.24345452757658004e-01
22 51 9.21199138883685431e-01
23 51 9.18124332143212429e-01
24 51 9.15121032536238443e-01
25 51 9.12189240062763806e-01
26 51 9.09328954722788962e-01
27 51 9.06540176516313023e-01
28 51 9.03822905443336655e-01
29 51 9.01177141503859969e-01
30 51 8.98602884697882187e-01
31 51 8.96100135025404088e-01
32 51 8.93668892486424782e-01
33 51 8.91309157080945491e-01
34 51 8.89020928808964994e-01
35 51 8.86804207670484512e-01
36 51 8.84658993665503157e-01
37 51 8.82585286794021151e-01
38 51 8.80583087056039049e-01
39 51 8.78652394451555185e-01
40 51 8.76793208980571115e-01
41 51 8.75005530643087281e-01
42 51 8.73289359439101576e-01
43 51 8.71644695368616218e-01
44 51 8.70071538431629765e-01
45 51 8.68569888628143216e-01
46 51 8.67139745958155572e-01
47 51 8.65781110421666833e-01
48 51 8.64493982018678220e-01
49 51 8.63278360749188955e-01
50 51 8.62134246613199373e-01
51 51 8.61061639610708252e-01
52 51 8.60060539741717145e-01
53 51 8.59130947006224943e-01
54 51 8.58272861404232423e-01
55 51 8.57486282935739030e-01
56 51 8.56771211600745763e-01
57 51 8.56127647399251623e-01
58 51 8.55555590331256277e-01
59 51 8.55055040396760502e-01
60 51 8.54625997595764408e-01
61 51 8.54268461928267331e-01
62 51 8.53982433394269935e-01
63 51 8.53767911993772000e-01
64 51 8.53624897726772969e-01
65 51 8.53553390593273509e-01
66 51 8.53553390593273509e-01
67 51 8.53624897726772969e-01
68 51 8.53767911993771778e-01
69 51 8.53982433394269602e-01
70 51 8.54268461928267331e-01
71 51 8.54625997595764408e-01
72 51 8.55055040396760391e-01
73 51 8.55555590331256277e-01
74 51 8.56127647399251179e-01
75 51 8.56771211600745541e-01
76 51 8.57486282935738919e-01
77 51 8.58272861404232423e-01
78 51 8.59130947006224943e-01
79 51 8.60060539741716923e-01
80 51 8.61061639610708252e-01
81 51 8.62134246613199373e-01
82 51 8.63278360749188844e-01
83 51 8.64493982018678220e-01
84 51 8.65781110421666833e-01
85 51 8.67139745958155572e-01
86 51 8.68569888628143105e-01
87 51 8.70071538431629765e-01
88 51 8.71644695368616218e-01
89 51 8.73289359439101576e-01
90 51 8.75005530643087281e-01
91 51 8.76793208980571115e-01
92 51 8.78652394451555185e-01
93 51 8.80583087056039049e-01
94 51 8.82585286794021151e-01
95 51 8.84658993665503157e-01
96 51 8.86804207670484512e-01
97 51 8.89020928808964994e-01
98 51 8.91309157080945491e-01
99 51 8.93668892486424782e-01
100 51 8.96100135025403866e-01
101 51 8.98602884697881854e-01
102 51 9.01177141503859636e-01
103 51 9.03822905443336544e-01
104 51 9.06540176516312357e-01
105 51 9.09328954722788740e-01
106 51 9.12189240062763695e-01
107 51 9.15121032536238332e-01
108 51 9.18124332143212207e-01
109 51 9.21199138883685209e-01
110 51 9.24345452757658004e-01
111 51 9.27563273765130036e-01
112 51 9.30852601906101640e-01
113 51 9.34213437180572370e-01
114 51 9.37645779588542783e-01
115 51 9.41149629130012322e-01
116 51 9.44724985804981543e-01
117 51 9.48371849613449447e-01
118 51 9.52090220555417588e-01
119 51 9.55880098630884412e-01
120 51 9.59741483839850584e-01
121 51 9.63674376182316217e-01
122 51 9.67678775658281420e-01
123 51 9.71754682267745862e-01
124 51 9.75902096010710096e-01
125 51 9.80121016887173790e-01
126 51 9.84411444897135945e-01
127 51 9.88773380040597671e-01
128 51 9.93206822317559745e-01
129 51 9.97711771728019947e-01
130 51 1.00000000000000000e+00
1 52 1.00000000000000000e+00
2 52 9.97711771728019947e-01
3 52 9.93206822317559745e-01
4 52 9.88773380040597671e-01
5 52 9.84411444897135834e-01
6 52 9.80121016887173790e-01
7 52 9.75902096010709763e-01
8 52 9.71754682267745862e-01
9 52 9.67678775658281087e-01
10 52 9.63674376182315773e-01
11 52 9.59741483839849918e-01
12 52 9.55880098630883857e-01
13 52 9.52090220555417144e-01
14 52 9.48371849613449225e-01
15 52 9.44724985804980877e-01
16 52 9.41149629130011989e-01
17 52 9.37645779588542450e-01
18 52 9.34213437180572370e-01
19 52 9.30852601906101640e-01
20 52 9.27563273765130036e-01
21 52 9.24345452757658004e-01
22 52 9.21199138883685431e-01
23 52 9.18124332143212429e-01
24 52 9.15121032536238443e-01
25 52 9.12189240062763806e-01
26 52 9.09328954722788962e-01
27 52 9.06540176516313023e-01
28 52 9.03822905443336655e-01
29 52 9.01177141503859858e-01
30 52 8.98602884697882187e-01
31 52 8.96100135025404088e-01
32 52 8.93668892486424671e-01
33 52 8.91309157080945380e-01
34 52 8.89020928808964994e-01
35 52 8.86804207670484512e-01
36 52 8.84658993665503046e-01
37 52 8.82585286794021151e-01
38 52 8.80583087056039049e-01
39 52 8.78652394451555185e-01
40 52 8.76793208980571115e-01
41 52 8.75005530643087281e-01
42 52 8.73289359439101465e-01
43 52 8.71644695368616107e-01
44 52 8.70071538431629654e-01
45 52 8.68569888628143105e-01
46 52 8.67139745958155572e-01
47 52 8.65781110421666833e-01
48 52 8.64493982018678220e-01
49 52 8.63278360749188955e-01
50 52 8.62134246613199373e-01
51 52 8.61061639610708141e-01
52 52 8.60060539741717145e-01
53 52 8.59130947006224943e-01
54 52 8.58272861404232423e-01
55 52 8.57486282935739030e-01
56 52 8.56771211600745763e-01
57 52 8.56127647399251623e-01
58 52 8.55555590331256277e-01
59 52 8.55055040396760502e-01
60 52 8.54625997595764297e-01
61 52 8.54268461928267331e-01
62 52 8.53982433394269935e-01
63 52 8.53767911993772000e-01
64 52 8.53624897726772969e-01
65 52 8.53553390593273509e-01
66 52 8.53553390593273509e-01
67 52 8.53624897726772969e-01
68 52 8.53767911993771667e-01
69 52 8.53982433394269602e-01
70 52 8.54268461928267331e-01
71 52 8.54625997595764297e-01
72 52 8.55055040396760391e-01
73 52 8.55555590331256277e-01
74 52 8.56127647399251068e-01
75 52 8.56771211600745541e-01
76 52 8.57486282935738919e-01
77 52 8.58272861404232423e-01
78 52 8.59130947006224943e-01
79 52 8.60060539741716923e-01
80 52 8.61061639610708141e-01
81 52 8.62134246613199373e-01
82 52 8.63278360749188844e-01
83 52 8.64493982018678220e-01
84 52 8.65781110421666833e-01
85 52 8.67139745958155572e-01
86 52 8.68569888628143105e-01
87 52 8.70071538431629654e-01
88 52 8.71644695368616107e-01
89 52 8.73289359439101465e-01
90 52 8.75005530643087281e-01
91 52 8.76793208980571115e-01
92 52 8.78652394451555185e-01
93 52 8.80583087056039049e-01
94 52 8.82585286794021151e-01
95 52 8.84658993665503046e-01
96 52 8.86804207670484512e-01
97 52 8.89020928808964994e-01
98 52 8.91309157080945380e-01
99 52 8.93668892486424671e-01
100 52 8.96100135025403866e-01
101 52 8.98602884697881743e-01
102 52 9.01177141503859636e-01
103 52 9.03822905443336544e-01
104 52 9.06540176516312357e-01
105 52 9.09328954722788740e-01
106 52 9.12189240062763695e-01
107 52 9.15121032536238332e-01
108 52 9.18124332143212096e-01
109 52 9.21199138883685209e-01
110 52 9.24345452757658004e-01
111 52 9.27563273765130036e-01
112 52 9.30852601906101640e-01
113 52 9.34213437180572370e-01
114 52 9.37645779588542783e-01
115 52 9.41149629130012322e-01
116 52 9.44724985804981543e-01
117 52 9.48371849613449447e-01
118 52 9.52090220555417588e-01
119 52 9.55880098630884301e-01
120 52 9.59741483839850584e-01
121 52 9.63674376182316217e-01
122 52 9.67678775658281420e-01
123 52 9.71754682267745862e-01
124 52 9.75902096010710096e-01
125 52 9.80121016887173790e-01
126 52 9.84411444897135945e-01
127 52 9.88773380040597671e-01
128 52 9.93206822317559745e-01
129 52 9.97711771728019947e-01
130 52 1.00000000000000000e+00
1 53 1.00000000000000000e+00
2 53 9.97711771728019947e-01
3 53 9.93206822317559745e-01
4 53 9.88773380040597560e-01
5 53 9.84411444897135834e-01
6 53 9.80121016887173679e-01
7 53 9.75902096010709763e-01
8 53 9.71754682267745862e-01
9 53 9.67678775658280976e-01
10 53 9.63674376182315773e-01
11 53 9.59741483839849918e-01
12 53 9.55880098630883857e-01
13 53 9.52090220555417033e-01
14 53 9.48371849613449225e-01
15 53 9.44724985804980877e-01
16 53 9.41149629130011989e-01
17 53 9.37645779588542339e-01
18 53 9.34213437180572370e-01
19 53 9.30852601906101529e-01
20 53 9.27563273765130036e-01
21 53 9.24345452757658004e-01
22 53 9.21199138883685431e-01
23 53 9.18124332143212429e-01
24 53 9.15121032536238443e-01
25 53 9.12189240062763806e-01
26 53 9.09328954722788962e-01
27 53 9.06540176516313023e-01
28 53 9.03822905443336544e-01
29 53 9.01177141503859858e-01
30 53 8.98602884697882187e-01
31 53 8.96100135025403977e-01
32 53 8.93668892486424671e-01
33 53 8.91309157080945380e-01
34 53 8.89020928808964994e-01
35 53 8.86804207670484512e-01
36 53 8.84658993665503046e-01
37 53 8.82585286794021040e-01
38 53 8.80583087056039049e-01
39 53 8.78652394451555185e-01
40 53 8.76793208980571004e-01
41 53 8.75005530643087170e-01
42 53 8.73289359439101465e-01
43 53 8.71644695368616107e-01
44 53 8.70071538431629654e-01
45 53 8.68569888628142994e-01
46 53 8.67139745958155572e-01
47 53 8.65781110421666833e-01
48 53 8.64493982018678220e-01
49 53 8.63278360749188955e-01
50 53 8.62134246613199373e-01
51 53 8.61061639610708029e-01
52 53 8.60060539741717034e-01
53 53 8.59130947006224943e-01
54 53 8.58272861404232423e-01
55 53 8.57486282935739030e-01
56 53 8.56771211600745763e-01
57 53 8.56127647399251623e-01
58 53 8.55555590331256277e-01
59 53 8.55055040396760391e-01
60 53 8.54625997595764186e-01
61 53 8.54268461928267220e-01
62 53 8.53982433394269935e-01
63 53 8.53767911993771889e-01
64 53 8.53624897726772969e-01
65 53 8.53553390593273509e-01
66 53 8.53553390593273509e-01
67 53 8.53624897726772969e-01
68 53 8.53767911993771667e-01
69 53 8.53982433394269602e-01
70 53 8.54268461928267220e-01
71 53 8.54625997595764186e-01
72 53 8.55055040396760280e-01
73 53 8.55555590331256277e-01
74 53 8.56127647399251068e-01
75 53 8.56771211600745541e-01
76 53 8.57486282935738919e-01
77 53 8.58272861404232423e-01
78 53 8.59130947006224943e-01
79 53 8.60060539741716923e-01
80 53 8.61061639610708029e-01
81 53 8.62134246613199373e-01
82 53 8.63278360749188844e-01
83 53 8.64493982018678220e-01
84 53 8.65781110421666833e-01
85 53 8.67139745958155461e-01
86 53 8.68569888628142994e-01
87 53 8.70071538431629654e-01
88 53 8.71644695368616107e-01
89 53 8.73289359439101465e-01
90 53 8.75005530643087170e-01
91 53 8.76793208980571004e-01
92 53 8.78652394451555185e-01
93 53 8.80583087056039049e-01
94 53 8.82585286794021040e-01
95 53 8.84658993665503046e-01
96 53 8.86804207670484512e-01
97 53 8.89020928808964994e-01
98 53 8.91309157080945380e-01
99 53 8.93668892486424671e-01
100 53 8.96100135025403866e-01
101 53 8.98602884697881743e-01
102 53 9.01177141503859636e-01
103 53 9.03822905443336433e-01
104 53 9.06540176516312357e-01
105 53 9.09328954722788740e-01
106 53 9.12189240062763695e-01
107 53 9.15121032536238332e-01
108 53 9.18124332143211985e-01
109 53 9.21199138883685209e-01
110 53 9.24345452757657893e-01
111 53 9.27563273765130036e-01
112 53 9.30852601906101529e-01
113 53 9.34213437180572370e-01
114 53 9.37645779588542672e-01
115 53 9.41149629130012322e-01
116 53 9.44724985804981432e-01
117 53 9.48371849613449447e-01
118 53 9.52090220555417588e-01
119 53 9.55880098630884301e-01
120 53 9.59741483839850473e-01
121 53 9.63674376182316217e-01
122 53 9.67678775658281420e-01
123 53 9.71754682267745862e-01
124 53 9.75902096010710096e-01
125 53 9.80121016887173790e-01
126 53 9.84411444897135945e-01
127 53 9.88773380040597560e-01
128 53 9.93206822317559745e-01
129 53 9.97711771728019947e-01
130 53 1.00000000000000000e+00
1 54 1.00000000000000000e+00
2 54 9.97711771728019947e-01
3 54 9.93206822317559745e-01
4 54 9.88773380040597560e-01
5 54 9.84411444897135723e-01
6 54 9.80121016887173679e-01
7 54 9.75902096010709763e-01
8 54 9.71754682267745862e-01
9 54 9.67678775658280976e-01
10 54 9.63674376182315773e-01
11 54 9.59741483839849918e-01
12 54 9.55880098630883857e-01
13 54 9.52090220555417033e-01
14 54 9.48371849613449225e-01
15 54 9.44724985804980877e-01
16 54 9.41149629130011989e-01
17 54 9.37645779588542339e-01
18 54 9.34213437180572370e-01
19 54 9.30852601906101418e-01
20 54 9.27563273765130036e-01
21 54 9.24345452757658004e-01
22 54 9.21199138883685431e-01
23 54 9.18124332143212429e-01
24 54 9.15121032536238443e-01
25 54 9.12189240062763806e-01
26 54 9.09328954722788962e-01
27 54 9.06540176516312912e-01
28 54 9.03822905443336544e-01
29 54 9.01177141503859858e-01
30 54 8.98602884697882187e-01
31 54 8.96100135025403977e-01
32 54 8.93668892486424671e-01
33 54 8.91309157080945380e-01
34 54 8.89020928808964994e-01
35 54 8.86804207670484512e-01
36 54 8.84658993665503046e-01
37 54 8.82585286794021040e-01
38 54 8.80583087056039049e-01
39 54 8.78652394451555185e-01
40 54 8.76793208980571004e-01
41 54 8.75005530643087170e-01
42 54 8.73289359439101465e-01
43 54 8.71644695368616107e-01
44 54 8.70071538431629654e-01
45 54 8.68569888628142994e-01
46 54 8.67139745958155461e-01
47 54 8.65781110421666833e-01
48 54 8.64493982018678220e-01
49 54 8.63278360749188955e-01
50 54 8.62134246613199373e-01
51 54 8.61061639610708029e-01
52 54 8.60060539741717034e-01
53 54 8.59130947006224943e-01
54 54 8.58272861404232423e-01
55 54 8.57486282935739030e-01
56 54 8.56771211600745763e-01
57 54 8.56127647399251623e-01
58 54 8.55555590331256166e-01
59 54 8.55055040396760391e-01
60 54 8.54625997595764186e-01
61 54 8.54268461928267220e-01
62 54 8.53982433394269935e-01
63 54 8.53767911993771889e-01
64 54 8.53624897726772969e-01
65 54 8.53553390593273509e-01
66 54 8.53553390593273509e-01
67 54 8.53624897726772969e-01
68 54 8.53767911993771667e-01
69 54 8.53982433394269713e-01
70 54 8.54268461928267220e-01
71 54 8.54625997595764186e-01
72 54 8.55055040396760280e-01
73 54 8.55555590331256166e-01
74 54 8.56127647399251068e-01
75 54 8.56771211600745541e-01
76 54 8.57486282935738919e-01
77 54 8.58272861404232423e-01
78 54 8.59130947006224943e-01
79 54 8.60060539741716923e-01
80 54 8.61061639610708029e-01
81 54 8.62134246613199373e-01
82 54 8.63278360749188844e-01
83 54 8.64493982018678220e-01
84 54 8.65781110421666833e-01
85 54 8.67139745958155461e-01
86 54 8.68569888628142994e-01
87 54 8.70071538431629654e-01
88 54 8.71644695368616107e-01
89 54 8.73289359439101465e-01
90 54 8.75005530643087170e-01
91 54 8.76793208980571004e-01
92 54 8.78652394451555185e-01
93 54 8.80583087056039049e-01
94 54 8.82585286794021040e-01
95 54 8.84658993665503046e-01
96 54 8.86804207670484512e-01
97 54 8.89020928808964994e-01
98 54 8.91309157080945380e-01
99 54 8.93668892486424671e-01
100 54 8.96100135025403866e-01
101 54 8.98602884697881743e-01
102 54 9.01177141503859636e-01
103 54 9.03822905443336433e-01
104 54 9.06540176516312357e-01
105 54 9.09328954722788740e-01
106 54 9.12189240062763695e-01
107 54 9.15121032536238332e-01
108 54 9.18124332143211985e-01
109 54 9.21199138883685209e-01
110 54 9.24345452757657893e-01
111 54 9.27563273765130036e-01
112 54 9.30852601906101418e-01
113 54 9.34213437180572370e-01
114 54 9.37645779588542672e-01
115 54 9.41149629130012322e-01
116 54 9.44724985804981432e-01
117 54 9.48371849613449336e-01
118 54 9.52090220555417588e-01
119 54 9.55880098630884190e-01
120 54 9.59741483839850473e-01
121 54 9.63674376182316217e-01
122 54 9.67678775658281309e-01
123 54 9.71754682267745862e-01
124 54 9.75902096010710096e-01
125 54 9.80121016887173790e-01
126 54 9.84411444897135945e-01
127 54 9.88773380040597560e-01
128 54 9.93206822317559745e-01
129 54 9.97711771728019947e-01
130 54 1.00000000000000000e+00
1 55 1.00000000000000000e+00
2 55 9.97711771728019947e-01
3 55 9.93206822317559634e-01
4 55 9.88773380040597560e-01
5 55 9.84411444897135723e-01
6 55 9.80121016887173679e-01
7 55 9.75902096010709763e-01
8 55 9.71754682267745862e-01
9 55 9.67678775658280865e-01
10 55 9.63674376182315662e-01
11 55 9.59741483839849918e-01
12 55 9.55880098630883857e-01
13 55 9.52090220555417033e-01
14 55 9.48371849613449114e-01
15 55 9.44724985804980877e-01
16 55 9.41149629130011989e-01
17 55 9.37645779588542339e-01
18 55 9.34213437180572370e-01
19 55 9.30852601906101418e-01
20 55 9.27563273765129925e-01
21 55 9.24345452757658004e-01
22 55 9.21199138883685320e-01
23 55 9.18124332143212429e-01
24 55 9.15121032536238332e-01
25 55 9.12189240062763806e-01
26 55 9.09328954722788851e-01
27 55 9.06540176516312801e-01
28 55 9.03822905443336433e-01
29 55 9.01177141503859858e-01
30 55 8.98602884697882187e-01
31 55 8.96100135025403866e-01
32 55 8.93668892486424560e-01
33 55 8.91309157080945269e-01
34 55 8.89020928808964994e-01
35 55 8.86804207670484512e-01
36 55 8.84658993665503046e-01
37 55 8.82585286794020929e-01
38 55 8.80583087056038938e-01
39 55 8.78652394451555185e-01
40 55 8.76793208980570893e-01
41 55 8.75005530643087059e-01
42 55 8.73289359439101465e-01
43 55 8.71644695368615996e-01
44 55 8.70071538431629543e-01
45 55 8.68569888628142994e-01
46 55 8.67139745958155350e-01
47 55 8.65781110421666833e-01
48 55 8.64493982018678109e-01
49 55 8.63278360749188955e-01
50 55 8.62134246613199262e-01
51 55 8.61061639610708029e-01
52 55 8.60060539741717034e-01
53 55 8.59130947006224832e-01
54 55 8.58272861404232423e-01
55 55 8.57486282935739030e-01
56 55 8.56771211600745652e-01
57 55 8.56127647399251623e-01
58 55 8.55555590331256055e-01
59 55 8.55055040396760391e-01
60 55 8.54625997595764075e-01
61 55 8.54268461928267220e-01
62 55 8.53982433394269824e-01
63 55 8.53767911993771889e-01
64 55 8.53624897726772858e-01
65 55 8.53553390593273509e-01
66 55 8.53553390593273509e-01
67 55 8.53624897726772858e-01
68 55 8.53767911993771556e-01
69 55 8.53982433394269602e-01
70 55 8.54268461928267220e-01
71 55 8.54625997595764075e-01
72 55 8.55055040396760280e-01
73 55 8.55555590331256055e-01
74 55 8.56127647399251068e-01
75 55 8.56771211600745430e-01
76 55 8.57486282935738919e-01
77 55 8.58272861404232423e-01
78 55 8.59130947006224832e-01
79 55 8.60060539741716923e-01
80 55 8.61061639610708029e-01
81 55 8.62134246613199262e-01
82 55 8.63278360749188844e-01
83 55 8.64493982018678109e-01
84 55 8.65781110421666833e-01
85 55 8.67139745958155350e-01
86 55 8.68569888628142994e-01
87 55 8.70071538431629543e-01
88 55 8.71644695368615996e-01
89 55 8.73289359439101465e-01
90 55 8.75005530643087059e-01
91 55 8.76793208980570893e-01
92 55 8.78652394451555185e-01
93 55 8.80583087056038938e-01
94 55 8.82585286794020929e-01
95 55 8.84658993665503046e-01
96 55 8.86804207670484512e-01
97 55 8.89020928808964994e-01
98 55 8.91309157080945269e-01
99 55 8.93668892486424560e-01
100 55 8.96100135025403866e-01
101 55 8.98602884697881632e-01
102 55 9.01177141503859525e-01
103 55 9.03822905443336433e-01
104 55 9.06540176516312246e-01
105 55 9.09328954722788629e-01
106 55 9.12189240062763695e-01
107 55 9.15121032536238221e-01
108 55 9.18124332143211985e-01
109 55 9.21199138883685098e-01
110 55 9.24345452757657893e-01
111 55 9.27563273765129925e-01
112 55 9.30852601906101418e-01
113 55 9.34213437180572370e-01
114 55 9.37645779588542672e-01
115 55 9.41149629130012322e-01
116 55 9.44724985804981432e-01
117 55 9.48371849613449225e-01
118 55 9.52090220555417588e-01
119 55 9.55880098630884190e-01
120 55 9.59741483839850362e-01
121 55 9.63674376182316106e-01
122 55 9.67678775658281198e-01
123 55 9.71754682267745862e-01
124 55 9.75902096010710096e-01
125 55 9.80121016887173790e-01
126 55 9.84411444897135945e-01
127 55 9.88773380040597560e-01
128 55 9.93206822317559634e-01
129 55 9.97711771728019947e-01
130 55 1.00000000000000000e+00
1 56 1.00000000000000000e+00
2 56 9.97711771728019836e-01
3 56 9.93206822317559634e-01
4 56 9.88773380040597560e-01
5 56 9.84411444897135723e-01
6 56 9.80121016887173679e-01
7 56 9.75902096010709763e-01
8 56 9.71754682267745862e-01
9 56 9.67678775658280865e-01
10 56 9.63674376182315662e-01
11 56 9.59741483839849918e-01
12 56 9.55880098630883857e-01
13 56 9.52090220555417033e-01
14 56 9.48371849613449114e-01
15 56 9.44724985804980877e-01
16 56 9.41149629130011989e-01
17 56 9.37645779588542450e-01
18 56 9.34213437180572370e-01
19 56 9.30852601906101529e-01
20 56 9.27563273765129925e-01
21 56 9.24345452757658004e-01
22 56 9.21199138883685320e-01
23 56 9.18124332143212429e-01
24 56 9.15121032536238332e-01
25 56 9.12189240062763806e-01
26 56 9.09328954722788851e-01
27 56 9.06540176516312801e-01
28 56 9.03822905443336433e-01
29 56 9.01177141503859858e-01
30 56 8.98602884697882187e-01
31 56 8.96100135025403866e-01
32 56 8.93668892486424671e-01
33 56 8.91309157080945269e-01
34 56 8.89020928808964994e-01
35 56 8.86804207670484512e-01
36 56 8.84658993665503046e-01
37 56 8.82585286794020929e-01
38 56 8.80583087056038938e-01
39 56 8.78652394451555185e-01
40 56 8.76793208980571004e-01
41 56 8.75005530643087059e-01
42 56 8.73289359439101465e-01
43 56 8.71644695368615996e-01
44 56 8.70071538431629543e-01
45 56 8.68569888628142994e-01
46 56 8.67139745958155350e-01
47 56 8.65781110421666833e-01
48 56 8.64493982018678109e-01
49 56 8.63278360749188955e-01
50 56 8.62134246613199262e-01
51 56 8.61061639610708141e-01
52 56 8.60060539741717034e-01
53 56 8.59130947006224832e-01
54 56 8.58272861404232423e-01
55 56 8.57486282935739030e-01
56 56 8.56771211600745652e-01
57 56 8.56127647399251623e-01
58 56 8.55555590331256055e-01
59 56 8.55055040396760391e-01
60 56 8.54625997595764075e-01
61 56 8.54268461928267220e-01
62 56 8.53982433394269824e-01
63 56 8.53767911993771889e-01
64 56 8.53624897726772858e-01
65 56 8.53553390593273509e-01
66 56 8.53553390593273509e-01
67 56 8.53624897726772858e-01
68 56 8.53767911993771556e-01
69 56 8.53982433394269602e-01
70 56 8.54268461928267220e-01
71 56 8.54625997595764075e-01
72 56 8.55055040396760280e-01
73 56 8.55555590331256055e-01
74 56 8.56127647399251179e-01
75 56 8.56771211600745430e-01
76 56 8.57486282935738919e-01
77 56 8.58272861404232423e-01
78 56 8.59130947006224832e-01
79 56 8.60060539741716923e-01
80 56 8.61061639610708141e-01
81 56 8.62134246613199262e-01
82 56 8.63278360749188844e-01
83 56 8.64493982018678109e-01
84 56 8.65781110421666833e-01
85 56 8.67139745958155350e-01
86 56 8.68569888628142994e-01
87 56 8.70071538431629543e-01
88 56 8.71644695368615996e-01
89 56 8.73289359439101465e-01
90 56 8.75005530643087059e-01
91 56 8.76793208980571004e-01
92 56 8.78652394451555185e-01
93 56 8.80583087056038938e-01
94 56 8.82585286794020929e-01
95 56 8.84658993665503046e-01
96 56 8.86804207670484512e-01
97 56 8.89020928808964994e-01
98 56 8.91309157080945269e-01
99 56 8.93668892486424671e-01
100 56 8.96100135025403866e-01
101 56 8.98602884697881632e-01
102 56 9.01177141503859636e-01
103 56 9.03822905443336433e-01
104 56 9.06540176516312246e-01
105 56 9.09328954722788629e-01
106 56 9.12189240062763695e-01
107 56 9.15121032536238221e-01
108 56 9.18124332143211985e-01
109 56 9.21199138883685098e-01
110 56 9.24345452757657893e-01
111 56 9.27563273765129925e-01
112 56 9.30852601906101529e-01
113 56 9.34213437180572370e-01
114 56 9.37645779588542672e-01
115 56 9.41149629130012322e-01
116 56 9.44724985804981432e-01
117 56 9.48371849613449225e-01
118 56 9.52090220555417588e-01
119 56 9.55880098630884190e-01
120 56 9.59741483839850362e-01
121 56 9.63674376182316106e-01
122 56 9.67678775658281309e-01
123 56 9.71754682267745862e-01
124 56 9.75902096010710096e-01
125 56 9.80121016887173790e-01
126 56 9.84411444897135945e-01
127 56 9.88773380040597560e-01
128 56 9.93206822317559634e-01
129 56 9.97711771728019836e-01
130 56 1.00000000000000000e+00
1 57 1.00000000000000000e+00
2 57 9.97711771728019836e-01
3 57 9.93206822317559634e-01
4 57 9.88773380040597449e-01
5 57 9.84411444897135723e-01
6 57 9.80121016887173679e-01
7 57 9.75902096010709763e-01
8 57 9.71754682267745751e-01
9 57 9.67678775658280865e-01
10 57 9.63674376182315662e-01
11 57 9.59741483839849918e-01
12 57 9.55880098630883857e-01
13 57 9.52090220555417033e-01
14 57 9.48371849613449114e-01
15 57 9.44724985804980877e-01
16 57 9.41149629130011989e-01
17 57 9.37645779588542450e-01
18 57 9.34213437180572259e-01
19 57 9.30852601906101529e-01
20 57 9.27563273765129814e-01
21 57 9.24345452757658004e-01
22 57 9.21199138883685320e-01
23 57 9.18124332143212318e-01
24 57 9.15121032536238332e-01
25 57 9.12189240062763806e-01
26 57 9.09328954722788851e-01
27 57 9.06540176516312801e-01
28 57 9.03822905443336322e-01
29 57 9.01177141503859858e-01
30 57 8.98602884697882187e-01
31 57 8.96100135025403755e-01
32 57 8.93668892486424671e-01
33 57 8.91309157080945269e-01
34 57 8.89020928808964883e-01
35 57 8.86804207670484512e-01
36 57 8.84658993665503046e-01
37 57 8.82585286794020929e-01
38 57 8.80583087056038827e-01
39 57 8.78652394451555185e-01
40 57 8.76793208980571004e-01
41 57 8.75005530643087059e-01
42 57 8.73289359439101465e-01
43 57 8.71644695368615996e-01
44 57 8.70071538431629543e-01
45 57 8.68569888628142994e-01
46 57 8.67139745958155350e-01
47 57 8.65781110421666833e-01
48 57 8.64493982018678109e-01
49 57 8.63278360749188955e-01
50 57 8.62134246613199262e-01
51 57 8.61061639610708141e-01
52 57 8.60060539741717034e-01
53 57 8.59130947006224721e-01
54 57 8.58272861404232423e-01
55 57 8.57486282935739030e-01
56 57 8.56771211600745652e-01
57 57 8.56127647399251623e-01
58 57 8.55555590331256055e-01
59 57 8.55055040396760391e-01
60 57 8.54625997595764075e-01
61 57 8.54268461928267220e-01
62 57 8.53982433394269824e-01
63 57 8.53767911993771889e-01
64 57 8.53624897726772858e-01
65 57 8.53553390593273509e-01
66 57 8.53553390593273509e-01
67 57 8.53624897726772858e-01
68 57 8.53767911993771556e-01
69 57 8.53982433394269602e-01
70 57 8.54268461928267220e-01
71 57 8.54625997595764075e-01
72 57 8.55055040396760280e-01
73 57 8.55555590331256055e-01
74 57 8.56127647399251179e-01
75 57 8.56771211600745430e-01
76 57 8.57486282935738919e-01
77 57 8.58272861404232423e-01
78 57 8.59130947006224721e-01
79 57 8.60060539741716923e-01
80 57 8.61061639610708141e-01
81 57 8.62134246613199262e-01
82 57 8.63278360749188844e-01
83 57 8.64493982018678109e-01
84 57 8.65781110421666833e-01
85 57 8.67139745958155350e-01
86 57 8.68569888628142994e-01
87 57 8.70071538431629543e-01
88 57 8.71644695368615996e-01
89 57 8.73289359439101465e-01
90 57 8.75005530643087059e-01
91 57 8.76793208980571004e-01
92 57 8.78652394451555185e-01
93 57 8.80583087056038827e-01
94 57 8.82585286794020818e-01
95 57 8.84658993665503046e-01
96 57 8.86804207670484512e-01
97 57 8.89020928808964883e-01
98 57 8.91309157080945269e-01
99 57 8.93668892486424671e-01
100 57 8.96100135025403755e-01
101 57 8.98602884697881632e-01
102 57 9.01177141503859636e-01
103 57 9.03822905443336322e-01
104 57 9.06540176516312246e-01
105 57 9.09328954722788629e-01
106 57 9.12189240062763584e-01
107 57 9.15121032536238221e-01
108 57 9.18124332143211985e-01
109 57 9.21199138883685098e-01
110 57 9.24345452757657893e-01
111 57 9.27563273765129814e-01
112 57 9.30852601906101529e-01
113 57 9.34213437180572259e-01
114 57 9.37645779588542672e-01
115 57 9.41149629130012322e-01
116 57 9.44724985804981432e-01
117 57 9.48371849613449225e-01
118 57 9.52090220555417588e-01
119 57 9.55880098630884190e-01
120 57 9.59741483839850362e-01
121 57 9.63674376182315995e-01
122 57 9.67678775658281309e-01
123 57 9.71754682267745751e-01
124 57 9.75902096010710096e-01
125 57 9.80121016887173790e-01
126 57 9.84411444897135945e-01
127 57 9.88773380040597560e-01
128 57 9.93206822317559634e-01
129 57 9.97711771728019836e-01
130 57 1.00000000000000000e+00
1 58 1.00000000000000000e+00
2 58 9.97711771728019836e-01
3 58 9.93206822317559634e-01
4 58 9.88773380040597449e-01
5 58 9.84411444897135723e-01
6 58 9.80121016887173679e-01
7 58 9.75902096010709763e-01
8 58 9.71754682267745751e-01
9 58 9.67678775658280865e-01
10 58 9.63674376182315662e-01
11 58 9.59741483839849918e-01
12 58 9.55880098630883857e-01
13 58 9.52090220555417033e-01
14 58 9.48371849613449114e-01
15 58 9.44724985804980877e-01
16 58 9.41149629130011989e-01
17 58 9.37645779588542450e-01
18 58 9.34213437180572259e-01
19 58 9.30852601906101529e-01
20 58 9.27563273765129814e-01
21 58 9.24345452757658004e-01
22 58 9.21199138883685209e-01
23 58 9.18124332143212207e-01
24 58 9.15121032536238332e-01
25 58 9.12189240062763806e-01
26 58 9.09328954722788851e-01
27 58 9.06540176516312801e-01
28 58 9.03822905443336322e-01
29 58 9.01177141503859858e-01
30 58 8.98602884697882187e-01
31 58 8.96100135025403755e-01
32 58 8.93668892486424671e-01
33 58 8.91309157080945269e-01
34 58 8.89020928808964883e-01
35 58 8.86804207670484512e-01
36 58 8.84658993665503046e-01
37 58 8.82585286794020929e-01
38 58 8.80583087056038716e-01
39 58 8.78652394451555185e-01
40 58 8.76793208980571004e-01
41 58 8.75005530643087059e-01
42 58 8.73289359439101354e-01
43 58 8.71644695368615996e-01
44 58 8.70071538431629543e-01
45 58 8.68569888628142994e-01
46 58 8.67139745958155350e-01
47 58 8.65781110421666833e-01
48 58 8.64493982018678109e-01
49 58 8.63278360749188955e-01
50 58 8.62134246613199262e-01
51 58 8.61061639610708141e-01
52 58 8.60060539741717034e-01
53 58 8.59130947006224721e-01
54 58 8.58272861404232423e-01
55 58 8.57486282935739030e-01
56 58 8.56771211600745652e-01
57 58 8.56127647399251623e-01
58 58 8.55555590331255944e-01
59 58 8.55055040396760391e-01
60 58 8.54625997595763964e-01
61 58 8.54268461928267331e-01
62 58 8.53982433394269824e-01
63 58 8.53767911993771889e-01
64 58 8.53624897726772858e-01
65 58 8.53553390593273398e-01
66 58 8.53553390593273398e-01
67 58 8.53624897726772858e-01
68 58 8.53767911993771556e-01
69 58 8.53982433394269602e-01
70 58 8.54268461928267331e-01
71 58 8.54625997595763964e-01
72 58 8.55055040396760280e-01
73 58 8.55555590331255944e-01
74 58 8.56127647399251179e-01
75 58 8.56771211600745430e-01
76 58 8.57486282935738919e-01
77 58 8.58272861404232423e-01
78 58 8.59130947006224721e-01
79 58 8.60060539741716923e-01
80 58 8.61061639610708141e-01
81 58 8.62134246613199262e-01
82 58 8.63278360749188844e-01
83 58 8.64493982018678109e-01
84 58 8.65781110421666833e-01
85 58 8.67139745958155239e-01
86 58 8.68569888628142994e-01
87 58 8.70071538431629543e-01
88 58 8.71644695368615996e-01
89 58 8.73289359439101354e-01
90 58 8.75005530643087059e-01
91 58 8.76793208980571004e-01
92 58 8.78652394451555185e-01
93 58 8.80583087056038716e-01
94 58 8.82585286794020818e-01
95 58 8.84658993665503046e-01
96 58 8.86804207670484512e-01
97 58 8.89020928808964883e-01
98 58 8.91309157080945269e-01
99 58 8.93668892486424671e-01
100 58 8.96100135025403755e-01
101 58 8.98602884697881632e-01
102 58 9.01177141503859636e-01
103 58 9.03822905443336322e-01
104 58 9.06540176516312246e-01
105 58 9.09328954722788629e-01
106 58 9.12189240062763584e-01
107 58 9.15121032536238221e-01
108 58 9.18124332143211985e-01
109 58 9.21199138883684987e-01
110 58 9.24345452757657893e-01
111 58 9.27563273765129814e-01
112 58 9.30852601906101529e-01
113 58 9.34213437180572259e-01
114 58 9.37645779588542672e-01
115 58 9.41149629130012322e-01
116 58 9.44724985804981432e-01
117 58 9.48371849613449225e-01
118 58 9.52090220555417588e-01
119 58 9.55880098630884190e-01
120 58 9.59741483839850362e-01
121 58 9.63674376182315995e-01
122 58 9.67678775658281309e-01
123 58 9.71754682267745751e-01
124 58 9.75902096010710096e-01
125 58 9.80121016887173790e-01
126 58 9.84411444897135945e-01
127 58 9.88773380040597560e-01
128 58 9.93206822317559634e-01
129 58 9.97711771728019836e-01
130 58 1.00000000000000000e+00
1 59 1.00000000000000000e+00
2 59 9.97711771728019836e-01
3 59 9.93206822317559523e-01
4 59 9.88773380040597338e-01
5 59 9.84411444897135723e-01
6 59 9.80121016887173568e-01
7 59 9.75902096010709763e-01
8 59 9.71754682267745640e-01
9 59 9.67678775658280754e-01
10 59 9.63674376182315662e-01
11 59 9.59741483839849807e-01
12 59 9.55880098630883746e-01
13 59 9.52090220555416922e-01
14 59 9.48371849613449003e-01
15 59 9.44724985804980766e-01
16 59 9.41149629130011989e-01
17 59 9.37645779588542450e-01
18 59 9.34213437180572259e-01
19 59 9.30852601906101529e-01
20 59 9.27563273765129814e-01
21 59 9.24345452757658004e-01
22 59 9.21199138883685209e-01
23 59 9.18124332143212207e-01
24 59 9.15121032536238332e-01
25 59 9.12189240062763806e-01
26 59 9.09328954722788851e-01
27 59 9.06540176516312801e-01
28 59 9.03822905443336322e-01
29 59 9.01177141503859858e-01
30 59 8.98602884697882076e-01
31 59 8.96100135025403755e-01
32 59 8.93668892486424671e-01
33 59 8.91309157080945269e-01
34 59 8.89020928808964883e-01
35 59 8.86804207670484512e-01
36 59 8.84658993665502935e-01
37 59 8.82585286794020929e-01
38 59 8.80583087056038605e-01
39 59 8.78652394451555074e-01
40 59 8.76793208980571004e-01
41 59 8.75005530643086948e-01
42 59 8.73289359439101354e-01
43 59 8.71644695368615996e-01
44 59 8.70071538431629543e-01
45 59 8.68569888628142994e-01
46 59 8.67139745958155350e-01
47 59 8.65781110421666833e-01
48 59 8.64493982018678109e-01
49 59 8.63278360749188955e-01
50 59 8.62134246613199262e-01
51 59 8.61061639610708029e-01
52 59 8.60060539741717034e-01
53 59 8.59130947006224610e-01
54 59 8.58272861404232423e-01
55 59 8.57486282935739030e-01
56 59 8.56771211600745652e-01
57 59 8.56127647399251623e-01
58 59 8.55555590331255944e-01
59 59 8.55055040396760280e-01
60 59 8.54625997595763964e-01
61 59 8.54268461928267331e-01
62 59 8.53982433394269824e-01
63 59 8.53767911993771778e-01
64 59 8.53624897726772858e-01
65 59 8.53553390593273287e-01
66 59 8.53553390593273287e-01
67 59 8.53624897726772858e-01
68 59 8.53767911993771444e-01
69 59 8.53982433394269602e-01
70 59 8.54268461928267331e-01
71 59 8.54625997595763964e-01
72 59 8.55055040396760169e-01
73 59 8.55555590331255944e-01
74 59 8.56127647399251179e-01
75 59 8.56771211600745430e-01
76 59 8.57486282935738919e-01
77 59 8.58272861404232423e-01
78 59 8.59130947006224610e-01
79 59 8.60060539741716923e-01
80 59 8.61061639610708029e-01
81 59 8.62134246613199262e-01
82 59 8.63278360749188844e-01
83 59 8.64493982018678109e-01
84 59 8.65781110421666833e-01
85 59 8.67139745958155239e-01
86 59 8.68569888628142994e-01
87 59 8.70071538431629543e-01
88 59 8.71644695368615996e-01
89 59 8.73289359439101354e-01
90 59 8.75005530643086948e-01
91 59 8.76793208980571004e-01
92 59 8.78652394451555074e-01
93 59 8.80583087056038605e-01
94 59 8.82585286794020818e-01
95 59 8.84658993665502935e-01
96 59 8.86804207670484512e-01
97 59 8.89020928808964883e-01
98 59 8.91309157080945269e-01
99 59 8.93668892486424671e-01
100 59 8.96100135025403755e-01
101 59 8.98602884697881632e-01
102 59 9.01177141503859636e-01
103 59 9.03822905443336322e-01
104 59 9.06540176516312246e-01
105 59 9.09328954722788518e-01
106 59 9.12189240062763584e-01
107 59 9.15121032536238110e-01
108 59 9.18124332143211985e-01
109 59 9.21199138883684987e-01
110 59 9.24345452757657893e-01
111 59 9.27563273765129814e-01
112 59 9.30852601906101529e-01
113 59 9.34213437180572259e-01
114 59 9.37645779588542672e-01
115 59 9.41149629130012322e-01
116 59 9.44724985804981321e-01
117 59 9.48371849613449114e-01
118 59 9.52090220555417477e-01
119 59 9.55880098630884190e-01
120 59 9.59741483839850362e-01
121 59 9.63674376182315884e-01
122 59 9.67678775658281198e-01
123 59 9.71754682267745640e-01
124 59 9.75902096010710096e-01
125 59 9.80121016887173679e-01
126 59 9.84411444897135945e-01
127 59 9.88773380040597449e-01
128 59 9.93206822317559523e-01
129 59 9.97711771728019836e-01
130 59 1.00000000000000000e+00
1 60 1.00000000000000000e+00
2 60 9.97711771728019836e-01
3 60 9.93206822317559523e-01
4 60 9.88773380040597338e-01
5 60 9.84411444897135723e-01
6 60 9.80121016887173568e-01
7 60 9.75902096010709763e-01
8 60 9.71754682267745640e-01
9 60 9.67678775658280754e-01
10 60 9.63674376182315662e-01
11 60 9.59741483839849807e-01
12 60 9.55880098630883746e-01
13 60 9.52090220555416922e-01
14 60 9.48371849613449003e-01
15 60 9.44724985804980766e-01
16 60 9.41149629130011989e-01
17 60 9.37645779588542450e-01
18 60 9.34213437180572259e-01
19 60 9.30852601906101529e-01
20 60 9.27563273765129814e-01
21 60 9.24345452757658004e-01
22 60 9.21199138883685209e-01
23 60 9.18124332143212207e-01
24 60 9.15121032536238332e-01
25 60 9.12189240062763806e-01
26 60 9.09328954722788851e-01
27 60 9.06540176516312801e-01
28 60 9.03822905443336322e-01
29 60 9.01177141503859858e-01
30 60 8.98602884697882076e-01
31 60 8.96100135025403755e-01
32 60 8.93668892486424671e-01
33 60 8.91309157080945269e-01
34 60 8.89020928808964883e-01
35 60 8.86804207670484512e-01
36 60 8.84658993665502935e-01
37 60 8.82585286794020929e-01
38 60 8.80583087056038605e-01
39 60 8.78652394451555074e-01
40 60 8.76793208980571004e-01
41 60 8.75005530643086948e-01
42 60 8.73289359439101354e-01
43 60 8.71644695368615996e-01
44 60 8.70071538431629543e-01
45 60 8.68569888628142994e-01
46 60 8.67139745958155350e-01
47 60 8.65781110421666833e-01
48 60 8.64493982018678109e-01
49 60 8.63278360749188955e-01
50 60 8.62134246613199262e-01
51 60 8.61061639610708029e-01
52 60 8.60060539741717145e-01
53 60 8.59130947006224610e-01
54 60 8.58272861404232423e-01
55 60 8.57486282935739030e-01
56 60 8.56771211600745652e-01
57 60 8.56127647399251623e-01
58 60 8.55555590331255944e-01
59 60 8.55055040396760280e-01
60 60 8.54625997595764075e-01
61 60 8.54268461928267331e-01
62 60 8.53982433394269824e-01
63 60 8.53767911993771778e-01
64 60 8.53624897726772858e-01
65 60 8.53553390593273287e-01
66 60 8.53553390593273287e-01
67 60 8.53624897726772858e-01
68 60 8.53767911993771444e-01
69 60 8.53982433394269602e-01
70 60 8.54268461928267331e-01
71 60 8.54625997595764075e-01
72 60 8.55055040396760169e-01
73 60 8.55555590331255944e-01
74 60 8.56127647399251179e-01
75 60 8.56771211600745430e-01
76 60 8.57486282935738919e-01
77 60 8.58272861404232423e-01
78 60 8.59130947006224610e-01
79 60 8.60060539741716923e-01
80 60 8.61061639610708029e-01
81 60 8.62134246613199262e-01
82 60 8.63278360749188844e-01
83 60 8.64493982018678109e-01
84 60 8.65781110421666833e-01
85 60 8.67139745958155239e-01
86 60 8.68569888628142994e-01
87 60 8.70071538431629543e-01
88 60 8.71644695368615996e-01
89 60 8.73289359439101354e-01
90 60 8.75005530643086948e-01
91 60 8.76793208980571004e-01
92 60 8.78652394451555074e-01
93 60 8.80583087056038605e-01
94 60 8.82585286794020818e-01
95 60 8.84658993665502935e-01
96 60 8.86804207670484512e-01
97 60 8.89020928808964883e-01
98 60 8.91309157080945269e-01
99 60 8.93668892486424671e-01
100 60 8.96100135025403755e-01
101 60 8.98602884697881743e-01
102 60 9.01177141503859636e-01
103 60 9.03822905443336322e-01
104 60 9.06540176516312246e-01
105 60 9.09328954722788629e-01
106 60 9.12189240062763584e-01
107 60 9.15121032536238110e-01
108 60 9.18124332143211985e-01
109 60 9.21199138883684987e-01
110 60 9.24345452757657893e-01
111 60 9.27563273765129814e-01
112 60 9.30852601906101529e-01
113 60 9.34213437180572259e-01
114 60 9.37645779588542672e-01
115 60 9.41149629130012322e-01
116 60 9.44724985804981321e-01
117 60 9.48371849613449114e-01
118 60 9.52090220555417477e-01
119 60 9.55880098630884190e-01
120 60 9.59741483839850362e-01
121 60 9.63674376182315884e-01
122 60 9.67678775658281198e-01
123 60 9.71754682267745640e-01
124 60 9.75902096010710096e-01
125 60 9.80121016887173679e-01
126 60 9.84411444897135945e-01
127 60 9.88773380040597449e-01
128 60 9.93206822317559523e-01
129 60 9.97711771728019836e-01
130 60 1.00000000000000000e+00
1 61 1.00000000000000000e+00
2 61 9.97711771728019836e-01
3 61 9.93206822317559523e-01
4 61 9.88773380040597227e-01
5 61 9.84411444897135612e-01
6 61 9.80121016887173568e-01
7 61 9.75902096010709763e-01
8 61 9.71754682267745640e-01
9 61 9.67678775658280754e-01
10 61 9.63674376182315551e-01
11 61 9.59741483839849807e-01
12 61 9.55880098630883746e-01
13 61 9.52090220555416922e-01
14 61 9.48371849613449003e-01
15 61 9.44724985804980766e-01
16 61 9.41149629130011989e-01
17 61 9.37645779588542339e-01
18 61 9.34213437180572259e-01
19 61 9.30852601906101529e-01
20 61 9.27563273765129814e-01
21 61 9.24345452757658004e-01
22 61 9.21199138883685209e-01
23 61 9.18124332143212207e-01
24 61 9.15121032536238332e-01
25 61 9.12189240062763806e-01
26 61 9.09328954722788851e-01
27 61 9.06540176516312801e-01
28 61 9.03822905443336211e-01
29 61 9.01177141503859858e-01
30 61 8.98602884697882076e-01
31 61 8.96100135025403755e-01
32 61 8.93668892486424671e-01
33 61 8.91309157080945269e-01
34 61 8.89020928808964883e-01
35 61 8.86804207670484512e-01
36 61 8.84658993665502935e-01
37 61 8.82585286794020929e-01
38 61 8.80583087056038605e-01
39 61 8.78652394451555074e-01
40 61 8.76793208980571004e-01
41 61 8.75005530643086948e-01
42 61 8.73289359439101354e-01
43 61 8.71644695368615885e-01
44 61 8.70071538431629543e-01
45 61 8.68569888628142994e-01
46 61 8.67139745958155350e-01
47 61 8.65781110421666722e-01
48 61 8.64493982018678109e-01
49 61 8.63278360749188955e-01
50 61 8.62134246613199151e-01
51 61 8.61061639610708029e-01
52 61 8.60060539741717145e-01
53 61 8.59130947006224610e-01
54 61 8.58272861404232423e-01
55 61 8.57486282935739030e-01
56 61 8.56771211600745652e-01
57 61 8.56127647399251623e-01
58 61 8.55555590331255944e-01
59 61 8.55055040396760280e-01
60 61 8.54625997595763964e-01
61 61 8.54268461928267331e-01
62 61 8.53982433394269824e-01
63 61 8.53767911993771778e-01
64 61 8.53624897726772858e-01
65 61 8.53553390593273287e-01
66 61 8.53553390593273287e-01
67 61 8.53624897726772858e-01
68 61 8.53767911993771444e-01
69 61 8.53982433394269602e-01
70 61 8.54268461928267331e-01
71 61 8.54625997595763964e-01
72 61 8.55055040396760169e-01
73 61 8.55555590331255944e-01
74 61 8.56127647399251068e-01
75 61 8.56771211600745430e-01
76 61 8.57486282935738919e-01
77 61 8.58272861404232423e-01
78 61 8.59130947006224610e-01
79 61 8.60060539741716923e-01
80 61 8.61061639610708029e-01
81 61 8.62134246613199151e-01
82 61 8.63278360749188844e-01
83 61 8.64493982018678109e-01
84 61 8.65781110421666722e-01
85 61 8.67139745958155239e-01
86 61 8.68569888628142994e-01
87 61 8.70071538431629543e-01
88 61 8.71644695368615885e-01
89 61 8.73289359439101354e-01
90 61 8.75005530643086948e-01
91 61 8.76793208980571004e-01
92 61 8.78652394451555074e-01
93 61 8.80583087056038605e-01
94 61 8.82585286794020818e-01
95 61 8.84658993665502935e-01
96 61 8.86804207670484512e-01
97 61 8.89020928808964883e-01
98 61 8.91309157080945269e-01
99 61 8.93668892486424671e-01
100 61 8.96100135025403755e-01
101 61 8.98602884697881743e-01
102 61 9.01177141503859636e-01
103 61 9.03822905443336211e-01
104 61 9.06540176516312135e-01
105 61 9.09328954722788629e-01
106 61 9.12189240062763584e-01
107 61 9.15121032536238110e-01
108 61 9.18124332143211985e-01
109 61 9.21199138883684987e-01
110 61 9.24345452757657893e-01
111 61 9.27563273765129814e-01
112 61 9.30852601906101529e-01
113 61 9.34213437180572259e-01
114 61 9.37645779588542672e-01
115 61 9.41149629130012322e-01
116 61 9.44724985804981321e-01
117 61 9.48371849613449114e-01
118 61 9.52090220555417477e-01
119 61 9.55880098630884190e-01
120 61 9.59741483839850251e-01
121 61 9.63674376182315773e-01
122 61 9.67678775658281198e-01
123 61 9.71754682267745640e-01
124 61 9.75902096010710096e-01
125 61 9.80121016887173679e-01
126 61 9.84411444897135834e-01
127 61 9.88773380040597338e-01
128 61 9.93206822317559523e-01
129 61 9.97711771728019836e-01
130 61 1.00000000000000000e+00
1 62 1.00000000000000000e+00
2 62 9.97711771728019836e-01
3 62 9.93206822317559523e-01
4 62 9.88773380040597338e-01
5 62 9.84411444897135612e-01
6 62 9.80121016887173568e-01
7 62 9.75902096010709763e-01
8 62 9.71754682267745640e-01
9 62 9.67678775658280754e-01
10 62 9.63674376182315551e-01
11 62 9.59741483839849807e-01
12 62 9.55880098630883746e-01
13 62 9.52090220555416922e-01
14 62 9.48371849613449003e-01
15 62 9.44724985804980766e-01
16 62 9.41149629130011989e-01
17 62 9.37645779588542450e-01
18 62 9.34213437180572259e-01
19 62 9.30852601906101640e-01
20 62 9.27563273765129814e-01
21 62 9.24345452757658004e-01
22 62 9.21199138883685209e-01
23 62 9.18124332143212207e-01
24 62 9.15121032536238332e-01
25 62 9.12189240062763806e-01
26 62 9.09328954722788851e-01
27 62 9.06540176516312801e-01
28 62 9.03822905443336211e-01
29 62 9.01177141503859858e-01
30 62 8.98602884697882076e-01
31 62 8.96100135025403866e-01
32 62 8.93668892486424671e-01
33 62 8.91309157080945269e-01
34 62 8.89020928808964883e-01
35 62 8.86804207670484512e-01
36 62 8.84658993665502935e-01
37 62 8.82585286794020929e-01
38 62 8.80583087056038716e-01
39 62 8.78652394451555074e-01
40 62 8.76793208980571004e-01
41 62 8.75005530643086948e-01
42 62 8.73289359439101465e-01
43 62 8.71644695368615885e-01
44 62 8.70071538431629543e-01
45 62 8.68569888628142994e-01
46 62 8.67139745958155350e-01
47 62 8.65781110421666833e-01
48 62 8.64493982018678109e-01
49 62 8.63278360749188955e-01
50 62 8.62134246613199151e-01
51 62 8.61061639610708029e-01
52 62 8.60060539741717145e-01
53 62 8.59130947006224610e-01
54 62 8.58272861404232423e-01
55 62 8.57486282935739141e-01
56 62 8.56771211600745763e-01
57 62 8.56127647399251734e-01
58 62 8.55555590331255944e-01
59 62 8.55055040396760280e-01
60 62 8.54625997595763964e-01
61 62 8.54268461928267331e-01
62 62 8.53982433394269824e-01
63 62 8.53767911993771778e-01
64 62 8.53624897726772858e-01
65 62 8.53553390593273287e-01
66 62 8.53553390593273287e-01
67 62 8.53624897726772858e-01
68 62 8.53767911993771444e-01
69 62 8.53982433394269602e-01
70 62 8.54268461928267331e-01
71 62 8.54625997595763964e-01
72 62 8.55055040396760169e-01
73 62 8.55555590331255944e-01
74 62 8.56127647399251179e-01
75 62 8.56771211600745541e-01
76 62 8.57486282935739030e-01
77 62 8.58272861404232423e-01
78 62 8.59130947006224610e-01
79 62 8.60060539741716923e-01
80 62 8.61061639610708029e-01
81 62 8.62134246613199151e-01
82 62 8.63278360749188844e-01
83 62 8.64493982018678109e-01
84 62 8.65781110421666833e-01
85 62 8.67139745958155239e-01
86 62 8.68569888628142994e-01
87 62 8.70071538431629543e-01
88 62 8.71644695368615885e-01
89 62 8.73289359439101354e-01
90 62 8.75005530643086948e-01
91 62 8.76793208980571004e-01
92 62 8.78652394451555074e-01
93 62 8.80583087056038716e-01
94 62 8.82585286794020818e-01
95 62 8.84658993665502935e-01
96 62 8.86804207670484512e-01
97 62 8.89020928808964883e-01
98 62 8.91309157080945269e-01
99 62 8.93668892486424671e-01
100 62 8.96100135025403755e-01
101 62 8.98602884697881743e-01
102 62 9.01177141503859636e-01
103 62 9.03822905443336211e-01
104 62 9.06540176516312246e-01
105 62 9.09328954722788629e-01
106 62 9.12189240062763584e-01
107 62 9.15121032536238110e-01
108 62 9.18124332143211985e-01
109 62 9.21199138883684987e-01
110 62 9.24345452757657893e-01
111 62 9.27563273765129814e-01
112 62 9.30852601906101640e-01
113 62 9.34213437180572259e-01
114 62 9.37645779588542783e-01
115 62 9.41149629130012322e-01
116 62 9.44724985804981321e-01
117 62 9.48371849613449114e-01
118 62 9.52090220555417477e-01
119 62 9.55880098630884190e-01
120 62 9.59741483839850251e-01
121 62 9.63674376182315884e-01
122 62 9.67678775658281198e-01
123 62 9.71754682267745751e-01
124 62 9.75902096010710096e-01
125 62 9.80121016887173679e-01
126 62 9.84411444897135834e-01
127 62 9.88773380040597449e-01
128 62 9.93206822317559523e-01
129 62 9.97711771728019836e-01
130 62 1.00000000000000000e+00
1 63 1.00000000000000000e+00
2 63 9.97711771728019725e-01
3 63 9.93206822317559412e-01
4 63 9.88773380040597338e-01
5 63 9.84411444897135612e-01
6 63 9.80121016887173457e-01
7 63 9.75902096010709763e-01
8 63 9.71754682267745640e-01
9 63 9.67678775658280643e-01
10 63 9.63674376182315551e-01
11 63 9.59741483839849807e-01
12 63 9.55880098630883746e-01
13 63 9.52090220555416811e-01
14 63 9.48371849613449003e-01
15 63 9.44724985804980655e-01
16 63 9.41149629130011989e-01
17 63 9.37645779588542450e-01
18 63 9.34213437180572148e-01
19 63 9.30852601906101529e-01
20 63 9.27563273765129814e-01
21 63 9.24345452757657893e-01
22 63 9.21199138883685098e-01
23 63 9.18124332143212207e-01
24 63 9.15121032536238221e-01
25 63 9.12189240062763806e-01
26 63 9.09328954722788851e-01
27 63 9.06540176516312801e-01
28 63 9.03822905443336211e-01
29 63 9.01177141503859858e-01
30 63 8.98602884697881965e-01
31 63 8.96100135025403755e-01
32 63 8.93668892486424671e-01
33 63 8.91309157080945269e-01
34 63 8.89020928808964883e-01
35 63 8.86804207670484512e-01
36 63 8.84658993665502935e-01
37 63 8.82585286794020818e-01
38 63 8.80583087056038716e-01
39 63 8.78652394451555074e-01
40 63 8.76793208980571004e-01
41 63 8.75005530643086948e-01
42 63 8.73289359439101465e-01
43 63 8.71644695368615885e-01
44 63 8.70071538431629543e-01
45 63 8.68569888628142994e-01
46 63 8.67139745958155350e-01
47 63 8.65781110421666833e-01
48 63 8.64493982018678109e-01
49 63 8.63278360749188955e-01
50 63 8.62134246613199040e-01
51 63 8.61061639610708029e-01
52 63 8.60060539741717145e-01
53 63 8.59130947006224610e-01
54 63 8.58272861404232423e-01
55 63 8.57486282935739030e-01
56 63 8.56771211600745763e-01
57 63 8.56127647399251623e-01
58 63 8.55555590331255944e-01
59 63 8.55055040396760280e-01
60 63 8.54625997595763964e-01
61 63 8.54268461928267331e-01
62 63 8.53982433394269824e-01
63 63 8.53767911993771778e-01
64 63 8.53624897726772858e-01
65 63 8.53553390593273287e-01
66 63 8.53553390593273287e-01
67 63 8.53624897726772858e-01
68 63 8.53767911993771444e-01
69 63 8.53982433394269602e-01
70 63 8.54268461928267331e-01
71 63 8.54625997595763964e-01
72 63 8.55055040396760169e-01
73 63 8.55555590331255944e-01
74 63 8.56127647399251179e-01
75 63 8.56771211600745541e-01
76 63 8.57486282935738919e-01
77 63 8.58272861404232423e-01
78 63 8.59130947006224610e-01
79 63 8.60060539741716923e-01
80 63 8.61061639610708029e-01
81 63 8.62134246613199040e-01
82 63 8.63278360749188844e-01
83 63 8.64493982018678109e-01
84 63 8.65781110421666833e-01
85 63 8.67139745958155239e-01
86 63 8.68569888628142994e-01
87 63 8.70071538431629432e-01
88 63 8.71644695368615885e-01
89 63 8.73289359439101354e-01
90 63 8.75005530643086948e-01
91 63 8.76793208980571004e-01
92 63 8.78652394451555074e-01
93 63 8.80583087056038716e-01
94 63 8.82585286794020707e-01
95 63 8.84658993665502935e-01
96 63 8.86804207670484512e-01
97 63 8.89020928808964883e-01
98 63 8.91309157080945269e-01
99 63 8.93668892486424671e-01
100 63 8.96100135025403643e-01
101 63 8.98602884697881632e-01
102 63 9.01177141503859636e-01
103 63 9.03822905443336211e-01
104 63 9.06540176516312246e-01
105 63 9.09328954722788629e-01
106 63 9.12189240062763584e-01
107 63 9.15121032536238110e-01
108 63 9.18124332143211985e-01
109 63 9.21199138883684876e-01
110 63 9.24345452757657782e-01
111 63 9.27563273765129814e-01
112 63 9.30852601906101529e-01
113 63 9.34213437180572148e-01
114 63 9.37645779588542783e-01
115 63 9.41149629130012322e-01
116 63 9.44724985804981210e-01
117 63 9.48371849613449114e-01
118 63 9.52090220555417477e-01
119 63 9.55880098630884190e-01
120 63 9.59741483839850140e-01
121 63 9.63674376182315884e-01
122 63 9.67678775658281198e-01
123 63 9.71754682267745751e-01
124 63 9.75902096010710096e-01
125 63 9.80121016887173568e-01
126 63 9.84411444897135834e-01
127 63 9.88773380040597449e-01
128 63 9.93206822317559412e-01
129 63 9.97711771728019725e-01
130 63 1.00000000000000000e+00
1 64 1.00000000000000000e+00
2 64 9.97711771728019725e-01
3 64 9.93206822317559412e-01
4 64 9.88773380040597338e-01
5 64 9.84411444897135612e-01
6 64 9.80121016887173457e-01
7 64 9.75902096010709763e-01
8 64 9.71754682267745640e-01
9 64 9.67678775658280643e-01
10 64 9.63674376182315551e-01
11 64 9.59741483839849807e-01
12 64 9.55880098630883746e-01
13 64 9.52090220555416811e-01
14 64 9.48371849613449003e-01
15 64 9.44724985804980655e-01
16 64 9.41149629130011989e-01
17 64 9.37645779588542450e-01
18 64 9.34213437180572148e-01
19 64 9.30852601906101418e-01
20 64 9.27563273765129814e-01
21 64 9.24345452757657893e-01
22 64 9.21199138883685098e-01
23 64 9.18124332143212207e-01
24 64 9.15121032536238221e-01
25 64 9.12189240062763806e-01
26 64 9.09328954722788851e-01
27 64 9.06540176516312801e-01
28 64 9.03822905443336211e-01
29 64 9.01177141503859858e-01
30 64 8.98602884697881965e-01
31 64 8.96100135025403643e-01
32 64 8.93668892486424671e-01
33 64 8.91309157080945269e-01
34 64 8.89020928808964772e-01
35 64 8.86804207670484512e-01
36 64 8.84658993665502935e-01
37 64 8.82585286794020818e-01
38 64 8.80583087056038716e-01
39 64 8.78652394451555074e-01
40 64 8.76793208980571004e-01
41 64 8.75005530643086948e-01
42 64 8.73289359439101465e-01
43 64 8.71644695368615774e-01
44 64 8.70071538431629543e-01
45 64 8.68569888628142994e-01
46 64 8.67139745958155350e-01
47 64 8.65781110421666833e-01
48 64 8.64493982018678109e-01
49 64 8.63278360749188955e-01
50 64 8.62134246613199040e-01
51 64 8.61061639610708029e-01
52 64 8.60060539741717145e-01
53 64 8.59130947006224610e-01
54 64 8.58272861404232423e-01
55 64 8.57486282935739030e-01
56 64 8.56771211600745763e-01
57 64 8.56127647399251623e-01
58 64 8.55555590331255944e-01
59 64 8.55055040396760280e-01
60 64 8.54625997595763964e-01
61 64 8.54268461928267220e-01
62 64 8.53982433394269824e-01
63 64 8.53767911993771778e-01
64 64 8.53624897726772858e-01
65 64 8.53553390593273287e-01
66 64 8.53553390593273287e-01
67 64 8.53624897726772858e-01
68 64 8.53767911993771444e-01
69 64 8.53982433394269602e-01
70 64 8.54268461928267220e-01
71 64 8.54625997595763964e-01
72 64 8.55055040396760169e-01
73 64 8.55555590331255944e-01
74 64 8.56127647399251179e-01
75 64 8.56771211600745541e-01
76 64 8.57486282935738919e-01
77 64 8.58272861404232423e-01
78 64 8.59130947006224610e-01
79 64 8.60060539741716923e-01
80 64 8.61061639610708029e-01
81 64 8.62134246613199040e-01
82 64 8.63278360749188733e-01
83 64 8.64493982018678109e-01
84 64 8.65781110421666833e-01
85 64 8.67139745958155239e-01
86 64 8.68569888628142994e-01
87 64 8.70071538431629432e-01
88 64 8.71644695368615774e-01
89 64 8.73289359439101354e-01
90 64 8.75005530643086948e-01
91 64 8.76793208980571004e-01
92 64 8.78652394451555074e-01
93 64 8.80583087056038716e-01
94 64 8.82585286794020707e-01
95 64 8.84658993665502935e-01
96 64 8.86804207670484512e-01
97 64 8.89020928808964772e-01
98 64 8.91309157080945269e-01
99 64 8.93668892486424671e-01
100 64 8.96100135025403643e-01
101 64 8.98602884697881632e-01
102 64 9.01177141503859636e-01
103 64 9.03822905443336211e-01
104 64 9.06540176516312246e-01
105 64 9.09328954722788629e-01
106 64 9.12189240062763584e-01
107 64 9.15121032536238110e-01
108 64 9.18124332143211985e-01
109 64 9.21199138883684876e-01
110 64 9.24345452757657782e-01
111 64 9.27563273765129814e-01
112 64 9.30852601906101418e-01
113 64 9.34213437180572148e-01
114 64 9.37645779588542783e-01
115 64 9.41149629130012322e-01
116 64 9.44724985804981210e-01
117 64 9.48371849613449114e-01
118 64 9.52090220555417477e-01
119 64 9.55880098630884079e-01
120 64 9.59741483839850140e-01
121 64 9.63674376182315884e-01
122 64 9.67678775658281198e-01
123 64 9.71754682267745751e-01
124 64 9.75902096010710096e-01
125 64 9.80121016887173568e-01
126 64 9.84411444897135834e-01
127 64 9.88773380040597449e-01
128 64 9.93206822317559412e-01
129 64 9.97711771728019725e-01
130 64 1.00000000000000000e+00
1 65 1.00000000000000000e+00
2 65 9.97711771728019725e-01
3 65 9.93206822317559412e-01
4 65 9.88773380040597338e-01
5 65 9.84411444897135501e-01
6 65 9.80121016887173457e-01
7 65 9.75902096010709763e-01
8 65 9.71754682267745640e-01
9 65 9.67678775658280643e-01
10 65 9.63674376182315551e-01
11 65 9.59741483839849807e-01
12 65 9.55880098630883746e-01
13 65 9.52090220555416811e-01
14 65 9.48371849613449003e-01
15 65 9.44724985804980655e-01
16 65 9.41149629130011989e-01
17 65 9.37645779588542450e-01
18 65 9.34213437180572037e-01
19 65 9.30852601906101307e-01
20 65 9.27563273765129814e-01
21 65 9.24345452757657782e-01
22 65 9.21199138883685098e-01
23 65 9.18124332143212207e-01
24 65 9.15121032536238221e-01
25 65 9.12189240062763806e-01
26 65 9.09328954722788851e-01
27 65 9.06540176516312801e-01
28 65 9.03822905443336100e-01
29 65 9.01177141503859858e-01
30 65 8.98602884697881965e-01
31 65 8.96100135025403643e-01
32 65 8.93668892486424671e-01
33 65 8.91309157080945158e-01
34 65 8.89020928808964772e-01
35 65 8.86804207670484512e-01
36 65 8.84658993665502935e-01
37 65 8.82585286794020818e-01
38 65 8.80583087056038716e-01
39 65 8.78652394451555074e-01
40 65 8.76793208980571004e-01
41 65 8.75005530643086948e-01
42 65 8.73289359439101465e-01
43 65 8.71644695368615774e-01
44 65 8.70071538431629543e-01
45 65 8.68569888628142994e-01
46 65 8.67139745958155350e-01
47 65 8.65781110421666833e-01
48 65 8.64493982018678109e-01
49 65 8.63278360749188955e-01
50 65 8.62134246613199040e-01
51 65 8.61061639610708029e-01
52 65 8.60060539741717145e-01
53 65 8.59130947006224610e-01
54 65 8.58272861404232423e-01
55 65 8.57486282935739030e-01
56 65 8.56771211600745763e-01
57 65 8.56127647399251623e-01
58 65 8.55555590331255944e-01
59 65 8.55055040396760280e-01
60 65 8.54625997595763964e-01
61 65 8.54268461928267220e-01
62 65 8.53982433394269824e-01
63 65 8.53767911993771778e-01
64 65 8.53624897726772858e-01
65 65 8.53553390593273287e-01
66 65 8.53553390593273287e-01
67 65 8.53624897726772858e-01
68 65 8.53767911993771444e-01
69 65 8.53982433394269602e-01
70 65 8.54268461928267220e-01
71 65 8.54625997595763964e-01
72 65 8.55055040396760169e-01
73 65 8.55555590331255944e-01
74 65 8.56127647399251179e-01
75 65 8.56771211600745541e-01
76 65 8.57486282935738919e-01
77 65 8.58272861404232423e-01
78 65 8.59130947006224610e-01
79 65 8.60060539741716923e-01
80 65 8.61061639610708029e-01
81 65 8.62134246613199040e-01
82 65 8.63278360749188733e-01
83 65 8.64493982018678109e-01
84 65 8.65781110421666833e-01
85 65 8.67139745958155239e-01
86 65 8.68569888628142994e-01
87 65 8.70071538431629432e-01
88 65 8.71644695368615774e-01
89 65 8.73289359439101354e-01
90 65 8.75005530643086948e-01
91 65 8.76793208980571004e-01
92 65 8.78652394451555074e-01
93 65 8.80583087056038716e-01
94 65 8.82585286794020707e-01
95 65 8.84658993665502935e-01
96 65 8.86804207670484512e-01
97 65 8.89020928808964772e-01
98 65 8.91309157080945158e-01
99 65 8.93668892486424671e-01
100 65 8.96100135025403643e-01
101 65 8.98602884697881632e-01
102 65 9.01177141503859636e-01
103 65 9.03822905443336100e-01
104 65 9.06540176516312246e-01
105 65 9.09328954722788629e-01
106 65 9.12189240062763584e-01
107 65 9.15121032536238110e-01
108 65 9.18124332143211985e-01
109 65 9.21199138883684876e-01
110 65 9.24345452757657671e-01
111 65 9.27563273765129814e-01
112 65 9.30852601906101307e-01
113 65 9.34213437180572037e-01
114 65 9.37645779588542783e-01
115 65 9.41149629130012322e-01
116 65 9.44724985804981210e-01
117 65 9.48371849613449114e-01
118 65 9.52090220555417366e-01
119 65 9.55880098630884079e-01
120 65 9.59741483839850140e-01
121 65 9.63674376182315884e-01
122 65 9.67678775658281198e-01
123 65 9.71754682267745751e-01
124 65 9.75902096010710096e-01
125 65 9.80121016887173568e-01
126 65 9.84411444897135723e-01
127 65 9.88773380040597449e-01
128 65 9.93206822317559412e-01
129 65 9.97711771728019725e-01
130 65 1.00000000000000000e+00
1 66 1.00000000000000000e+00
2 66 9.97711771728019725e-01
3 66 9.93206822317559412e-01
4 66 9.88773380040597338e-01
5 66 9.84411444897135501e-01
6 66 9.80121016887173346e-01
7 66 9.75902096010709763e-01
8 66 9.71754682267745640e-01
9 66 9.67678775658280643e-01
10 66 9.63674376182315551e-01
11 66 9.59741483839849807e-01
12 66 9.55880098630883746e-01
13 66 9.52090220555416811e-01
14 66 9.48371849613449003e-01
15 66 9.44724985804980655e-01
16 66 9.41149629130011989e-01
17 66 9.37645779588542450e-01
18 66 9.34213437180571926e-01
19 66 9.30852601906101307e-01
20 66 9.27563273765129814e-01
21 66 9.24345452757657782e-01
22 66 9.21199138883685098e-01
23 66 9.18124332143212207e-01
24 66 9.15121032536238221e-01
25 66 9.12189240062763695e-01
26 66 9.09328954722788851e-01
27 66 9.06540176516312801e-01
28 66 9.03822905443336100e-01
29 66 9.01177141503859858e-01
30 66 8.98602884697881965e-01
31 66 8.96100135025403643e-01
32 66 8.93668892486424671e-01
33 66 8.91309157080945158e-01
34 66 8.89020928808964772e-01
35 66 8.86804207670484512e-01
36 66 8.84658993665502935e-01
37 66 8.82585286794020818e-01
38 66 8.80583087056038716e-01
39 66 8.78652394451555074e-01
40 66 8.76793208980571004e-01
41 66 8.75005530643086948e-01
42 66 8.73289359439101465e-01
43 66 8.71644695368615774e-01
44 66 8.70071538431629543e-01
45 66 8.68569888628142994e-01
46 66 8.67139745958155350e-01
47 66 8.65781110421666833e-01
48 66 8.64493982018678109e-01
49 66 8.63278360749188955e-01
50 66 8.62134246613199040e-01
51 66 8.61061639610708029e-01
52 66 8.60060539741717145e-01
53 66 8.59130947006224610e-01
54 66 8.58272861404232312e-01
55 66 8.57486282935739030e-01
56 66 8.56771211600745763e-01
57 66 8.56127647399251623e-01
58 66 8.55555590331255944e-01
59 66 8.55055040396760280e-01
60 66 8.54625997595763964e-01
61 66 8.54268461928267220e-01
62 66 8.53982433394269824e-01
63 66 8.53767911993771667e-01
64 66 8.53624897726772858e-01
65 66 8.53553390593273287e-01
66 66 8.53553390593273287e-01
67 66 8.53624897726772858e-01
68 66 8.53767911993771444e-01
69 66 8.53982433394269602e-01
70 66 8.54268461928267220e-01
71 66 8.54625997595763964e-01
72 66 8.55055040396760169e-01
73 66 8.55555590331255944e-01
74 66 8.56127647399251179e-01
75 66 8.56771211600745541e-01
76 66 8.57486282935738919e-01
77 66 8.58272861404232312e-01
78 66 8.59130947006224610e-01
79 66 8.60060539741716923e-01
80 66 8.61061639610708029e-01
81 66 8.62134246613199040e-01
82 66 8.63278360749188733e-01
83 66 8.64493982018678109e-01
84 66 8.65781110421666833e-01
85 66 8.67139745958155239e-01
86 66 8.68569888628142994e-01
87 66 8.70071538431629432e-01
88 66 8.71644695368615774e-01
89 66 8.73289359439101354e-01
90 66 8.75005530643086948e-01
91 66 8.76793208980571004e-01
92 66 8.78652394451555074e-01
93 66 8.80583087056038716e-01
94 66 8.82585286794020707e-01
95 66 8.84658993665502935e-01
96 66 8.86804207670484512e-01
97 66 8.89020928808964772e-01
98 66 8.91309157080945158e-01
99 66 8.93668892486424671e-01
100 66 8.96100135025403643e-01
101 66 8.98602884697881632e-01
102 66 9.01177141503859636e-01
103 66 9.03822905443336100e-01
104 66 9.06540176516312246e-01
105 66 9.09328954722788629e-01
106 66 9.12189240062763473e-01
107 66 9.15121032536238110e-01
108 66 9.18124332143211985e-01
109 66 9.21199138883684876e-01
110 66 9.24345452757657671e-01
111 66 9.27563273765129814e-01
112 66 9.30852601906101307e-01
113 66 9.34213437180571926e-01
114 66 9.37645779588542783e-01
115 66 9.41149629130012322e-01
116 66 9.44724985804981210e-01
117 66 9.48371849613449114e-01
118 66 9.52090220555417366e-01
119 66 9.55880098630884079e-01
120 66 9.59741483839850140e-01
121 66 9.63674376182315884e-01
122 66 9.67678775658281198e-01
123 66 9.71754682267745751e-01
124 66 9.75902096010710096e-01
125 66 9.80121016887173457e-01
126 66 9.84411444897135723e-01
127 66 9.88773380040597449e-01
128 66 9.93206822317559412e-01
129 66 9.97711771728019725e-01
130 66 1.00000000000000000e+00
1 67 1.00000000000000000e+00
2 67 9.97711771728019725e-01
3 67 9.93206822317559412e-01
4 67 9.88773380040597227e-01
5 67 9.84411444897135501e-01
6 67 9.80121016887173235e-01
7 67 9.75902096010709763e-01
8 67 9.71754682267745529e-01
9 67 9.67678775658280643e-01
10 67 9.63674376182315440e-01
11 67 9.59741483839849807e-01
12 67 9.55880098630883634e-01
13 67 9.52090220555416700e-01
14 67 9.48371849613449003e-01
15 67 9.44724985804980655e-01
16 67 9.41149629130011989e-01
17 67 9.37645779588542339e-01
18 67 9.34213437180571926e-01
19 67 9.30852601906101307e-01
20 67 9.27563273765129703e-01
21 67 9.24345452757657782e-01
22 67 9.21199138883685098e-01
23 67 9.18124332143212207e-01
24 67 9.15121032536238221e-01
25 67 9.12189240062763695e-01
26 67 9.09328954722788740e-01
27 67 9.06540176516312801e-01
28 67 9.03822905443336100e-01
29 67 9.01177141503859747e-01
30 67 8.98602884697881965e-01
31 67 8.96100135025403643e-01
32 67 8.93668892486424560e-01
33 67 8.91309157080945047e-01
34 67 8.89020928808964661e-01
35 67 8.86804207670484512e-01
36 67 8.84658993665502824e-01
37 67 8.82585286794020818e-01
38 67 8.80583087056038716e-01
39 67 8.78652394451555074e-01
40 67 8.76793208980571004e-01
41 67 8.75005530643086837e-01
42 67 8.73289359439101465e-01
43 67 8.71644695368615663e-01
44 67 8.70071538431629543e-01
45 67 8.68569888628142994e-01
46 67 8.67139745958155350e-01
47 67 8.65781110421666833e-01
48 67 8.64493982018678109e-01
49 67 8.63278360749188844e-01
50 67 8.62134246613199040e-01
51 67 8.61061639610708029e-01
52 67 8.60060539741717145e-01
53 67 8.59130947006224499e-01
54 67 8.58272861404232201e-01
55 67 8.57486282935739030e-01
56 67 8.56771211600745652e-01
57 67 8.56127647399251512e-01
58 67 8.55555590331255833e-01
59 67 8.55055040396760280e-01
60 67 8.54625997595763964e-01
61 67 8.54268461928267109e-01
62 67 8.53982433394269824e-01
63 67 8.53767911993771667e-01
64 67 8.53624897726772747e-01
65 67 8.53553390593273287e-01
66 67 8.53553390593273287e-01
67 67 8.53624897726772747e-01
68 67 8.53767911993771444e-01
69 67 8.53982433394269602e-01
70 67 8.54268461928267109e-01
71 67 8.54625997595763964e-01
72 67 8.55055040396760169e-01
73 67 8.55555590331255833e-01
74 67 8.56127647399251068e-01
75 67 8.56771211600745430e-01
76 67 8.57486282935738919e-01
77 67 8.58272861404232201e-01
78 67 8.59130947006224499e-01
79 67 8.60060539741716923e-01
80 67 8.61061639610708029e-01
81 67 8.62134246613199040e-01
82 67 8.63278360749188622e-01
83 67 8.64493982018678109e-01
84 67 8.65781110421666833e-01
85 67 8.67139745958155239e-01
86 67 8.68569888628142994e-01
87 67 8.70071538431629432e-01
88 67 8.71644695368615663e-01
89 67 8.73289359439101354e-01
90 67 8.75005530643086837e-01
91 67 8.76793208980571004e-01
92 67 8.78652394451555074e-01
93 67 8.80583087056038716e-01
94 67 8.82585286794020596e-01
95 67 8.84658993665502824e-01
96 67 8.86804207670484512e-01
97 67 8.89020928808964661e-01
98 67 8.91309157080945047e-01
99 67 8.93668892486424560e-01
100 67 8.96100135025403643e-01
101 67 8.98602884697881632e-01
102 67 9.01177141503859525e-01
103 67 9.03822905443336100e-01
104 67 9.06540176516312246e-01
105 67 9.09328954722788518e-01
106 67 9.12189240062763473e-01
107 67 9.15121032536238110e-01
108 67 9.18124332143211985e-01
109 67 9.21199138883684876e-01
110 67 9.24345452757657671e-01
111 67 9.27563273765129703e-01
112 67 9.30852601906101307e-01
113 67 9.34213437180571926e-01
114 67 9.37645779588542672e-01
115 67 9.41149629130012211e-01
116 67 9.44724985804981099e-01
117 67 9.48371849613449114e-01
118 67 9.52090220555417255e-01
119 67 9.55880098630883968e-01
120 67 9.59741483839850140e-01
121 67 9.63674376182315884e-01
122 67 9.67678775658281198e-01
123 67 9.71754682267745640e-01
124 67 9.75902096010709985e-01
125 67 9.80121016887173346e-01
126 67 9.84411444897135723e-01
127 67 9.88773380040597338e-01
128 67 9.93206822317559412e-01
129 67 9.97711771728019725e-01
130 67 1.00000000000000000e+00
1 68 1.00000000000000000e+00
2 68 9.97711771728019725e-01
3 68 9.93206822317559412e-01
4 68 9.88773380040597227e-01
5 68 9.84411444897135501e-01
6 68 9.80121016887173124e-01
7 68 9.75902096010709652e-01
8 68 9.71754682267745529e-01
9 68 9.67678775658280643e-01
10 68 9.63674376182315440e-01
11 68 9.59741483839849807e-01
12 68 9.55880098630883634e-01
13 68 9.52090220555416700e-01
14 68 9.48371849613449003e-01
15 68 9.44724985804980655e-01
16 68 9.41149629130011878e-01
17 68 9.37645779588542228e-01
18 68 9.34213437180571926e-01
19 68 9.30852601906101307e-01
20 68 9.27563273765129592e-01
21 68 9.24345452757657782e-01
22 68 9.21199138883685098e-01
23 68 9.18124332143212096e-01
24 68 9.15121032536238221e-01
25 68 9.12189240062763584e-01
26 68 9.09328954722788740e-01
27 68 9.06540176516312690e-01
28 68 9.03822905443336100e-01
29 68 9.01177141503859747e-01
30 68 8.98602884697881854e-01
31 68 8.96100135025403643e-01
32 68 8.93668892486424560e-01
33 68 8.91309157080945047e-01
34 68 8.89020928808964550e-01
35 68 8.86804207670484401e-01
36 68 8.84658993665502713e-01
37 68 8.82585286794020818e-01
38 68 8.80583087056038716e-01
39 68 8.78652394451555074e-01
40 68 8.76793208980570893e-01
41 68 8.75005530643086726e-01
42 68 8.73289359439101354e-01
43 68 8.71644695368615663e-01
44 68 8.70071538431629543e-01
45 68 8.68569888628142994e-01
46 68 8.67139745958155350e-01
47 68 8.65781110421666833e-01
48 68 8.64493982018678109e-01
49 68 8.63278360749188844e-01
50 68 8.62134246613198929e-01
51 68 8.61061639610708029e-01
52 68 8.60060539741717034e-01
53 68 8.59130947006224499e-01
54 68 8.58272861404232201e-01
55 68 8.57486282935739030e-01
56 68 8.56771211600745652e-01
57 68 8.56127647399251401e-01
58 68 8.55555590331255722e-01
59 68 8.55055040396760280e-01
60 68 8.54625997595763964e-01
61 68 8.54268461928267109e-01
62 68 8.53982433394269824e-01
63 68 8.53767911993771667e-01
64 68 8.53624897726772747e-01
65 68 8.53553390593273287e-01
66 68 8.53553390593273287e-01
67 68 8.53624897726772747e-01
68 68 8.53767911993771333e-01
69 68 8.53982433394269602e-01
70 68 8.54268461928267109e-01
71 68 8.54625997595763964e-01
72 68 8.55055040396760169e-01
73 68 8.55555590331255722e-01
74 68 8.56127647399250957e-01
75 68 8.56771211600745430e-01
76 68 8.57486282935738808e-01
77 68 8.58272861404232201e-01
78 68 8.59130947006224499e-01
79 68 8.60060539741716923e-01
80 68 8.61061639610708029e-01
81 68 8.62134246613198929e-01
82 68 8.63278360749188622e-01
83 68 8.64493982018678109e-01
84 68 8.65781110421666833e-01
85 68 8.67139745958155239e-01
86 68 8.68569888628142994e-01
87 68 8.70071538431629432e-01
88 68 8.71644695368615663e-01
89 68 8.73289359439101243e-01
90 68 8.75005530643086726e-01
91 68 8.76793208980570893e-01
92 68 8.78652394451555074e-01
93 68 8.80583087056038716e-01
94 68 8.82585286794020596e-01
95 68 8.84658993665502713e-01
96 68 8.86804207670484401e-01
97 68 8.89020928808964550e-01
98 68 8.91309157080945047e-01
99 68 8.93668892486424560e-01
100 68 8.96100135025403643e-01
101 68 8.98602884697881521e-01
102 68 9.01177141503859525e-01
103 68 9.03822905443336100e-01
104 68 9.06540176516312135e-01
105 68 9.09328954722788518e-01
106 68 9.12189240062763362e-01
107 68 9.15121032536238110e-01
108 68 9.18124332143211985e-01
109 68 9.21199138883684876e-01
110 68 9.24345452757657671e-01
111 68 9.27563273765129592e-01
112 68 9.30852601906101307e-01
113 68 9.34213437180571926e-01
114 68 9.37645779588542561e-01
115 68 9.41149629130012100e-01
116 68 9.44724985804981099e-01
117 68 9.48371849613449114e-01
118 68 9.52090220555417255e-01
119 68 9.55880098630883968e-01
120 68 9.59741483839850140e-01
121 68 9.63674376182315884e-01
122 68 9.67678775658281198e-01
123 68 9.71754682267745640e-01
124 68 9.75902096010709985e-01
125 68 9.80121016887173235e-01
126 68 9.84411444897135723e-01
127 68 9.88773380040597338e-01
128 68 9.93206822317559412e-01
129 68 9.97711771728019725e-01
130 68 1.00000000000000000e+00
1 69 1.00000000000000000e+00
2 69 9.97711771728019725e-01
3 69 9.93206822317559412e-01
4 69 9.88773380040597227e-01
5 69 9.84411444897135501e-01
6 69 9.80121016887173124e-01
7 69 9.75902096010709652e-01
8 69 9.71754682267745529e-01
9 69 9.67678775658280643e-01
10 69 9.63674376182315440e-01
11 69 9.59741483839849807e-01
12 69 9.55880098630883634e-01
13 69 9.52090220555416700e-01
14 69 9.48371849613449003e-01
15 69 9.44724985804980655e-01
16 69 9.41149629130011878e-01
17 69 9.37645779588542228e-01
18 69 9.34213437180571815e-01
19 69 9.30852601906101307e-01
20 69 9.27563273765129592e-01
21 69 9.24345452757657782e-01
22 69 9.21199138883685098e-01
23 69 9.18124332143212096e-01
24 69 9.15121032536238221e-01
25 69 9.12189240062763584e-01
26 69 9.09328954722788629e-01
27 69 9.06540176516312690e-01
28 69 9.03822905443336100e-01
29 69 9.01177141503859858e-01
30 69 8.98602884697881854e-01
31 69 8.96100135025403643e-01
32 69 8.93668892486424560e-01
33 69 8.91309157080945047e-01
34 69 8.89020928808964550e-01
35 69 8.86804207670484401e-01
36 69 8.84658993665502713e-01
37 69 8.82585286794020707e-01
38 69 8.80583087056038716e-01
39 69 8.78652394451555074e-01
40 69 8.76793208980570893e-01
41 69 8.75005530643086726e-01
42 69 8.73289359439101354e-01
43 69 8.71644695368615663e-01
44 69 8.70071538431629543e-01
45 69 8.68569888628142994e-01
46 69 8.67139745958155350e-01
47 69 8.65781110421666833e-01
48 69 8.64493982018678109e-01
49 69 8.63278360749188844e-01
50 69 8.62134246613198929e-01
51 69 8.61061639610708029e-01
52 69 8.60060539741716923e-01
53 69 8.59130947006224499e-01
54 69 8.58272861404232201e-01
55 69 8.57486282935739030e-01
56 69 8.56771211600745652e-01
57 69 8.56127647399251401e-01
58 69 8.55555590331255722e-01
59 69 8.55055040396760280e-01
60 69 8.54625997595763964e-01
61 69 8.54268461928266998e-01
62 69 8.53982433394269824e-01
63 69 8.53767911993771667e-01
64 69 8.53624897726772747e-01
65 69 8.53553390593273287e-01
66 69 8.53553390593273287e-01
67 69 8.53624897726772747e-01
68 69 8.53767911993771333e-01
69 69 8.53982433394269602e-01
70 69 8.54268461928266998e-01
71 69 8.54625997595763964e-01
72 69 8.55055040396760058e-01
73 69 8.55555590331255722e-01
74 69 8.56127647399250957e-01
75 69 8.56771211600745430e-01
76 69 8.57486282935738808e-01
77 69 8.58272861404232201e-01
78 69 8.59130947006224499e-01
79 69 8.60060539741716812e-01
80 69 8.61061639610708029e-01
81 69 8.62134246613198929e-01
82 69 8.63278360749188622e-01
83 69 8.64493982018678109e-01
84 69 8.65781110421666833e-01
85 69 8.67139745958155239e-01
86 69 8.68569888628142994e-01
87 69 8.70071538431629432e-01
88 69 8.71644695368615663e-01
89 69 8.73289359439101243e-01
90 69 8.75005530643086726e-01
91 69 8.76793208980570893e-01
92 69 8.78652394451555074e-01
93 69 8.80583087056038716e-01
94 69 8.82585286794020485e-01
95 69 8.84658993665502713e-01
96 69 8.86804207670484401e-01
97 69 8.89020928808964550e-01
98 69 8.91309157080945047e-01
99 69 8.93668892486424560e-01
100 69 8.96100135025403643e-01
101 69 8.98602884697881521e-01
102 69 9.01177141503859525e-01
103 69 9.03822905443336100e-01
104 69 9.06540176516312135e-01
105 69 9.09328954722788518e-01
106 69 9.12189240062763362e-01
107 69 9.15121032536238110e-01
108 69 9.18124332143211985e-01
109 69 9.21199138883684876e-01
110 69 9.24345452757657671e-01
111 69 9.27563273765129592e-01
112 69 9.30852601906101307e-01
113 69 9.34213437180571815e-01
114 69 9.37645779588542450e-01
115 69 9.41149629130012100e-01
116 69 9.44724985804981099e-01
117 69 9.48371849613449114e-01
118 69 9.52090220555417255e-01
119 69 9.55880098630883968e-01
120 69 9.59741483839850140e-01
121 69 9.63674376182315884e-01
122 69 9.67678775658281198e-01
123 69 9.71754682267745640e-01
124 69 9.75902096010709985e-01
125 69 9.80121016887173235e-01
126 69 9.84411444897135723e-01
127 69 9.88773380040597338e-01
128 69 9.93206822317559412e-01
129 69 9.97711771728019725e-01
130 69 1.00000000000000000e+00
1 70 1.00000000000000000e+00
2 70 9.97711771728019725e-01
3 70 9.93206822317559412e-01
4 70 9.88773380040597227e-01
5 70 9.84411444897135501e-01
6 70 9.80121016887173124e-01
7 70 9.75902096010709652e-01
8 70 9.71754682267745529e-01
9 70 9.67678775658280643e-01
10 70 9.63674376182315440e-01
11 70 9.59741483839849918e-01
12 70 9.55880098630883634e-01
13 70 9.52090220555416700e-01
14 70 9.48371849613449003e-01
15 70 9.44724985804980655e-01
16 70 9.41149629130011878e-01
17 70 9.37645779588542228e-01
18 70 9.34213437180571815e-01
19 70 9.30852601906101418e-01
20 70 9.27563273765129592e-01
21 70 9.24345452757657782e-01
22 70 9.21199138883685098e-01
23 70 9.18124332143212096e-01
24 70 9.15121032536238332e-01
25 70 9.12189240062763584e-01
26 70 9.09328954722788629e-01
27 70 9.06540176516312690e-01
28 70 9.03822905443336100e-01
29 70 9.01177141503859858e-01
30 70 8.98602884697881854e-01
31 70 8.96100135025403755e-01
32 70 8.93668892486424560e-01
33 70 8.91309157080945047e-01
34 70 8.89020928808964550e-01
35 70 8.86804207670484401e-01
36 70 8.84658993665502713e-01
37 70 8.82585286794020707e-01
38 70 8.80583087056038716e-01
39 70 8.78652394451555074e-01
40 70 8.76793208980570893e-01
41 70 8.75005530643086726e-01
42 70 8.73289359439101354e-01
43 70 8.71644695368615663e-01
44 70 8.70071538431629543e-01
45 70 8.68569888628143105e-01
46 70 8.67139745958155350e-01
47 70 8.65781110421666833e-01
48 70 8.64493982018678109e-01
49 70 8.63278360749188844e-01
50 70 8.62134246613198929e-01
51 70 8.61061639610708029e-01
52 70 8.60060539741716923e-01
53 70 8.59130947006224499e-01
54 70 8.58272861404232201e-01
55 70 8.57486282935739030e-01
56 70 8.56771211600745652e-01
57 70 8.56127647399251401e-01
58 70 8.55555590331255722e-01
59 70 8.55055040396760280e-01
60 70 8.54625997595763964e-01
61 70 8.54268461928266998e-01
62 70 8.53982433394269824e-01
63 70 8.53767911993771667e-01
64 70 8.53624897726772747e-01
65 70 8.53553390593273176e-01
66 70 8.53553390593273176e-01
67 70 8.53624897726772747e-01
68 70 8.53767911993771333e-01
69 70 8.53982433394269602e-01
70 70 8.54268461928266998e-01
71 70 8.54625997595763964e-01
72 70 8.55055040396760058e-01
73 70 8.55555590331255611e-01
74 70 8.56127647399250957e-01
75 70 8.56771211600745430e-01
76 70 8.57486282935738808e-01
77 70 8.58272861404232201e-01
78 70 8.59130947006224499e-01
79 70 8.60060539741716812e-01
80 70 8.61061639610708029e-01
81 70 8.62134246613198929e-01
82 70 8.63278360749188622e-01
83 70 8.64493982018678109e-01
84 70 8.65781110421666833e-01
85 70 8.67139745958155239e-01
86 70 8.68569888628142994e-01
87 70 8.70071538431629432e-01
88 70 8.71644695368615663e-01
89 70 8.73289359439101354e-01
90 70 8.75005530643086726e-01
91 70 8.76793208980570893e-01
92 70 8.78652394451555074e-01
93 70 8.80583087056038716e-01
94 70 8.82585286794020485e-01
95 70 8.84658993665502713e-01
96 70 8.86804207670484401e-01
97 70 8.89020928808964550e-01
98 70 8.91309157080945047e-01
99 70 8.93668892486424560e-01
100 70 8.96100135025403755e-01
101 70 8.98602884697881521e-01
102 70 9.01177141503859525e-01
103 70 9.03822905443336100e-01
104 70 9.06540176516312135e-01
105 70 9.09328954722788518e-01
106 70 9.12189240062763362e-01
107 70 9.15121032536238110e-01
108 70 9.18124332143211985e-01
109 70 9.21199138883684876e-01
110 70 9.24345452757657671e-01
111 70 9.27563273765129592e-01
112 70 9.30852601906101418e-01
113 70 9.34213437180571815e-01
114 70 9.37645779588542450e-01
115 70 9.41149629130012100e-01
116 70 9.44724985804981099e-01
117 70 9.48371849613449114e-01
118 70 9.52090220555417255e-01
119 70 9.55880098630883968e-01
120 70 9.59741483839850140e-01
121 70 9.63674376182315884e-01
122 70 9.67678775658281198e-01
123 70 9.71754682267745640e-01
124 70 9.75902096010709985e-01
125 70 9.80121016887173235e-01
126 70 9.84411444897135723e-01
127 70 9.88773380040597338e-01
128 70 9.93206822317559412e-01
129 70 9.97711771728019725e-01
130 70 1.00000000000000000e+00
1 71 1.00000000000000000e+00
2 71 9.97711771728019725e-01
3 71 9.93206822317559412e-01
4 71 9.88773380040597227e-01
5 71 9.84411444897135501e-01
6 71 9.80121016887173124e-01
7 71 9.75902096010709652e-01
8 71 9.71754682267745529e-01
9 71 9.67678775658280643e-01
10 71 9.63674376182315440e-01
11 71 9.59741483839849807e-01
12 71 9.55880098630883634e-01
13 71 9.52090220555416700e-01
14 71 9.48371849613449003e-01
15 71 9.44724985804980655e-01
16 71 9.41149629130011878e-01
17 71 9.37645779588542228e-01
18 71 9.34213437180571815e-01
19 71 9.30852601906101418e-01
20 71 9.27563273765129592e-01
21 71 9.24345452757657782e-01
22 71 9.21199138883685098e-01
23 71 9.18124332143212096e-01
24 71 9.15121032536238332e-01
25 71 9.12189240062763695e-01
26 71 9.09328954722788629e-01
27 71 9.06540176516312690e-01
28 71 9.03822905443336100e-01
29 71 9.01177141503859858e-01
30 71 8.98602884697881854e-01
31 71 8.96100135025403755e-01
32 71 8.93668892486424560e-01
33 71 8.91309157080945047e-01
34 71 8.89020928808964550e-01
35 71 8.86804207670484401e-01
36 71 8.84658993665502713e-01
37 71 8.82585286794020707e-01
38 71 8.80583087056038827e-01
39 71 8.78652394451555074e-01
40 71 8.76793208980570893e-01
41 71 8.75005530643086726e-01
42 71 8.73289359439101354e-01
43 71 8.71644695368615663e-01
44 71 8.70071538431629543e-01
45 71 8.68569888628143105e-01
46 71 8.67139745958155350e-01
47 71 8.65781110421666833e-01
48 71 8.64493982018678109e-01
49 71 8.63278360749188844e-01
50 71 8.62134246613198929e-01
51 71 8.61061639610708029e-01
52 71 8.60060539741716923e-01
53 71 8.59130947006224499e-01
54 71 8.58272861404232201e-01
55 71 8.57486282935739030e-01
56 71 8.56771211600745652e-01
57 71 8.56127647399251401e-01
58 71 8.55555590331255722e-01
59 71 8.55055040396760280e-01
60 71 8.54625997595763964e-01
61 71 8.54268461928266998e-01
62 71 8.53982433394269824e-01
63 71 8.53767911993771667e-01
64 71 8.53624897726772747e-01
65 71 8.53553390593273176e-01
66 71 8.53553390593273176e-01
67 71 8.53624897726772747e-01
68 71 8.53767911993771444e-01
69 71 8.53982433394269602e-01
70 71 8.54268461928266998e-01
71 71 8.54625997595763964e-01
72 71 8.55055040396760058e-01
73 71 8.55555590331255611e-01
74 71 8.56127647399250957e-01
75 71 8.56771211600745430e-01
76 71 8.57486282935738808e-01
77 71 8.58272861404232201e-01
78 71 8.59130947006224499e-01
79 71 8.60060539741716812e-01
80 71 8.61061639610708029e-01
81 71 8.62134246613198929e-01
82 71 8.63278360749188622e-01
83 71 8.64493982018678109e-01
84 71 8.65781110421666833e-01
85 71 8.67139745958155239e-01
86 71 8.68569888628142994e-01
87 71 8.70071538431629432e-01
88 71 8.71644695368615663e-01
89 71 8.73289359439101354e-01
90 71 8.75005530643086726e-01
91 71 8.76793208980570893e-01
92 71 8.78652394451555074e-01
93 71 8.80583087056038827e-01
94 71 8.82585286794020485e-01
95 71 8.84658993665502713e-01
96 71 8.86804207670484401e-01
97 71 8.89020928808964550e-01
98 71 8.91309157080945047e-01
99 71 8.93668892486424560e-01
100 71 8.96100135025403755e-01
101 71 8.98602884697881521e-01
102 71 9.01177141503859525e-01
103 71 9.03822905443336100e-01
104 71 9.06540176516312135e-01
105 71 9.09328954722788518e-01
106 71 9.12189240062763362e-01
107 71 9.15121032536238110e-01
108 71 9.18124332143211985e-01
109 71 9.21199138883684876e-01
110 71 9.24345452757657671e-01
111 71 9.27563273765129592e-01
112 71 9.30852601906101418e-01
113 71 9.34213437180571815e-01
114 71 9.37645779588542450e-01
115 71 9.41149629130012100e-01
116 71 9.44724985804981099e-01
117 71 9.48371849613449114e-01
118 71 9.52090220555417255e-01
119 71 9.55880098630883968e-01
120 71 9.59741483839850140e-01
121 71 9.63674376182315884e-01
122 71 9.67678775658281198e-01
123 71 9.71754682267745640e-01
124 71 9.75902096010709985e-01
125 71 9.80121016887173235e-01
126 71 9.84411444897135723e-01
127 71 9.88773380040597338e-01
128 71 9.93206822317559412e-01
129 71 9.97711771728019725e-01
130 71 1.00000000000000000e+00
1 72 1.00000000000000000e+00
2 72 9.97711771728019725e-01
3 72 9.93206822317559301e-01
4 72 9.88773380040597227e-01
5 72 9.84411444897135501e-01
6 72 9.80121016887173013e-01
7 72 9.75902096010709541e-01
8 72 9.71754682267745529e-01
9 72 9.67678775658280643e-01
10 72 9.63674376182315329e-01
11 72 9.59741483839849807e-01
12 72 9.55880098630883634e-01
13 72 9.52090220555416589e-01
14 72 9.48371849613449003e-01
15 72 9.44724985804980544e-01
16 72 9.41149629130011767e-01
17 72 9.37645779588542116e-01
18 72 9.34213437180571815e-01
19 72 9.30852601906101418e-01
20 72 9.27563273765129592e-01
21 72 9.24345452757657782e-01
22 72 9.21199138883684987e-01
23 72 9.18124332143211985e-01
24 72 9.15121032536238221e-01
25 72 9.12189240062763695e-01
26 72 9.09328954722788518e-01
27 72 9.06540176516312690e-01
28 72 9.03822905443336100e-01
29 72 9.01177141503859747e-01
30 72 8.98602884697881854e-01
31 72 8.96100135025403755e-01
32 72 8.93668892486424560e-01
33 72 8.91309157080944936e-01
34 72 8.89020928808964550e-01
35 72 8.86804207670484401e-01
36 72 8.84658993665502713e-01
37 72 8.82585286794020596e-01
38 72 8.80583087056038716e-01
39 72 8.78652394451554963e-01
40 72 8.76793208980570782e-01
41 72 8.75005530643086726e-01
42 72 8.73289359439101354e-01
43 72 8.71644695368615552e-01
44 72 8.70071538431629543e-01
45 72 8.68569888628142994e-01
46 72 8.67139745958155239e-01
47 72 8.65781110421666833e-01
48 72 8.64493982018677998e-01
49 72 8.63278360749188844e-01
50 72 8.62134246613198929e-01
51 72 8.61061639610708029e-01
52 72 8.60060539741716812e-01
53 72 8.59130947006224499e-01
54 72 8.58272861404232201e-01
55 72 8.57486282935739030e-01
56 72 8.56771211600745541e-01
57 72 8.56127647399251290e-01
58 72 8.55555590331255722e-01
59 72 8.55055040396760280e-01
60 72 8.54625997595763853e-01
61 72 8.54268461928266887e-01
62 72 8.53982433394269824e-01
63 72 8.53767911993771556e-01
64 72 8.53624897726772747e-01
65 72 8.53553390593273176e-01
66 72 8.53553390593273176e-01
67 72 8.53624897726772747e-01
68 72 8.53767911993771333e-01
69 72 8.53982433394269602e-01
70 72 8.54268461928266887e-01
71 72 8.54625997595763853e-01
72 72 8.55055040396760058e-01
73 72 8.55555590331255611e-01
74 72 8.56127647399250957e-01
75 72 8.56771211600745319e-01
76 72 8.57486282935738808e-01
77 72 8.58272861404232201e-01
78 72 8.59130947006224499e-01
79 72 8.60060539741716701e-01
80 72 8.61061639610708029e-01
81 72 8.62134246613198929e-01
82 72 8.63278360749188622e-01
83 72 8.64493982018677998e-01
84 72 8.65781110421666833e-01
85 72 8.67139745958155128e-01
86 72 8.68569888628142883e-01
87 72 8.70071538431629432e-01
88 72 8.71644695368615552e-01
89 72 8.73289359439101354e-01
90 72 8.75005530643086726e-01
91 72 8.76793208980570782e-01
92 72 8.78652394451554963e-01
93 72 8.80583087056038716e-01
94 72 8.82585286794020374e-01
95 72 8.84658993665502713e-01
96 72 8.86804207670484401e-01
97 72 8.89020928808964550e-01
98 72 8.91309157080944936e-01
99 72 8.93668892486424560e-01
100 72 8.96100135025403755e-01
101 72 8.98602884697881521e-01
102 72 9.01177141503859414e-01
103 72 9.03822905443336100e-01
104 72 9.06540176516312135e-01
105 72 9.09328954722788407e-01
106 72 9.12189240062763362e-01
107 72 9.15121032536237999e-01
108 72 9.18124332143211874e-01
109 72 9.21199138883684765e-01
110 72 9.24345452757657671e-01
111 72 9.27563273765129592e-01
112 72 9.30852601906101418e-01
113 72 9.34213437180571815e-01
114 72 9.37645779588542450e-01
115 72 9.41149629130011989e-01
116 72 9.44724985804980988e-01
117 72 9.48371849613449114e-01
118 72 9.52090220555417144e-01
119 72 9.55880098630883857e-01
120 72 9.59741483839850029e-01
121 72 9.63674376182315773e-01
122 72 9.67678775658281198e-01
123 72 9.71754682267745640e-01
124 72 9.75902096010709874e-01
125 72 9.80121016887173235e-01
126 72 9.84411444897135723e-01
127 72 9.88773380040597338e-01
128 72 9.93206822317559301e-01
129 72 9.97711771728019725e-01
130 72 1.00000000000000000e+00
1 73 1.00000000000000000e+00
2 73 9.97711771728019725e-01
3 73 9.93206822317559301e-01
4 73 9.88773380040597227e-01
5 73 9.84411444897135501e-01
6 73 9.80121016887173013e-01
7 73 9.75902096010709541e-01
8 73 9.71754682267745529e-01
9 73 9.67678775658280643e-01
10 73 9.63674376182315329e-01
11 73 9.59741483839849807e-01
12 73 9.55880098630883634e-01
13 73 9.52090220555416589e-01
14 73 9.48371849613449003e-01
15 73 9.44724985804980655e-01
16 73 9.41149629130011767e-01
17 73 9.37645779588542116e-01
18 73 9.34213437180571815e-01
19 73 9.30852601906101418e-01
20 73 9.27563273765129592e-01
21 73 9.24345452757657782e-01
22 73 9.21199138883684987e-01
23 73 9.18124332143211985e-01
24 73 9.15121032536238332e-01
25 73 9.12189240062763695e-01
26 73 9.09328954722788518e-01
27 73 9.06540176516312690e-01
28 73 9.03822905443336100e-01
29 73 9.01177141503859747e-01
30 73 8.98602884697881854e-01
31 73 8.96100135025403866e-01
32 73 8.93668892486424560e-01
33 73 8.91309157080944936e-01
34 73 8.89020928808964550e-01
35 73 8.86804207670484512e-01
36 73 8.84658993665502713e-01
37 73 8.82585286794020596e-01
38 73 8.80583087056038716e-01
39 73 8.78652394451554963e-01
40 73 8.76793208980570782e-01
41 73 8.75005530643086726e-01
42 73 8.73289359439101354e-01
43 73 8.71644695368615552e-01
44 73 8.70071538431629543e-01
45 73 8.68569888628142994e-01
46 73 8.67139745958155239e-01
47 73 8.65781110421666833e-01
48 73 8.64493982018677998e-01
49 73 8.63278360749188844e-01
50 73 8.62134246613198929e-01
51 73 8.61061639610708029e-01
52 73 8.60060539741716812e-01
53 73 8.59130947006224499e-01
54 73 8.58272861404232201e-01
55 73 8.57486282935739030e-01
56 73 8.56771211600745541e-01
57 73 8.56127647399251290e-01
58 73 8.55555590331255722e-01
59 73 8.55055040396760280e-01
60 73 8.54625997595763853e-01
61 73 8.54268461928266887e-01
62 73 8.53982433394269824e-01
63 73 8.53767911993771556e-01
64 73 8.53624897726772747e-01
65 73 8.53553390593273176e-01
66 73 8.53553390593273176e-01
67 73 8.53624897726772747e-01
68 73 8.53767911993771333e-01
69 73 8.53982433394269602e-01
70 73 8.54268461928266887e-01
71 73 8.54625997595763853e-01
72 73 8.55055040396760058e-01
73 73 8.55555590331255611e-01
74 73 8.56127647399250957e-01
75 73 8.56771211600745319e-01
76 73 8.57486282935738808e-01
77 73 8.58272861404232201e-01
78 73 8.59130947006224499e-01
79 73 8.60060539741716701e-01
80 73 8.61061639610708029e-01
81 73 8.62134246613198929e-01
82 73 8.63278360749188622e-01
83 73 8.64493982018677998e-01
84 73 8.65781110421666833e-01
85 73 8.67139745958155128e-01
86 73 8.68569888628142883e-01
87 73 8.70071538431629432e-01
88 73 8.71644695368615552e-01
89 73 8.73289359439101354e-01
90 73 8.75005530643086726e-01
91 73 8.76793208980570782e-01
92 73 8.78652394451554963e-01
93 73 8.80583087056038716e-01
94 73 8.82585286794020374e-01
95 73 8.84658993665502713e-01
96 73 8.86804207670484512e-01
97 73 8.89020928808964550e-01
98 73 8.91309157080944936e-01
99 73 8.93668892486424560e-01
100 73 8.96100135025403866e-01
101 73 8.98602884697881521e-01
102 73 9.01177141503859414e-01
103 73 9.03822905443336100e-01
104 73 9.06540176516312135e-01
105 73 9.09328954722788407e-01
106 73 9.12189240062763362e-01
107 73 9.15121032536238110e-01
108 73 9.18124332143211874e-01
109 73 9.21199138883684765e-01
110 73 9.24345452757657671e-01
111 73 9.27563273765129592e-01
112 73 9.30852601906101418e-01
113 73 9.34213437180571815e-01
114 73 9.37645779588542450e-01
115 73 9.41149629130011989e-01
116 73 9.44724985804980988e-01
117 73 9.48371849613449114e-01
118 73 9.52090220555417144e-01
119 73 9.55880098630883857e-01
120 73 9.59741483839850029e-01
121 73 9.63674376182315773e-01
122 73 9.67678775658281198e-01
123 73 9.71754682267745640e-01
124 73 9.75902096010709874e-01
125 73 9.80121016887173235e-01
126 73 9.84411444897135723e-01
127 73 9.88773380040597338e-01
128 73 9.93206822317559301e-01
129 73 9.97711771728019725e-01
130 73 1.00000000000000000e+00
1 74 1.00000000000000000e+00
2 74 9.97711771728019725e-01
3 74 9.93206822317559301e-01
4 74 9.88773380040597227e-01
5 74 9.84411444897135501e-01
6 74 9.80121016887173013e-01
7 74 9.75902096010709541e-01
8 74 9.71754682267745418e-01
9 74 9.67678775658280643e-01
10 74 9.63674376182315329e-01
11 74 9.59741483839849807e-01
12 74 9.55880098630883634e-01
13 74 9.52090220555416478e-01
14 74 9.48371849613449003e-01
15 74 9.44724985804980655e-01
16 74 9.41149629130011767e-01
17 74 9.37645779588542116e-01
18 74 9.34213437180571815e-01
19 74 9.30852601906101418e-01
20 74 9.27563273765129592e-01
21 74 9.24345452757657782e-01
22 74 9.21199138883684987e-01
23 74 9.18124332143211985e-01
24 74 9.15121032536238332e-01
25 74 9.12189240062763695e-01
26 74 9.09328954722788518e-01
27 74 9.06540176516312690e-01
28 74 9.03822905443336100e-01
29 74 9.01177141503859747e-01
30 74 8.98602884697881854e-01
31 74 8.96100135025403866e-01
32 74 8.93668892486424560e-01
33 74 8.91309157080944936e-01
34 74 8.89020928808964550e-01
35 74 8.86804207670484512e-01
36 74 8.84658993665502713e-01
37 74 8.82585286794020596e-01
38 74 8.80583087056038605e-01
39 74 8.78652394451554963e-01
40 74 8.76793208980570782e-01
41 74 8.75005530643086726e-01
42 74 8.73289359439101354e-01
43 74 8.71644695368615552e-01
44 74 8.70071538431629543e-01
45 74 8.68569888628142994e-01
46 74 8.67139745958155239e-01
47 74 8.65781110421666944e-01
48 74 8.64493982018677998e-01
49 74 8.63278360749188844e-01
50 74 8.62134246613198818e-01
51 74 8.61061639610707918e-01
52 74 8.60060539741716812e-01
53 74 8.59130947006224499e-01
54 74 8.58272861404232201e-01
55 74 8.57486282935739030e-01
56 74 8.56771211600745541e-01
57 74 8.56127647399251290e-01
58 74 8.55555590331255722e-01
59 74 8.55055040396760280e-01
60 74 8.54625997595763853e-01
61 74 8.54268461928266887e-01
62 74 8.53982433394269824e-01
63 74 8.53767911993771556e-01
64 74 8.53624897726772747e-01
65 74 8.53553390593273176e-01
66 74 8.53553390593273176e-01
67 74 8.53624897726772747e-01
68 74 8.53767911993771333e-01
69 74 8.53982433394269602e-01
70 74 8.54268461928266887e-01
71 74 8.54625997595763853e-01
72 74 8.55055040396760058e-01
73 74 8.55555590331255611e-01
74 74 8.56127647399250957e-01
75 74 8.56771211600745319e-01
76 74 8.57486282935738808e-01
77 74 8.58272861404232201e-01
78 74 8.59130947006224499e-01
79 74 8.60060539741716701e-01
80 74 8.61061639610707918e-01
81 74 8.62134246613198818e-01
82 74 8.63278360749188622e-01
83 74 8.64493982018677998e-01
84 74 8.65781110421666944e-01
85 74 8.67139745958155128e-01
86 74 8.68569888628142883e-01
87 74 8.70071538431629432e-01
88 74 8.71644695368615552e-01
89 74 8.73289359439101354e-01
90 74 8.75005530643086726e-01
91 74 8.76793208980570782e-01
92 74 8.78652394451554963e-01
93 74 8.80583087056038605e-01
94 74 8.82585286794020374e-01
95 74 8.84658993665502713e-01
96 74 8.86804207670484512e-01
97 74 8.89020928808964550e-01
98 74 8.91309157080944936e-01
99 74 8.93668892486424560e-01
100 74 8.96100135025403866e-01
101 74 8.98602884697881521e-01
102 74 9.01177141503859414e-01
103 74 9.03822905443335989e-01
104 74 9.06540176516312135e-01
105 74 9.09328954722788407e-01
106 74 9.12189240062763362e-01
107 74 9.15121032536238110e-01
108 74 9.18124332143211874e-01
109 74 9.21199138883684765e-01
110 74 9.24345452757657671e-01
111 74 9.27563273765129592e-01
112 74 9.30852601906101418e-01
113 74 9.34213437180571815e-01
114 74 9.37645779588542450e-01
115 74 9.41149629130011989e-01
116 74 9.44724985804980988e-01
117 74 9.48371849613449114e-01
118 74 9.52090220555417144e-01
119 74 9.55880098630883857e-01
120 74 9.59741483839850029e-01
121 74 9.63674376182315662e-01
122 74 9.67678775658281198e-01
123 74 9.71754682267745640e-01
124 74 9.75902096010709874e-01
125 74 9.80121016887173235e-01
126 74 9.84411444897135723e-01
127 74 9.88773380040597338e-01
128 74 9.93206822317559301e-01
129 74 9.97711771728019725e-01
130 74 1.00000000000000000e+00
1 75 1.00000000000000000e+00
2 75 9.97711771728019725e-01
3 75 9.93206822317559190e-01
4 75 9.88773380040597116e-01
5 75 9.84411444897135390e-01
6 75 9.80121016887173013e-01
7 75 9.75902096010709541e-01
8 75 9.71754682267745307e-01
9 75 9.67678775658280643e-01
10 75 9.63674376182315329e-01
11 75 9.59741483839849807e-01
12 75 9.55880098630883634e-01
13 75 9.52090220555416367e-01
14 75 9.48371849613448892e-01
15 75 9.44724985804980655e-01
16 75 9.41149629130011656e-01
17 75 9.37645779588542005e-01
18 75 9.34213437180571704e-01
19 75 9.30852601906101307e-01
20 75 9.27563273765129481e-01
21 75 9.24345452757657782e-01
22 75 9.21199138883684876e-01
23 75 9.18124332143211874e-01
24 75 9.15121032536238221e-01
25 75 9.12189240062763584e-01
26 75 9.09328954722788407e-01
27 75 9.06540176516312690e-01
28 75 9.03822905443336100e-01
29 75 9.01177141503859636e-01
30 75 8.98602884697881854e-01
31 75 8.96100135025403755e-01
32 75 8.93668892486424449e-01
33 75 8.91309157080944936e-01
34 75 8.89020928808964439e-01
35 75 8.86804207670484512e-01
36 75 8.84658993665502713e-01
37 75 8.82585286794020596e-01
38 75 8.80583087056038494e-01
39 75 8.78652394451554963e-01
40 75 8.76793208980570782e-01
41 75 8.75005530643086726e-01
42 75 8.73289359439101243e-01
43 75 8.71644695368615552e-01
44 75 8.70071538431629432e-01
45 75 8.68569888628142883e-01
46 75 8.67139745958155239e-01
47 75 8.65781110421666833e-01
48 75 8.64493982018677887e-01
49 75 8.63278360749188733e-01
50 75 8.62134246613198707e-01
51 75 8.61061639610707918e-01
52 75 8.60060539741716701e-01
53 75 8.59130947006224388e-01
54 75 8.58272861404232201e-01
55 75 8.57486282935739030e-01
56 75 8.56771211600745430e-01
57 75 8.56127647399251179e-01
58 75 8.55555590331255611e-01
59 75 8.55055040396760280e-01
60 75 8.54625997595763742e-01
61 75 8.54268461928266776e-01
62 75 8.53982433394269713e-01
63 75 8.53767911993771556e-01
64 75 8.53624897726772636e-01
65 75 8.53553390593273176e-01
66 75 8.53553390593273176e-01
67 75 8.53624897726772636e-01
68 75 8.53767911993771333e-01
69 75 8.53982433394269491e-01
70 75 8.54268461928266776e-01
71 75 8.54625997595763742e-01
72 75 8.55055040396760058e-01
73 75 8.55555590331255611e-01
74 75 8.56127647399250846e-01
75 75 8.56771211600745319e-01
76 75 8.57486282935738808e-01
77 75 8.58272861404232201e-01
78 75 8.59130947006224388e-01
79 75 8.60060539741716590e-01
80 75 8.61061639610707918e-01
81 75 8.62134246613198707e-01
82 75 8.63278360749188511e-01
83 75 8.64493982018677887e-01
84 75 8.65781110421666833e-01
85 75 8.67139745958155128e-01
86 75 8.68569888628142772e-01
87 75 8.70071538431629432e-01
88 75 8.71644695368615552e-01
89 75 8.73289359439101243e-01
90 75 8.75005530643086726e-01
91 75 8.76793208980570782e-01
92 75 8.78652394451554963e-01
93 75 8.80583087056038494e-01
94 75 8.82585286794020374e-01
95 75 8.84658993665502713e-01
96 75 8.86804207670484512e-01
97 75 8.89020928808964439e-01
98 75 8.91309157080944936e-01
99 75 8.93668892486424449e-01
100 75 8.96100135025403755e-01
101 75 8.98602884697881521e-01
102 75 9.01177141503859302e-01
103 75 9.03822905443335989e-01
104 75 9.06540176516312135e-01
105 75 9.09328954722788296e-01
106 75 9.12189240062763362e-01
107 75 9.15121032536237999e-01
108 75 9.18124332143211763e-01
109 75 9.21199138883684654e-01
110 75 9.24345452757657671e-01
111 75 9.27563273765129481e-01
112 75 9.30852601906101307e-01
113 75 9.34213437180571704e-01
114 75 9.37645779588542339e-01
115 75 9.41149629130011878e-01
116 75 9.44724985804980988e-01
117 75 9.48371849613449114e-01
118 75 9.52090220555417033e-01
119 75 9.55880098630883857e-01
120 75 9.59741483839849918e-01
121 75 9.63674376182315662e-01
122 75 9.67678775658281198e-01
123 75 9.71754682267745529e-01
124 75 9.75902096010709874e-01
125 75 9.80121016887173235e-01
126 75 9.84411444897135612e-01
127 75 9.88773380040597227e-01
128 75 9.93206822317559190e-01
129 75 9.97711771728019725e-01
130 75 1.00000000000000000e+00
1 76 1.00000000000000000e+00
2 76 9.97711771728019725e-01
3 76 9.93206822317559190e-01
4 76 9.88773380040597005e-01
5 76 9.84411444897135279e-01
6 76 9.80121016887172902e-01
7 76 9.75902096010709541e-01
8 76 9.71754682267745307e-01
9 76 9.67678775658280532e-01
10 76 9.63674376182315329e-01
11 76 9.59741483839849807e-01
12 76 9.55880098630883523e-01
13 76 9.52090220555416256e-01
14 76 9.48371849613448781e-01
15 76 9.44724985804980655e-01
16 76 9.41149629130011656e-01
17 76 9.37645779588541894e-01
18 76 9.34213437180571593e-01
19 76 9.30852601906101196e-01
20 76 9.27563273765129481e-01
21 76 9.24345452757657782e-01
22 76 9.21199138883684876e-01
23 76 9.18124332143211763e-01
24 76 9.15121032536238221e-01
25 76 9.12189240062763584e-01
26 76 9.09328954722788407e-01
27 76 9.06540176516312690e-01
28 76 9.03822905443335989e-01
29 76 9.01177141503859525e-01
30 76 8.98602884697881854e-01
31 76 8.96100135025403643e-01
32 76 8.93668892486424338e-01
33 76 8.91309157080944936e-01
34 76 8.89020928808964439e-01
35 76 8.86804207670484512e-01
36 76 8.84658993665502602e-01
37 76 8.82585286794020485e-01
38 76 8.80583087056038494e-01
39 76 8.78652394451554852e-01
40 76 8.76793208980570782e-01
41 76 8.75005530643086615e-01
42 76 8.73289359439101243e-01
43 76 8.71644695368615441e-01
44 76 8.70071538431629432e-01
45 76 8.68569888628142883e-01
46 76 8.67139745958155128e-01
47 76 8.65781110421666833e-01
48 76 8.64493982018677776e-01
49 76 8.63278360749188733e-01
50 76 8.62134246613198707e-01
51 76 8.61061639610707918e-01
52 76 8.60060539741716701e-01
53 76 8.59130947006224388e-01
54 76 8.58272861404232090e-01
55 76 8.57486282935739030e-01
56 76 8.56771211600745319e-01
57 76 8.56127647399251179e-01
58 76 8.55555590331255611e-01
59 76 8.55055040396760169e-01
60 76 8.54625997595763742e-01
61 76 8.54268461928266776e-01
62 76 8.53982433394269602e-01
63 76 8.53767911993771444e-01
64 76 8.53624897726772525e-01
65 76 8.53553390593273065e-01
66 76 8.53553390593273065e-01
67 76 8.53624897726772525e-01
68 76 8.53767911993771222e-01
69 76 8.53982433394269380e-01
70 76 8.54268461928266776e-01
71 76 8.54625997595763742e-01
72 76 8.55055040396760058e-01
73 76 8.55555590331255611e-01
74 76 8.56127647399250846e-01
75 76 8.56771211600745208e-01
76 76 8.57486282935738808e-01
77 76 8.58272861404232090e-01
78 76 8.59130947006224388e-01
79 76 8.60060539741716590e-01
80 76 8.61061639610707918e-01
81 76 8.62134246613198707e-01
82 76 8.63278360749188511e-01
83 76 8.64493982018677776e-01
84 76 8.65781110421666833e-01
85 76 8.67139745958155017e-01
86 76 8.68569888628142772e-01
87 76 8.70071538431629432e-01
88 76 8.71644695368615441e-01
89 76 8.73289359439101243e-01
90 76 8.75005530643086615e-01
91 76 8.76793208980570782e-01
92 76 8.78652394451554963e-01
93 76 8.80583087056038494e-01
94 76 8.82585286794020263e-01
95 76 8.84658993665502602e-01
96 76 8.86804207670484512e-01
97 76 8.89020928808964439e-01
98 76 8.91309157080944936e-01
99 76 8.93668892486424338e-01
100 76 8.96100135025403643e-01
101 76 8.98602884697881521e-01
102 76 9.01177141503859191e-01
103 76 9.03822905443335878e-01
104 76 9.06540176516312135e-01
105 76 9.09328954722788296e-01
106 76 9.12189240062763362e-01
107 76 9.15121032536237999e-01
108 76 9.18124332143211652e-01
109 76 9.21199138883684654e-01
110 76 9.24345452757657671e-01
111 76 9.27563273765129481e-01
112 76 9.30852601906101196e-01
113 76 9.34213437180571593e-01
114 76 9.37645779588542228e-01
115 76 9.41149629130011767e-01
116 76 9.44724985804980877e-01
117 76 9.48371849613449003e-01
118 76 9.52090220555416922e-01
119 76 9.55880098630883746e-01
120 76 9.59741483839849918e-01
121 76 9.63674376182315662e-01
122 76 9.67678775658281087e-01
123 76 9.71754682267745529e-01
124 76 9.75902096010709763e-01
125 76 9.80121016887173124e-01
126 76 9.84411444897135501e-01
127 76 9.88773380040597116e-01
128 76 9.93206822317559190e-01
129 76 9.97711771728019725e-01
130 76 1.00000000000000000e+00
1 77 1.00000000000000000e+00
2 77 9.97711771728019614e-01
3 77 9.93206822317559079e-01
4 77 9.88773380040597005e-01
5 77 9.84411444897135279e-01
6 77 9.80121016887172902e-01
7 77 9.75902096010709430e-01
8 77 9.71754682267745307e-01
9 77 9.67678775658280532e-01
10 77 9.63674376182315329e-01
11 77 9.59741483839849807e-01
12 77 9.55880098630883523e-01
13 77 9.52090220555416256e-01
14 77 9.48371849613448781e-01
15 77 9.44724985804980544e-01
16 77 9.41149629130011656e-01
17 77 9.37645779588541894e-01
18 77 9.34213437180571593e-01
19 77 9.30852601906101085e-01
20 77 9.27563273765129370e-01
21 77 9.24345452757657671e-01
22 77 9.21199138883684765e-01
23 77 9.18124332143211652e-01
24 77 9.15121032536238110e-01
25 77 9.12189240062763584e-01
26 77 9.09328954722788407e-01
27 77 9.06540176516312690e-01
28 77 9.03822905443335878e-01
29 77 9.01177141503859525e-01
30 77 8.98602884697881854e-01
31 77 8.96100135025403532e-01
32 77 8.93668892486424338e-01
33 77 8.91309157080944825e-01
34 77 8.89020928808964439e-01
35 77 8.86804207670484401e-01
36 77 8.84658993665502602e-01
37 77 8.82585286794020485e-01
38 77 8.80583087056038383e-01
39 77 8.78652394451554741e-01
40 77 8.76793208980570782e-01
41 77 8.75005530643086615e-01
42 77 8.73289359439101243e-01
43 77 8.71644695368615441e-01
44 77 8.70071538431629432e-01
45 77 8.68569888628142883e-01
46 77 8.67139745958155128e-01
47 77 8.65781110421666833e-01
48 77 8.64493982018677665e-01
49 77 8.63278360749188622e-01
50 77 8.62134246613198707e-01
51 77 8.61061639610707918e-01
52 77 8.60060539741716590e-01
53 77 8.59130947006224388e-01
54 77 8.58272861404231979e-01
55 77 8.57486282935739030e-01
56 77 8.56771211600745208e-01
57 77 8.56127647399251179e-01
58 77 8.55555590331255500e-01
59 77 8.55055040396760169e-01
60 77 8.54625997595763742e-01
61 77 8.54268461928266776e-01
62 77 8.53982433394269602e-01
63 77 8.53767911993771333e-01
64 77 8.53624897726772414e-01
65 77 8.53553390593272954e-01
66 77 8.53553390593272954e-01
67 77 8.53624897726772414e-01
68 77 8.53767911993771111e-01
69 77 8.53982433394269380e-01
70 77 8.54268461928266776e-01
71 77 8.54625997595763742e-01
72 77 8.55055040396760058e-01
73 77 8.55555590331255500e-01
74 77 8.56127647399250846e-01
75 77 8.56771211600745097e-01
76 77 8.57486282935738808e-01
77 77 8.58272861404231979e-01
78 77 8.59130947006224388e-01
79 77 8.60060539741716479e-01
80 77 8.61061639610707918e-01
81 77 8.62134246613198707e-01
82 77 8.63278360749188400e-01
83 77 8.64493982018677665e-01
84 77 8.65781110421666833e-01
85 77 8.67139745958155017e-01
86 77 8.68569888628142772e-01
87 77 8.70071538431629432e-01
88 77 8.71644695368615441e-01
89 77 8.73289359439101243e-01
90 77 8.75005530643086615e-01
91 77 8.76793208980570782e-01
92 77 8.78652394451554963e-01
93 77 8.80583087056038383e-01
94 77 8.82585286794020263e-01
95 77 8.84658993665502602e-01
96 77 8.86804207670484401e-01
97 77 8.89020928808964439e-01
98 77 8.91309157080944825e-01
99 77 8.93668892486424338e-01
100 77 8.96100135025403532e-01
101 77 8.98602884697881521e-01
102 77 9.01177141503859191e-01
103 77 9.03822905443335767e-01
104 77 9.06540176516312135e-01
105 77 9.09328954722788296e-01
106 77 9.12189240062763362e-01
107 77 9.15121032536237888e-01
108 77 9.18124332143211541e-01
109 77 9.21199138883684543e-01
110 77 9.24345452757657560e-01
111 77 9.27563273765129370e-01
112 77 9.30852601906101085e-01
113 77 9.34213437180571593e-01
114 77 9.37645779588542228e-01
115 77 9.41149629130011767e-01
116 77 9.44724985804980766e-01
117 77 9.48371849613449003e-01
118 77 9.52090220555416922e-01
119 77 9.55880098630883634e-01
120 77 9.59741483839849918e-01
121 77 9.63674376182315662e-01
122 77 9.67678775658281087e-01
123 77 9.71754682267745529e-01
124 77 9.75902096010709652e-01
125 77 9.80121016887173124e-01
126 77 9.84411444897135501e-01
127 77 9.88773380040597116e-01
128 77 9.93206822317559079e-01
129 77 9.97711771728019614e-01
130 77 1.00000000000000000e+00
1 78 1.00000000000000000e+00
2 78 9.97711771728019614e-01
3 78 9.93206822317559079e-01
4 78 9.88773380040597005e-01
5 78 9.84411444897135279e-01
6 78 9.80121016887172902e-01
7 78 9.75902096010709430e-01
8 78 9.71754682267745307e-01
9 78 9.67678775658280532e-01
10 78 9.63674376182315329e-01
11 78 9.59741483839849807e-01
12 78 9.55880098630883523e-01
13 78 9.52090220555416256e-01
14 78 9.48371849613448781e-01
15 78 9.44724985804980544e-01
16 78 9.41149629130011656e-01
17 78 9.37645779588541894e-01
18 78 9.34213437180571593e-01
19 78 9.30852601906101085e-01
20 78 9.27563273765129370e-01
21 78 9.24345452757657671e-01
22 78 9.21199138883684765e-01
23 78 9.18124332143211652e-01
24 78 9.15121032536238110e-01
25 78 9.12189240062763584e-01
26 78 9.09328954722788407e-01
27 78 9.06540176516312690e-01
28 78 9.03822905443335878e-01
29 78 9.01177141503859525e-01
30 78 8.98602884697881854e-01
31 78 8.96100135025403532e-01
32 78 8.93668892486424338e-01
33 78 8.91309157080944714e-01
34 78 8.89020928808964439e-01
35 78 8.86804207670484401e-01
36 78 8.84658993665502602e-01
37 78 8.82585286794020485e-01
38 78 8.80583087056038383e-01
39 78 8.78652394451554741e-01
40 78 8.76793208980570782e-01
41 78 8.75005530643086615e-01
42 78 8.73289359439101243e-01
43 78 8.71644695368615330e-01
44 78 8.70071538431629432e-01
45 78 8.68569888628142883e-01
46 78 8.67139745958155128e-01
47 78 8.65781110421666833e-01
48 78 8.64493982018677665e-01
49 78 8.63278360749188622e-01
50 78 8.62134246613198707e-01
51 78 8.61061639610707918e-01
52 78 8.60060539741716479e-01
53 78 8.59130947006224388e-01
54 78 8.58272861404231979e-01
55 78 8.57486282935739030e-01
56 78 8.56771211600745208e-01
57 78 8.56127647399251179e-01
58 78 8.55555590331255500e-01
59 78 8.55055040396760169e-01
60 78 8.54625997595763742e-01
61 78 8.54268461928266776e-01
62 78 8.53982433394269602e-01
63 78 8.53767911993771333e-01
64 78 8.53624897726772414e-01
65 78 8.53553390593272954e-01
66 78 8.53553390593272954e-01
67 78 8.53624897726772414e-01
68 78 8.53767911993771111e-01
69 78 8.53982433394269380e-01
70 78 8.54268461928266776e-01
71 78 8.54625997595763742e-01
72 78 8.55055040396760058e-01
73 78 8.55555590331255500e-01
74 78 8.56127647399250846e-01
75 78 8.56771211600745097e-01
76 78 8.57486282935738808e-01
77 78 8.58272861404231979e-01
78 78 8.59130947006224388e-01
79 78 8.60060539741716368e-01
80 78 8.61061639610707918e-01
81 78 8.62134246613198707e-01
82 78 8.63278360749188400e-01
83 78 8.64493982018677665e-01
84 78 8.65781110421666833e-01
85 78 8.67139745958155017e-01
86 78 8.68569888628142772e-01
87 78 8.70071538431629432e-01
88 78 8.71644695368615330e-01
89 78 8.73289359439101243e-01
90 78 8.75005530643086615e-01
91 78 8.76793208980570782e-01
92 78 8.78652394451554963e-01
93 78 8.80583087056038383e-01
94 78 8.82585286794020263e-01
95 78 8.84658993665502602e-01
96 78 8.86804207670484401e-01
97 78 8.89020928808964439e-01
98 78 8.91309157080944714e-01
99 78 8.93668892486424338e-01
100 78 8.96100135025403532e-01
101 78 8.98602884697881521e-01
102 78 9.01177141503859191e-01
103 78 9.03822905443335767e-01
104 78 9.06540176516312135e-01
105 78 9.09328954722788296e-01
106 78 9.12189240062763362e-01
107 78 9.15121032536237888e-01
108 78 9.18124332143211541e-01
109 78 9.21199138883684543e-01
110 78 9.24345452757657560e-01
111 78 9.27563273765129370e-01
112 78 9.30852601906101085e-01
113 78 9.34213437180571593e-01
114 78 9.37645779588542228e-01
115 78 9.41149629130011767e-01
116 78 9.44724985804980766e-01
117 78 9.48371849613449003e-01
118 78 9.52090220555416811e-01
119 78 9.55880098630883634e-01
120 78 9.59741483839849918e-01
121 78 9.63674376182315662e-01
122 78 9.67678775658281087e-01
123 78 9.71754682267745529e-01
124 78 9.75902096010709652e-01
125 78 9.80121016887173124e-01
126 78 9.84411444897135612e-01
127 78 9.88773380040597116e-01
128 78 9.93206822317559079e-01
129 78 9.97711771728019614e-01
130 78 1.00000000000000000e+00
1 79 1.00000000000000000e+00
2 79 9.97711771728019614e-01
3 79 9.93206822317559079e-01
4 79 9.88773380040597005e-01
5 79 9.84411444897135279e-01
6 79 9.80121016887172902e-01
7 79 9.75902096010709430e-01
8 79 9.71754682267745307e-01
9 79 9.67678775658280532e-01
10 79 9.63674376182315329e-01
11 79 9.59741483839849807e-01
12 79 9.55880098630883523e-01
13 79 9.52090220555416256e-01
14 79 9.48371849613448781e-01
15 79 9.44724985804980544e-01
16 79 9.41149629130011656e-01
17 79 9.37645779588541894e-01
18 79 9.34213437180571593e-01
19 79 9.30852601906101085e-01
20 79 9.27563273765129370e-01
21 79 9.24345452757657671e-01
22 79 9.21199138883684765e-01
23 79 9.18124332143211652e-01
24 79 9.15121032536238110e-01
25 79 9.12189240062763584e-01
26 79 9.09328954722788407e-01
27 79 9.06540176516312690e-01
28 79 9.03822905443335878e-01
29 79 9.01177141503859525e-01
30 79 8.98602884697881854e-01
31 79 8.96100135025403532e-01
32 79 8.93668892486424338e-01
33 79 8.91309157080944714e-01
34 79 8.89020928808964439e-01
35 79 8.86804207670484401e-01
36 79 8.84658993665502602e-01
37 79 8.82585286794020485e-01
38 79 8.80583087056038383e-01
39 79 8.78652394451554741e-01
40 79 8.76793208980570893e-01
41 79 8.75005530643086615e-01
42 79 8.73289359439101354e-01
43 79 8.71644695368615330e-01
44 79 8.70071538431629432e-01
45 79 8.68569888628142883e-01
46 79 8.67139745958155128e-01
47 79 8.65781110421666833e-01
48 79 8.64493982018677665e-01
49 79 8.63278360749188622e-01
50 79 8.62134246613198707e-01
51 79 8.61061639610707918e-01
52 79 8.60060539741716479e-01
53 79 8.59130947006224388e-01
54 79 8.58272861404231979e-01
55 79 8.57486282935739030e-01
56 79 8.56771211600745208e-01
57 79 8.56127647399251179e-01
58 79 8.55555590331255500e-01
59 79 8.55055040396760169e-01
60 79 8.54625997595763742e-01
61 79 8.54268461928266776e-01
62 79 8.53982433394269602e-01
63 79 8.53767911993771333e-01
64 79 8.53624897726772414e-01
65 79 8.53553390593272954e-01
66 79 8.53553390593272954e-01
67 79 8.53624897726772414e-01
68 79 8.53767911993771111e-01
69 79 8.53982433394269380e-01
70 79 8.54268461928266776e-01
71 79 8.54625997595763742e-01
72 79 8.55055040396760058e-01
73 79 8.55555590331255500e-01
74 79 8.56127647399250846e-01
75 79 8.56771211600745097e-01
76 79 8.57486282935738808e-01
77 79 8.58272861404231979e-01
78 79 8.59130947006224388e-01
79 79 8.60060539741716368e-01
80 79 8.61061639610707918e-01
81 79 8.62134246613198707e-01
82 79 8.63278360749188400e-01
83 79 8.64493982018677665e-01
84 79 8.65781110421666833e-01
85 79 8.67139745958155017e-01
86 79 8.68569888628142772e-01
87 79 8.70071538431629432e-01
88 79 8.71644695368615330e-01
89 79 8.73289359439101354e-01
90 79 8.75005530643086615e-01
91 79 8.76793208980570893e-01
92 79 8.78652394451554963e-01
93 79 8.80583087056038383e-01
94 79 8.82585286794020263e-01
95 79 8.84658993665502602e-01
96 79 8.86804207670484401e-01
97 79 8.89020928808964439e-01
98 79 8.91309157080944714e-01
99 79 8.93668892486424338e-01
100 79 8.96100135025403532e-01
101 79 8.98602884697881521e-01
102 79 9.01177141503859191e-01
103 79 9.03822905443335767e-01
104 79 9.06540176516312135e-01
105 79 9.09328954722788296e-01
106 79 9.12189240062763362e-01
107 79 9.15121032536237999e-01
108 79 9.18124332143211541e-01
109 79 9.21199138883684543e-01
110 79 9.24345452757657560e-01
111 79 9.27563273765129370e-01
112 79 9.30852601906101085e-01
113 79 9.34213437180571593e-01
114 79 9.37645779588542228e-01
115 79 9.41149629130011767e-01
116 79 9.44724985804980766e-01
117 79 9.48371849613449003e-01
118 79 9.52090220555416811e-01
119 79 9.55880098630883746e-01
120 79 9.59741483839849918e-01
121 79 9.63674376182315662e-01
122 79 9.67678775658281198e-01
123 79 9.71754682267745529e-01
124 79 9.75902096010709652e-01
125 79 9.80121016887173124e-01
126 79 9.84411444897135612e-01
127 79 9.88773380040597116e-01
128 79 9.93206822317559079e-01
129 79 9.97711771728019614e-01
130 79 1.00000000000000000e+00
1 80 1.00000000000000000e+00
2 80 9.97711771728019725e-01
3 80 9.93206822317559079e-01
4 80 9.88773380040597005e-01
5 80 9.84411444897135279e-01
6 80 9.80121016887172902e-01
7 80 9.75902096010709430e-01
8 80 9.71754682267745307e-01
9 80 9.67678775658280532e-01
10 80 9.63674376182315329e-01
11 80 9.59741483839849807e-01
12 80 9.55880098630883634e-01
13 80 9.52090220555416256e-01
14 80 9.48371849613448781e-01
15 80 9.44724985804980544e-01
16 80 9.41149629130011656e-01
17 80 9.37645779588541894e-01
18 80 9.34213437180571593e-01
19 80 9.30852601906101085e-01
20 80 9.27563273765129481e-01
21 80 9.24345452757657671e-01
22 80 9.21199138883684765e-01
23 80 9.18124332143211652e-01
24 80 9.15121032536238110e-01
25 80 9.12189240062763584e-01
26 80 9.09328954722788407e-01
27 80 9.06540176516312690e-01
28 80 9.03822905443335878e-01
29 80 9.01177141503859525e-01
30 80 8.98602884697881854e-01
31 80 8.96100135025403532e-01
32 80 8.93668892486424338e-01
33 80 8.91309157080944714e-01
34 80 8.89020928808964439e-01
35 80 8.86804207670484401e-01
36 80 8.84658993665502602e-01
37 80 8.82585286794020485e-01
38 80 8.80583087056038383e-01
39 80 8.78652394451554852e-01
40 80 8.76793208980570893e-01
41 80 8.75005530643086615e-01
42 80 8.73289359439101354e-01
43 80 8.71644695368615330e-01
44 80 8.70071538431629432e-01
45 80 8.68569888628142883e-01
46 80 8.67139745958155239e-01
47 80 8.65781110421666833e-01
48 80 8.64493982018677776e-01
49 80 8.63278360749188622e-01
50 80 8.62134246613198707e-01
51 80 8.61061639610707918e-01
52 80 8.60060539741716368e-01
53 80 8.59130947006224388e-01
54 80 8.58272861404231979e-01
55 80 8.57486282935739030e-01
56 80 8.56771211600745208e-01
57 80 8.56127647399251179e-01
58 80 8.55555590331255500e-01
59 80 8.55055040396760169e-01
60 80 8.54625997595763742e-01
61 80 8.54268461928266776e-01
62 80 8.53982433394269602e-01
63 80 8.53767911993771333e-01
64 80 8.53624897726772414e-01
65 80 8.53553390593272954e-01
66 80 8.53553390593272954e-01
67 80 8.53624897726772414e-01
68 80 8.53767911993771111e-01
69 80 8.53982433394269380e-01
70 80 8.54268461928266776e-01
71 80 8.54625997595763742e-01
72 80 8.55055040396760058e-01
73 80 8.55555590331255500e-01
74 80 8.56127647399250846e-01
75 80 8.56771211600745097e-01
76 80 8.57486282935738808e-01
77 80 8.58272861404231979e-01
78 80 8.59130947006224388e-01
79 80 8.60060539741716368e-01
80 80 8.61061639610707918e-01
81 80 8.62134246613198707e-01
82 80 8.63278360749188400e-01
83 80 8.64493982018677776e-01
84 80 8.65781110421666833e-01
85 80 8.67139745958155128e-01
86 80 8.68569888628142772e-01
87 80 8.70071538431629432e-01
88 80 8.71644695368615330e-01
89 80 8.73289359439101354e-01
90 80 8.75005530643086615e-01
91 80 8.76793208980570893e-01
92 80 8.78652394451554963e-01
93 80 8.80583087056038383e-01
94 80 8.82585286794020263e-01
95 80 8.84658993665502602e-01
96 80 8.86804207670484401e-01
97 80 8.89020928808964439e-01
98 80 8.91309157080944714e-01
99 80 8.93668892486424338e-01
100 80 8.96100135025403532e-01
101 80 8.98602884697881521e-01
102 80 9.01177141503859191e-01
103 80 9.03822905443335767e-01
104 80 9.06540176516312135e-01
105 80 9.09328954722788296e-01
106 80 9.12189240062763362e-01
107 80 9.15121032536237999e-01
108 80 9.18124332143211541e-01
109 80 9.21199138883684543e-01
110 80 9.24345452757657560e-01
111 80 9.27563273765129370e-01
112 80 9.30852601906101085e-01
113 80 9.34213437180571593e-01
114 80 9.37645779588542228e-01
115 80 9.41149629130011767e-01
116 80 9.44724985804980766e-01
117 80 9.48371849613449003e-01
118 80 9.52090220555416922e-01
119 80 9.55880098630883746e-01
120 80 9.59741483839849918e-01
121 80 9.63674376182315662e-01
122 80 9.67678775658281198e-01
123 80 9.71754682267745529e-01
124 80 9.75902096010709652e-01
125 80 9.80121016887173124e-01
126 80 9.84411444897135723e-01
127 80 9.88773380040597116e-01
128 80 9.93206822317559079e-01
129 80 9.97711771728019725e-01
130 80 1.00000000000000000e+00
1 81 1.00000000000000000e+00
2 81 9.97711771728019836e-01
3 81 9.93206822317559079e-01
4 81 9.88773380040597005e-01
5 81 9.84411444897135279e-01
6 81 9.80121016887172902e-01
7 81 9.75902096010709430e-01
8 81 9.71754682267745307e-01
9 81 9.67678775658280532e-01
10 81 9.63674376182315329e-01
11 81 9.59741483839849807e-01
12 81 9.55880098630883634e-01
13 81 9.52090220555416256e-01
14 81 9.48371849613448781e-01
15 81 9.44724985804980655e-01
16 81 9.41149629130011656e-01
17 81 9.37645779588541894e-01
18 81 9.34213437180571593e-01
19 81 9.30852601906101085e-01
20 81 9.27563273765129481e-01
21 81 9.24345452757657671e-01
22 81 9.21199138883684765e-01
23 81 9.18124332143211652e-01
24 81 9.15121032536238110e-01
25 81 9.12189240062763584e-01
26 81 9.09328954722788407e-01
27 81 9.06540176516312690e-01
28 81 9.03822905443335989e-01
29 81 9.01177141503859525e-01
30 81 8.98602884697881854e-01
31 81 8.96100135025403532e-01
32 81 8.93668892486424338e-01
33 81 8.91309157080944714e-01
34 81 8.89020928808964439e-01
35 81 8.86804207670484401e-01
36 81 8.84658993665502602e-01
37 81 8.82585286794020485e-01
38 81 8.80583087056038383e-01
39 81 8.78652394451554852e-01
40 81 8.76793208980570893e-01
41 81 8.75005530643086726e-01
42 81 8.73289359439101354e-01
43 81 8.71644695368615330e-01
44 81 8.70071538431629432e-01
45 81 8.68569888628142883e-01
46 81 8.67139745958155239e-01
47 81 8.65781110421666833e-01
48 81 8.64493982018677776e-01
49 81 8.63278360749188622e-01
50 81 8.62134246613198707e-01
51 81 8.61061639610707918e-01
52 81 8.60060539741716368e-01
53 81 8.59130947006224388e-01
54 81 8.58272861404231979e-01
55 81 8.57486282935739030e-01
56 81 8.56771211600745208e-01
57 81 8.56127647399251068e-01
58 81 8.55555590331255500e-01
59 81 8.55055040396760169e-01
60 81 8.54625997595763742e-01
61 81 8.54268461928266776e-01
62 81 8.53982433394269602e-01
63 81 8.53767911993771333e-01
64 81 8.53624897726772414e-01
65 81 8.53553390593272954e-01
66 81 8.53553390593272954e-01
67 81 8.53624897726772414e-01
68 81 8.53767911993771111e-01
69 81 8.53982433394269380e-01
70 81 8.54268461928266776e-01
71 81 8.54625997595763742e-01
72 81 8.55055040396760058e-01
73 81 8.55555590331255389e-01
74 81 8.56127647399250846e-01
75 81 8.56771211600745097e-01
76 81 8.57486282935738808e-01
77 81 8.58272861404231979e-01
78 81 8.59130947006224388e-01
79 81 8.60060539741716368e-01
80 81 8.61061639610707918e-01
81 81 8.62134246613198707e-01
82 81 8.63278360749188400e-01
83 81 8.64493982018677776e-01
84 81 8.65781110421666833e-01
85 81 8.67139745958155128e-01
86 81 8.68569888628142772e-01
87 81 8.70071538431629432e-01
88 81 8.71644695368615330e-01
89 81 8.73289359439101354e-01
90 81 8.75005530643086726e-01
91 81 8.76793208980570893e-01
92 81 8.78652394451554963e-01
93 81 8.80583087056038383e-01
94 81 8.82585286794020263e-01
95 81 8.84658993665502602e-01
96 81 8.86804207670484401e-01
97 81 8.89020928808964439e-01
98 81 8.91309157080944714e-01
99 81 8.93668892486424338e-01
100 81 8.96100135025403532e-01
101 81 8.98602884697881521e-01
102 81 9.01177141503859302e-01
103 81 9.03822905443335878e-01
104 81 9.06540176516312246e-01
105 81 9.09328954722788296e-01
106 81 9.12189240062763362e-01
107 81 9.15121032536237999e-01
108 81 9.18124332143211541e-01
109 81 9.21199138883684543e-01
110 81 9.24345452757657560e-01
111 81 9.27563273765129370e-01
112 81 9.30852601906101085e-01
113 81 9.34213437180571593e-01
114 81 9.37645779588542228e-01
115 81 9.41149629130011767e-01
116 81 9.44724985804980766e-01
117 81 9.48371849613449003e-01
118 81 9.52090220555416922e-01
119 81 9.55880098630883746e-01
120 81 9.59741483839849918e-01
121 81 9.63674376182315662e-01
122 81 9.67678775658281198e-01
123 81 9.71754682267745529e-01
124 81 9.75902096010709652e-01
125 81 9.80121016887173124e-01
126 81 9.84411444897135723e-01
127 81 9.88773380040597116e-01
128 81 9.93206822317559079e-01
129 81 9.97711771728019836e-01
130 81 1.00000000000000000e+00
1 82 1.00000000000000000e+00
2 82 9.97711771728019836e-01
3 82 9.93206822317558968e-01
4 82 9.88773380040597005e-01
5 82 9.84411444897135279e-01
6 82 9.80121016887172791e-01
7 82 9.75902096010709319e-01
8 82 9.71754682267745307e-01
9 82 9.67678775658280532e-01
10 82 9.63674376182315329e-01
11 82 9.59741483839849807e-01
12 82 9.55880098630883634e-01
13 82 9.52090220555416256e-01
14 82 9.48371849613448781e-01
15 82 9.44724985804980544e-01
16 82 9.41149629130011656e-01
17 82 9.37645779588541894e-01
18 82 9.34213437180571593e-01
19 82 9.30852601906101085e-01
20 82 9.27563273765129481e-01
21 82 9.24345452757657671e-01
22 82 9.21199138883684765e-01
23 82 9.18124332143211652e-01
24 82 9.15121032536238110e-01
25 82 9.12189240062763584e-01
26 82 9.09328954722788296e-01
27 82 9.06540176516312690e-01
28 82 9.03822905443335989e-01
29 82 9.01177141503859525e-01
30 82 8.98602884697881854e-01
31 82 8.96100135025403532e-01
32 82 8.93668892486424338e-01
33 82 8.91309157080944714e-01
34 82 8.89020928808964439e-01
35 82 8.86804207670484401e-01
36 82 8.84658993665502602e-01
37 82 8.82585286794020485e-01
38 82 8.80583087056038383e-01
39 82 8.78652394451554852e-01
40 82 8.76793208980570893e-01
41 82 8.75005530643086726e-01
42 82 8.73289359439101354e-01
43 82 8.71644695368615330e-01
44 82 8.70071538431629432e-01
45 82 8.68569888628142772e-01
46 82 8.67139745958155239e-01
47 82 8.65781110421666833e-01
48 82 8.64493982018677776e-01
49 82 8.63278360749188622e-01
50 82 8.62134246613198707e-01
51 82 8.61061639610707918e-01
52 82 8.60060539741716368e-01
53 82 8.59130947006224388e-01
54 82 8.58272861404231979e-01
55 82 8.57486282935739030e-01
56 82 8.56771211600745208e-01
57 82 8.56127647399250957e-01
58 82 8.55555590331255500e-01
59 82 8.55055040396760169e-01
60 82 8.54625997595763742e-01
61 82 8.54268461928266776e-01
62 82 8.53982433394269602e-01
63 82 8.53767911993771333e-01
64 82 8.53624897726772414e-01
65 82 8.53553390593272954e-01
66 82 8.53553390593272954e-01
67 82 8.53624897726772414e-01
68 82 8.53767911993771111e-01
69 82 8.53982433394269380e-01
70 82 8.54268461928266776e-01
71 82 8.54625997595763742e-01
72 82 8.55055040396760058e-01
73 82 8.55555590331255389e-01
74 82 8.56127647399250846e-01
75 82 8.56771211600745097e-01
76 82 8.57486282935738808e-01
77 82 8.58272861404231979e-01
78 82 8.59130947006224388e-01
79 82 8.60060539741716368e-01
80 82 8.61061639610707918e-01
81 82 8.62134246613198707e-01
82 82 8.63278360749188400e-01
83 82 8.64493982018677776e-01
84 82 8.65781110421666833e-01
85 82 8.67139745958155128e-01
86 82 8.68569888628142661e-01
87 82 8.70071538431629432e-01
88 82 8.71644695368615330e-01
89 82 8.73289359439101354e-01
90 82 8.75005530643086726e-01
91 82 8.76793208980570893e-01
92 82 8.78652394451554963e-01
93 82 8.80583087056038383e-01
94 82 8.82585286794020263e-01
95 82 8.84658993665502602e-01
96 82 8.86804207670484401e-01
97 82 8.89020928808964439e-01
98 82 8.91309157080944714e-01
99 82 8.93668892486424338e-01
100 82 8.96100135025403532e-01
101 82 8.98602884697881521e-01
102 82 9.01177141503859302e-01
103 82 9.03822905443335878e-01
104 82 9.06540176516312246e-01
105 82 9.09328954722788185e-01
106 82 9.12189240062763251e-01
107 82 9.15121032536237999e-01
108 82 9.18124332143211541e-01
109 82 9.21199138883684543e-01
110 82 9.24345452757657560e-01
111 82 9.27563273765129370e-01
112 82 9.30852601906101085e-01
113 82 9.34213437180571593e-01
114 82 9.37645779588542116e-01
115 82 9.41149629130011767e-01
116 82 9.44724985804980766e-01
117 82 9.48371849613449003e-01
118 82 9.52090220555416811e-01
119 82 9.55880098630883746e-01
120 82 9.59741483839849918e-01
121 82 9.63674376182315662e-01
122 82 9.67678775658281198e-01
123 82 9.71754682267745529e-01
124 82 9.75902096010709541e-01
125 82 9.80121016887173124e-01
126 82 9.84411444897135723e-01
127 82 9.88773380040597116e-01
128 82 9.93206822317558968e-01
129 82 9.97711771728019836e-01
130 82 1.00000000000000000e+00
1 83 1.00000000000000000e+00
2 83 9.97711771728019836e-01
3 83 9.93206822317558968e-01
4 83 9.88773380040597116e-01
5 83 9.84411444897135279e-01
6 83 9.80121016887172791e-01
7 83 9.75902096010709319e-01
8 83 9.71754682267745196e-01
9 83 9.67678775658280532e-01
10 83 9.63674376182315329e-01
11 83 9.59741483839849807e-01
12 83 9.55880098630883634e-01
13 83 9.52090220555416256e-01
14 83 9.48371849613448781e-01
15 83 9.44724985804980544e-01
16 83 9.41149629130011656e-01
17 83 9.37645779588541894e-01
18 83 9.34213437180571593e-01
19 83 9.30852601906101085e-01
20 83 9.27563273765129481e-01
21 83 9.24345452757657671e-01
22 83 9.21199138883684765e-01
23 83 9.18124332143211652e-01
24 83 9.15121032536238110e-01
25 83 9.12189240062763584e-01
26 83 9.09328954722788296e-01
27 83 9.06540176516312690e-01
28 83 9.03822905443335989e-01
29 83 9.01177141503859525e-01
30 83 8.98602884697881965e-01
31 83 8.96100135025403532e-01
32 83 8.93668892486424338e-01
33 83 8.91309157080944714e-01
34 83 8.89020928808964439e-01
35 83 8.86804207670484401e-01
36 83 8.84658993665502602e-01
37 83 8.82585286794020485e-01
38 83 8.80583087056038383e-01
39 83 8.78652394451554852e-01
40 83 8.76793208980570893e-01
41 83 8.75005530643086726e-01
42 83 8.73289359439101354e-01
43 83 8.71644695368615441e-01
44 83 8.70071538431629432e-01
45 83 8.68569888628142772e-01
46 83 8.67139745958155350e-01
47 83 8.65781110421666833e-01
48 83 8.64493982018677776e-01
49 83 8.63278360749188622e-01
50 83 8.62134246613198707e-01
51 83 8.61061639610707918e-01
52 83 8.60060539741716368e-01
53 83 8.59130947006224388e-01
54 83 8.58272861404231979e-01
55 83 8.57486282935739030e-01
56 83 8.56771211600745208e-01
57 83 8.56127647399250957e-01
58 83 8.55555590331255500e-01
59 83 8.55055040396760169e-01
60 83 8.54625997595763742e-01
61 83 8.54268461928266776e-01
62 83 8.53982433394269602e-01
63 83 8.53767911993771333e-01
64 83 8.53624897726772414e-01
65 83 8.53553390593272954e-01
66 83 8.53553390593272954e-01
67 83 8.53624897726772414e-01
68 83 8.53767911993771111e-01
69 83 8.53982433394269380e-01
70 83 8.54268461928266776e-01
71 83 8.54625997595763742e-01
72 83 8.55055040396760058e-01
73 83 8.55555590331255389e-01
74 83 8.56127647399250846e-01
75 83 8.56771211600745097e-01
76 83 8.57486282935738808e-01
77 83 8.58272861404231979e-01
78 83 8.59130947006224388e-01
79 83 8.60060539741716368e-01
80 83 8.61061639610707918e-01
81 83 8.62134246613198707e-01
82 83 8.63278360749188400e-01
83 83 8.64493982018677776e-01
84 83 8.65781110421666833e-01
85 83 8.67139745958155239e-01
86 83 8.68569888628142661e-01
87 83 8.70071538431629432e-01
88 83 8.71644695368615441e-01
89 83 8.73289359439101354e-01
90 83 8.75005530643086726e-01
91 83 8.76793208980570893e-01
92 83 8.78652394451554963e-01
93 83 8.80583087056038383e-01
94 83 8.82585286794020263e-01
95 83 8.84658993665502602e-01
96 83 8.86804207670484401e-01
97 83 8.89020928808964439e-01
98 83 8.91309157080944714e-01
99 83 8.93668892486424338e-01
100 83 8.96100135025403532e-01
101 83 8.98602884697881632e-01
102 83 9.01177141503859302e-01
103 83 9.03822905443335878e-01
104 83 9.06540176516312246e-01
105 83 9.09328954722788185e-01
106 83 9.12189240062763251e-01
107 83 9.15121032536237999e-01
108 83 9.18124332143211541e-01
109 83 9.21199138883684543e-01
110 83 9.24345452757657560e-01
111 83 9.27563273765129370e-01
112 83 9.30852601906101085e-01
113 83 9.34213437180571593e-01
114 83 9.37645779588542005e-01
115 83 9.41149629130011767e-01
116 83 9.44724985804980766e-01
117 83 9.48371849613449003e-01
118 83 9.52090220555416811e-01
119 83 9.55880098630883746e-01
120 83 9.59741483839849918e-01
121 83 9.63674376182315662e-01
122 83 9.67678775658281198e-01
123 83 9.71754682267745529e-01
124 83 9.75902096010709541e-01
125 83 9.80121016887173013e-01
126 83 9.84411444897135723e-01
127 83 9.88773380040597227e-01
128 83 9.93206822317558968e-01
129 83 9.97711771728019836e-01
130 83 1.00000000000000000e+00
1 84 1.00000000000000000e+00
2 84 9.97711771728019725e-01
3 84 9.93206822317558857e-01
4 84 9.88773380040597116e-01
5 84 9.84411444897135279e-01
6 84 9.80121016887172680e-01
7 84 9.75902096010709208e-01
8 84 9.71754682267745196e-01
9 84 9.67678775658280532e-01
10 84 9.63674376182315329e-01
11 84 9.59741483839849696e-01
12 84 9.55880098630883523e-01
13 84 9.52090220555416256e-01
14 84 9.48371849613448670e-01
15 84 9.44724985804980433e-01
16 84 9.41149629130011656e-01
17 84 9.37645779588541894e-01
18 84 9.34213437180571482e-01
19 84 9.30852601906101085e-01
20 84 9.27563273765129481e-01
21 84 9.24345452757657671e-01
22 84 9.21199138883684654e-01
23 84 9.18124332143211652e-01
24 84 9.15121032536238110e-01
25 84 9.12189240062763584e-01
26 84 9.09328954722788185e-01
27 84 9.06540176516312690e-01
28 84 9.03822905443335989e-01
29 84 9.01177141503859414e-01
30 84 8.98602884697881854e-01
31 84 8.96100135025403421e-01
32 84 8.93668892486424227e-01
33 84 8.91309157080944603e-01
34 84 8.89020928808964439e-01
35 84 8.86804207670484290e-01
36 84 8.84658993665502602e-01
37 84 8.82585286794020374e-01
38 84 8.80583087056038272e-01
39 84 8.78652394451554741e-01
40 84 8.76793208980570893e-01
41 84 8.75005530643086615e-01
42 84 8.73289359439101354e-01
43 84 8.71644695368615441e-01
44 84 8.70071538431629321e-01
45 84 8.68569888628142772e-01
46 84 8.67139745958155350e-01
47 84 8.65781110421666833e-01
48 84 8.64493982018677665e-01
49 84 8.63278360749188511e-01
50 84 8.62134246613198707e-01
51 84 8.61061639610707918e-01
52 84 8.60060539741716257e-01
53 84 8.59130947006224388e-01
54 84 8.58272861404231868e-01
55 84 8.57486282935738919e-01
56 84 8.56771211600745208e-01
57 84 8.56127647399250846e-01
58 84 8.55555590331255500e-01
59 84 8.55055040396760058e-01
60 84 8.54625997595763742e-01
61 84 8.54268461928266776e-01
62 84 8.53982433394269602e-01
63 84 8.53767911993771222e-01
64 84 8.53624897726772414e-01
65 84 8.53553390593272954e-01
66 84 8.53553390593272954e-01
67 84 8.53624897726772414e-01
68 84 8.53767911993771000e-01
69 84 8.53982433394269380e-01
70 84 8.54268461928266776e-01
71 84 8.54625997595763742e-01
72 84 8.55055040396759947e-01
73 84 8.55555590331255389e-01
74 84 8.56127647399250846e-01
75 84 8.56771211600745097e-01
76 84 8.57486282935738808e-01
77 84 8.58272861404231868e-01
78 84 8.59130947006224388e-01
79 84 8.60060539741716257e-01
80 84 8.61061639610707918e-01
81 84 8.62134246613198707e-01
82 84 8.63278360749188289e-01
83 84 8.64493982018677665e-01
84 84 8.65781110421666722e-01
85 84 8.67139745958155239e-01
86 84 8.68569888628142661e-01
87 84 8.70071538431629321e-01
88 84 8.71644695368615441e-01
89 84 8.73289359439101354e-01
90 84 8.75005530643086615e-01
91 84 8.76793208980570893e-01
92 84 8.78652394451554852e-01
93 84 8.80583087056038272e-01
94 84 8.82585286794020152e-01
95 84 8.84658993665502602e-01
96 84 8.86804207670484290e-01
97 84 8.89020928808964439e-01
98 84 8.91309157080944603e-01
99 84 8.93668892486424227e-01
100 84 8.96100135025403421e-01
101 84 8.98602884697881521e-01
102 84 9.01177141503859191e-01
103 84 9.03822905443335878e-01
104 84 9.06540176516312246e-01
105 84 9.09328954722788074e-01
106 84 9.12189240062763251e-01
107 84 9.15121032536237999e-01
108 84 9.18124332143211430e-01
109 84 9.21199138883684432e-01
110 84 9.24345452757657560e-01
111 84 9.27563273765129370e-01
112 84 9.30852601906101085e-01
113 84 9.34213437180571482e-01
114 84 9.37645779588542005e-01
115 84 9.41149629130011767e-01
116 84 9.44724985804980655e-01
117 84 9.48371849613448892e-01
118 84 9.52090220555416700e-01
119 84 9.55880098630883634e-01
120 84 9.59741483839849807e-01
121 84 9.63674376182315662e-01
122 84 9.67678775658281087e-01
123 84 9.71754682267745529e-01
124 84 9.75902096010709430e-01
125 84 9.80121016887172902e-01
126 84 9.84411444897135723e-01
127 84 9.88773380040597227e-01
128 84 9.93206822317558857e-01
129 84 9.97711771728019725e-01
130 84 1.00000000000000000e+00
1 85 1.00000000000000000e+00
2 85 9.97711771728019725e-01
3 85 9.93206822317558857e-01
4 85 9.88773380040597227e-01
5 85 9.84411444897135279e-01
6 85 9.80121016887172680e-01
7 85 9.75902096010709208e-01
8 85 9.71754682267745196e-01
9 85 9.67678775658280532e-01
10 85 9.63674376182315329e-01
11 85 9.59741483839849696e-01
12 85 9.55880098630883523e-01
13 85 9.52090220555416256e-01
14 85 9.48371849613448670e-01
15 85 9.44724985804980433e-01
16 85 9.41149629130011656e-01
17 85 9.37645779588541894e-01
18 85 9.34213437180571482e-01
19 85 9.30852601906101196e-01
20 85 9.27563273765129481e-01
21 85 9.24345452757657671e-01
22 85 9.21199138883684654e-01
23 85 9.18124332143211652e-01
24 85 9.15121032536238110e-01
25 85 9.12189240062763584e-01
26 85 9.09328954722788185e-01
27 85 9.06540176516312690e-01
28 85 9.03822905443335989e-01
29 85 9.01177141503859414e-01
30 85 8.98602884697881854e-01
31 85 8.96100135025403532e-01
32 85 8.93668892486424227e-01
33 85 8.91309157080944603e-01
34 85 8.89020928808964439e-01
35 85 8.86804207670484290e-01
36 85 8.84658993665502602e-01
37 85 8.82585286794020374e-01
38 85 8.80583087056038272e-01
39 85 8.78652394451554852e-01
40 85 8.76793208980570893e-01
41 85 8.75005530643086615e-01
42 85 8.73289359439101354e-01
43 85 8.71644695368615441e-01
44 85 8.70071538431629321e-01
45 85 8.68569888628142772e-01
46 85 8.67139745958155350e-01
47 85 8.65781110421666833e-01
48 85 8.64493982018677665e-01
49 85 8.63278360749188622e-01
50 85 8.62134246613198707e-01
51 85 8.61061639610707918e-01
52 85 8.60060539741716257e-01
53 85 8.59130947006224388e-01
54 85 8.58272861404231868e-01
55 85 8.57486282935738919e-01
56 85 8.56771211600745208e-01
57 85 8.56127647399250846e-01
58 85 8.55555590331255500e-01
59 85 8.55055040396760169e-01
60 85 8.54625997595763742e-01
61 85 8.54268461928266776e-01
62 85 8.53982433394269602e-01
63 85 8.53767911993771222e-01
64 85 8.53624897726772414e-01
65 85 8.53553390593272954e-01
66 85 8.53553390593272954e-01
67 85 8.53624897726772414e-01
68 85 8.53767911993771000e-01
69 85 8.53982433394269380e-01
70 85 8.54268461928266776e-01
71 85 8.54625997595763742e-01
72 85 8.55055040396759947e-01
73 85 8.55555590331255389e-01
74 85 8.56127647399250846e-01
75 85 8.56771211600745097e-01
76 85 8.57486282935738808e-01
77 85 8.58272861404231868e-01
78 85 8.59130947006224388e-01
79 85 8.60060539741716257e-01
80 85 8.61061639610707918e-01
81 85 8.62134246613198707e-01
82 85 8.63278360749188400e-01
83 85 8.64493982018677665e-01
84 85 8.65781110421666722e-01
85 85 8.67139745958155239e-01
86 85 8.68569888628142661e-01
87 85 8.70071538431629321e-01
88 85 8.71644695368615441e-01
89 85 8.73289359439101354e-01
90 85 8.75005530643086615e-01
91 85 8.76793208980570893e-01
92 85 8.78652394451554963e-01
93 85 8.80583087056038272e-01
94 85 8.82585286794020152e-01
95 85 8.84658993665502602e-01
96 85 8.86804207670484290e-01
97 85 8.89020928808964439e-01
98 85 8.91309157080944603e-01
99 85 8.93668892486424227e-01
100 85 8.96100135025403421e-01
101 85 8.98602884697881521e-01
102 85 9.01177141503859302e-01
103 85 9.03822905443335878e-01
104 85 9.06540176516312246e-01
105 85 9.09328954722788074e-01
106 85 9.12189240062763251e-01
107 85 9.15121032536237999e-01
108 85 9.18124332143211430e-01
109 85 9.21199138883684543e-01
110 85 9.24345452757657560e-01
111 85 9.27563273765129370e-01
112 85 9.30852601906101196e-01
113 85 9.34213437180571482e-01
114 85 9.37645779588542005e-01
115 85 9.41149629130011878e-01
116 85 9.44724985804980655e-01
117 85 9.48371849613448892e-01
118 85 9.52090220555416700e-01
119 85 9.55880098630883634e-01
120 85 9.59741483839849807e-01
121 85 9.63674376182315662e-01
122 85 9.67678775658281087e-01
123 85 9.71754682267745529e-01
124 85 9.75902096010709541e-01
125 85 9.80121016887172902e-01
126 85 9.84411444897135723e-01
127 85 9.88773380040597338e-01
128 85 9.93206822317558857e-01
129 85 9.97711771728019725e-01
130 85 1.00000000000000000e+00
1 86 1.00000000000000000e+00
2 86 9.97711771728019725e-01
3 86 9.93206822317558857e-01
4 86 9.88773380040597338e-01
5 86 9.84411444897135279e-01
6 86 9.80121016887172680e-01
7 86 9.75902096010709208e-01
8 86 9.71754682267745196e-01
9 86 9.67678775658280532e-01
10 86 9.63674376182315329e-01
11 86 9.59741483839849696e-01
12 86 9.55880098630883523e-01
13 86 9.52090220555416256e-01
14 86 9.48371849613448670e-01
15 86 9.44724985804980433e-01
16 86 9.41149629130011656e-01
17 86 9.37645779588541894e-01
18 86 9.34213437180571482e-01
19 86 9.30852601906101196e-01
20 86 9.27563273765129481e-01
21 86 9.24345452757657671e-01
22 86 9.21199138883684654e-01
23 86 9.18124332143211652e-01
24 86 9.15121032536238110e-01
25 86 9.12189240062763584e-01
26 86 9.09328954722788185e-01
27 86 9.06540176516312690e-01
28 86 9.03822905443335989e-01
29 86 9.01177141503859414e-01
30 86 8.98602884697881854e-01
31 86 8.96100135025403532e-01
32 86 8.93668892486424338e-01
33 86 8.91309157080944603e-01
34 86 8.89020928808964439e-01
35 86 8.86804207670484290e-01
36 86 8.84658993665502602e-01
37 86 8.82585286794020374e-01
38 86 8.80583087056038272e-01
39 86 8.78652394451554963e-01
40 86 8.76793208980570893e-01
41 86 8.75005530643086615e-01
42 86 8.73289359439101354e-01
43 86 8.71644695368615441e-01
44 86 8.70071538431629321e-01
45 86 8.68569888628142772e-01
46 86 8.67139745958155350e-01
47 86 8.65781110421666833e-01
48 86 8.64493982018677776e-01
49 86 8.63278360749188622e-01
50 86 8.62134246613198707e-01
51 86 8.61061639610707918e-01
52 86 8.60060539741716257e-01
53 86 8.59130947006224388e-01
54 86 8.58272861404231979e-01
55 86 8.57486282935738919e-01
56 86 8.56771211600745208e-01
57 86 8.56127647399250846e-01
58 86 8.55555590331255500e-01
59 86 8.55055040396760169e-01
60 86 8.54625997595763742e-01
61 86 8.54268461928266776e-01
62 86 8.53982433394269602e-01
63 86 8.53767911993771222e-01
64 86 8.53624897726772414e-01
65 86 8.53553390593272954e-01
66 86 8.53553390593272954e-01
67 86 8.53624897726772414e-01
68 86 8.53767911993771000e-01
69 86 8.53982433394269380e-01
70 86 8.54268461928266776e-01
71 86 8.54625997595763742e-01
72 86 8.55055040396759947e-01
73 86 8.55555590331255389e-01
74 86 8.56127647399250846e-01
75 86 8.56771211600745097e-01
76 86 8.57486282935738808e-01
77 86 8.58272861404231979e-01
78 86 8.59130947006224388e-01
79 86 8.60060539741716257e-01
80 86 8.61061639610707918e-01
81 86 8.62134246613198707e-01
82 86 8.63278360749188400e-01
83 86 8.64493982018677776e-01
84 86 8.65781110421666722e-01
85 86 8.67139745958155239e-01
86 86 8.68569888628142661e-01
87 86 8.70071538431629321e-01
88 86 8.71644695368615441e-01
89 86 8.73289359439101354e-01
90 86 8.75005530643086615e-01
91 86 8.76793208980570893e-01
92 86 8.78652394451555074e-01
93 86 8.80583087056038272e-01
94 86 8.82585286794020152e-01
95 86 8.84658993665502602e-01
96 86 8.86804207670484290e-01
97 86 8.89020928808964439e-01
98 86 8.91309157080944603e-01
99 86 8.93668892486424338e-01
100 86 8.96100135025403421e-01
101 86 8.98602884697881521e-01
102 86 9.01177141503859302e-01
103 86 9.03822905443335989e-01
104 86 9.06540176516312246e-01
105 86 9.09328954722788074e-01
106 86 9.12189240062763251e-01
107 86 9.15121032536237999e-01
108 86 9.18124332143211430e-01
109 86 9.21199138883684543e-01
110 86 9.24345452757657560e-01
111 86 9.27563273765129370e-01
112 86 9.30852601906101196e-01
113 86 9.34213437180571482e-01
114 86 9.37645779588542005e-01
115 86 9.41149629130011878e-01
116 86 9.44724985804980655e-01
117 86 9.48371849613448892e-01
118 86 9.52090220555416700e-01
119 86 9.55880098630883634e-01
120 86 9.59741483839849807e-01
121 86 9.63674376182315662e-01
122 86 9.67678775658281087e-01
123 86 9.71754682267745529e-01
124 86 9.75902096010709541e-01
125 86 9.80121016887172902e-01
126 86 9.84411444897135723e-01
127 86 9.88773380040597449e-01
128 86 9.93206822317558857e-01
129 86 9.97711771728019725e-01
130 86 1.00000000000000000e+00
1 87 1.00000000000000000e+00
2 87 9.97711771728019725e-01
3 87 9.93206822317558968e-01
4 87 9.88773380040597338e-01
5 87 9.84411444897135279e-01
6 87 9.80121016887172680e-01
7 87 9.75902096010709208e-01
8 87 9.71754682267745196e-01
9 87 9.67678775658280643e-01
10 87 9.63674376182315329e-01
11 87 9.59741483839849807e-01
12 87 9.55880098630883523e-01
13 87 9.52090220555416367e-01
14 87 9.48371849613448670e-01
15 87 9.44724985804980433e-01
16 87 9.41149629130011767e-01
17 87 9.37645779588541894e-01
18 87 9.34213437180571593e-01
19 87 9.30852601906101307e-01
20 87 9.27563273765129592e-01
21 87 9.24345452757657671e-01
22 87 9.21199138883684654e-01
23 87 9.18124332143211652e-01
24 87 9.15121032536238110e-01
25 87 9.12189240062763584e-01
26 87 9.09328954722788185e-01
27 87 9.06540176516312690e-01
28 87 9.03822905443335989e-01
29 87 9.01177141503859414e-01
30 87 8.98602884697881854e-01
31 87 8.96100135025403532e-01
32 87 8.93668892486424449e-01
33 87 8.91309157080944603e-01
34 87 8.89020928808964439e-01
35 87 8.86804207670484290e-01
36 87 8.84658993665502602e-01
37 87 8.82585286794020374e-01
38 87 8.80583087056038272e-01
39 87 8.78652394451554963e-01
40 87 8.76793208980571004e-01
41 87 8.75005530643086615e-01
42 87 8.73289359439101354e-01
43 87 8.71644695368615441e-01
44 87 8.70071538431629321e-01
45 87 8.68569888628142772e-01
46 87 8.67139745958155461e-01
47 87 8.65781110421666944e-01
48 87 8.64493982018677887e-01
49 87 8.63278360749188622e-01
50 87 8.62134246613198818e-01
51 87 8.61061639610707918e-01
52 87 8.60060539741716257e-01
53 87 8.59130947006224388e-01
54 87 8.58272861404231979e-01
55 87 8.57486282935739030e-01
56 87 8.56771211600745208e-01
57 87 8.56127647399250846e-01
58 87 8.55555590331255500e-01
59 87 8.55055040396760169e-01
60 87 8.54625997595763742e-01
61 87 8.54268461928266776e-01
62 87 8.53982433394269602e-01
63 87 8.53767911993771222e-01
64 87 8.53624897726772414e-01
65 87 8.53553390593273065e-01
66 87 8.53553390593273065e-01
67 87 8.53624897726772414e-01
68 87 8.53767911993771000e-01
69 87 8.53982433394269380e-01
70 87 8.54268461928266776e-01
71 87 8.54625997595763742e-01
72 87 8.55055040396759947e-01
73 87 8.55555590331255500e-01
74 87 8.56127647399250846e-01
75 87 8.56771211600745097e-01
76 87 8.57486282935738919e-01
77 87 8.58272861404231979e-01
78 87 8.59130947006224388e-01
79 87 8.60060539741716257e-01
80 87 8.61061639610707918e-01
81 87 8.62134246613198818e-01
82 87 8.63278360749188400e-01
83 87 8.64493982018677887e-01
84 87 8.65781110421666722e-01
85 87 8.67139745958155350e-01
86 87 8.68569888628142661e-01
87 87 8.70071538431629321e-01
88 87 8.71644695368615441e-01
89 87 8.73289359439101354e-01
90 87 8.75005530643086615e-01
91 87 8.76793208980571004e-01
92 87 8.78652394451555074e-01
93 87 8.80583087056038272e-01
94 87 8.82585286794020152e-01
95 87 8.84658993665502602e-01
96 87 8.86804207670484290e-01
97 87 8.89020928808964439e-01
98 87 8.91309157080944603e-01
99 87 8.93668892486424449e-01
100 87 8.96100135025403421e-01
101 87 8.98602884697881521e-01
102 87 9.01177141503859302e-01
103 87 9.03822905443335989e-01
104 87 9.06540176516312246e-01
105 87 9.09328954722788185e-01
106 87 9.12189240062763251e-01
107 87 9.15121032536237999e-01
108 87 9.18124332143211430e-01
109 87 9.21199138883684543e-01
110 87 9.24345452757657560e-01
111 87 9.27563273765129481e-01
112 87 9.30852601906101307e-01
113 87 9.34213437180571593e-01
114 87 9.37645779588542005e-01
115 87 9.41149629130011989e-01
116 87 9.44724985804980655e-01
117 87 9.48371849613448892e-01
118 87 9.52090220555416811e-01
119 87 9.55880098630883634e-01
120 87 9.59741483839849918e-01
121 87 9.63674376182315662e-01
122 87 9.67678775658281198e-01
123 87 9.71754682267745529e-01
124 87 9.75902096010709541e-01
125 87 9.80121016887172902e-01
126 87 9.84411444897135723e-01
127 87 9.88773380040597449e-01
128 87 9.93206822317558857e-01
129 87 9.97711771728019725e-01
130 87 1.00000000000000000e+00
1 88 1.00000000000000000e+00
2 88 9.97711771728019725e-01
3 88 9.93206822317558968e-01
4 88 9.88773380040597227e-01
5 88 9.84411444897135279e-01
6 88 9.80121016887172680e-01
7 88 9.75902096010709208e-01
8 88 9.71754682267745196e-01
9 88 9.67678775658280643e-01
10 88 9.63674376182315329e-01
11 88 9.59741483839849696e-01
12 88 9.55880098630883523e-01
13 88 9.52090220555416367e-01
14 88 9.48371849613448559e-01
15 88 9.44724985804980433e-01
16 88 9.41149629130011767e-01
17 88 9.37645779588541783e-01
18 88 9.34213437180571482e-01
19 88 9.30852601906101196e-01
20 88 9.27563273765129481e-01
21 88 9.24345452757657560e-01
22 88 9.21199138883684654e-01
23 88 9.18124332143211652e-01
24 88 9.15121032536237999e-01
25 88 9.12189240062763584e-01
26 88 9.09328954722788074e-01
27 88 9.06540176516312690e-01
28 88 9.03822905443335989e-01
29 88 9.01177141503859302e-01
30 88 8.98602884697881743e-01
31 88 8.96100135025403421e-01
32 88 8.93668892486424338e-01
33 88 8.91309157080944492e-01
34 88 8.89020928808964439e-01
35 88 8.86804207670484290e-01
36 88 8.84658993665502491e-01
37 88 8.82585286794020374e-01
38 88 8.80583087056038161e-01
39 88 8.78652394451554963e-01
40 88 8.76793208980571004e-01
41 88 8.75005530643086615e-01
42 88 8.73289359439101354e-01
43 88 8.71644695368615441e-01
44 88 8.70071538431629321e-01
45 88 8.68569888628142772e-01
46 88 8.67139745958155350e-01
47 88 8.65781110421666944e-01
48 88 8.64493982018677887e-01
49 88 8.63278360749188622e-01
50 88 8.62134246613198707e-01
51 88 8.61061639610707918e-01
52 88 8.60060539741716257e-01
53 88 8.59130947006224277e-01
54 88 8.58272861404231868e-01
55 88 8.57486282935739030e-01
56 88 8.56771211600745208e-01
57 88 8.56127647399250846e-01
58 88 8.55555590331255500e-01
59 88 8.55055040396760169e-01
60 88 8.54625997595763742e-01
61 88 8.54268461928266776e-01
62 88 8.53982433394269491e-01
63 88 8.53767911993771222e-01
64 88 8.53624897726772414e-01
65 88 8.53553390593273065e-01
66 88 8.53553390593273065e-01
67 88 8.53624897726772414e-01
68 88 8.53767911993771000e-01
69 88 8.53982433394269380e-01
70 88 8.54268461928266776e-01
71 88 8.54625997595763742e-01
72 88 8.55055040396759947e-01
73 88 8.55555590331255389e-01
74 88 8.56127647399250846e-01
75 88 8.56771211600745097e-01
76 88 8.57486282935738808e-01
77 88 8.58272861404231868e-01
78 88 8.59130947006224277e-01
79 88 8.60060539741716257e-01
80 88 8.61061639610707918e-01
81 88 8.62134246613198707e-01
82 88 8.63278360749188289e-01
83 88 8.64493982018677887e-01
84 88 8.65781110421666722e-01
85 88 8.67139745958155350e-01
86 88 8.68569888628142661e-01
87 88 8.70071538431629321e-01
88 88 8.71644695368615441e-01
89 88 8.73289359439101354e-01
90 88 8.75005530643086615e-01
91 88 8.76793208980571004e-01
92 88 8.78652394451555074e-01
93 88 8.80583087056038161e-01
94 88 8.82585286794020152e-01
95 88 8.84658993665502491e-01
96 88 8.86804207670484290e-01
97 88 8.89020928808964439e-01
98 88 8.91309157080944492e-01
99 88 8.93668892486424338e-01
100 88 8.96100135025403310e-01
101 88 8.98602884697881410e-01
102 88 9.01177141503859191e-01
103 88 9.03822905443335989e-01
104 88 9.06540176516312246e-01
105 88 9.09328954722788074e-01
106 88 9.12189240062763251e-01
107 88 9.15121032536237888e-01
108 88 9.18124332143211430e-01
109 88 9.21199138883684543e-01
110 88 9.24345452757657449e-01
111 88 9.27563273765129370e-01
112 88 9.30852601906101196e-01
113 88 9.34213437180571482e-01
114 88 9.37645779588542005e-01
115 88 9.41149629130011989e-01
116 88 9.44724985804980655e-01
117 88 9.48371849613448892e-01
118 88 9.52090220555416811e-01
119 88 9.55880098630883634e-01
120 88 9.59741483839849807e-01
121 88 9.63674376182315662e-01
122 88 9.67678775658281198e-01
123 88 9.71754682267745529e-01
124 88 9.75902096010709541e-01
125 88 9.80121016887172902e-01
126 88 9.84411444897135612e-01
127 88 9.88773380040597338e-01
128 88 9.93206822317558857e-01
129 88 9.97711771728019725e-01
130 88 1.00000000000000000e+00
1 89 1.00000000000000000e+00
2 89 9.97711771728019725e-01
3 89 9.93206822317558857e-01
4 89 9.88773380040597227e-01
5 89 9.84411444897135279e-01
6 89 9.80121016887172569e-01
7 89 9.75902096010709208e-01
8 89 9.71754682267745196e-01
9 89 9.67678775658280643e-01
10 89 9.63674376182315329e-01
11 89 9.59741483839849696e-01
12 89 9.55880098630883412e-01
13 89 9.52090220555416367e-01
14 89 9.48371849613448559e-01
15 89 9.44724985804980322e-01
16 89 9.41149629130011767e-01
17 89 9.37645779588541783e-01
18 89 9.34213437180571371e-01
19 89 9.30852601906101196e-01
20 89 9.27563273765129481e-01
21 89 9.24345452757657560e-01
22 89 9.21199138883684543e-01
23 89 9.18124332143211652e-01
24 89 9.15121032536237999e-01
25 89 9.12189240062763584e-01
26 89 9.09328954722787963e-01
27 89 9.06540176516312690e-01
28 89 9.03822905443335989e-01
29 89 9.01177141503859302e-01
30 89 8.98602884697881632e-01
31 89 8.96100135025403310e-01
32 89 8.93668892486424338e-01
33 89 8.91309157080944492e-01
34 89 8.89020928808964439e-01
35 89 8.86804207670484179e-01
36 89 8.84658993665502380e-01
37 89 8.82585286794020374e-01
38 89 8.80583087056038161e-01
39 89 8.78652394451554963e-01
40 89 8.76793208980571004e-01
41 89 8.75005530643086504e-01
42 89 8.73289359439101354e-01
43 89 8.71644695368615441e-01
44 89 8.70071538431629321e-01
45 89 8.68569888628142772e-01
46 89 8.67139745958155350e-01
47 89 8.65781110421666944e-01
48 89 8.64493982018677887e-01
49 89 8.63278360749188511e-01
50 89 8.62134246613198596e-01
51 89 8.61061639610707807e-01
52 89 8.60060539741716257e-01
53 89 8.59130947006224277e-01
54 89 8.58272861404231868e-01
55 89 8.57486282935739030e-01
56 89 8.56771211600745208e-01
57 89 8.56127647399250846e-01
58 89 8.55555590331255500e-01
59 89 8.55055040396760169e-01
60 89 8.54625997595763742e-01
61 89 8.54268461928266776e-01
62 89 8.53982433394269491e-01
63 89 8.53767911993771222e-01
64 89 8.53624897726772414e-01
65 89 8.53553390593273065e-01
66 89 8.53553390593273065e-01
67 89 8.53624897726772414e-01
68 89 8.53767911993771000e-01
69 89 8.53982433394269380e-01
70 89 8.54268461928266776e-01
71 89 8.54625997595763742e-01
72 89 8.55055040396759947e-01
73 89 8.55555590331255389e-01
74 89 8.56127647399250846e-01
75 89 8.56771211600745097e-01
76 89 8.57486282935738808e-01
77 89 8.58272861404231868e-01
78 89 8.59130947006224277e-01
79 89 8.60060539741716257e-01
80 89 8.61061639610707807e-01
81 89 8.62134246613198596e-01
82 89 8.63278360749188178e-01
83 89 8.64493982018677887e-01
84 89 8.65781110421666722e-01
85 89 8.67139745958155350e-01
86 89 8.68569888628142661e-01
87 89 8.70071538431629321e-01
88 89 8.71644695368615441e-01
89 89 8.73289359439101354e-01
90 89 8.75005530643086504e-01
91 89 8.76793208980571004e-01
92 89 8.78652394451555074e-01
93 89 8.80583087056038161e-01
94 89 8.82585286794020152e-01
95 89 8.84658993665502380e-01
96 89 8.86804207670484179e-01
97 89 8.89020928808964439e-01
98 89 8.91309157080944492e-01
99 89 8.93668892486424338e-01
100 89 8.96100135025403199e-01
101 89 8.98602884697881299e-01
102 89 9.01177141503859191e-01
103 89 9.03822905443335989e-01
104 89 9.06540176516312246e-01
105 89 9.09328954722787963e-01
106 89 9.12189240062763251e-01
107 89 9.15121032536237888e-01
108 89 9.18124332143211430e-01
109 89 9.21199138883684432e-01
110 89 9.24345452757657449e-01
111 89 9.27563273765129370e-01
112 89 9.30852601906101196e-01
113 89 9.34213437180571371e-01
114 89 9.37645779588542005e-01
115 89 9.41149629130011989e-01
116 89 9.44724985804980544e-01
117 89 9.48371849613448892e-01
118 89 9.52090220555416811e-01
119 89 9.55880098630883523e-01
120 89 9.59741483839849807e-01
121 89 9.63674376182315662e-01
122 89 9.67678775658281087e-01
123 89 9.71754682267745529e-01
124 89 9.75902096010709541e-01
125 89 9.80121016887172791e-01
126 89 9.84411444897135612e-01
127 89 9.88773380040597338e-01
128 89 9.93206822317558746e-01
129 89 9.97711771728019725e-01
130 89 1.00000000000000000e+00
1 90 1.00000000000000000e+00
2 90 9.97711771728019725e-01
3 90 9.93206822317558968e-01
4 90 9.88773380040597338e-01
5 90 9.84411444897135279e-01
6 90 9.80121016887172569e-01
7 90 9.75902096010709319e-01
8 90 9.71754682267745307e-01
9 90 9.67678775658280643e-01
10 90 9.63674376182315440e-01
11 90 9.59741483839849696e-01
12 90 9.55880098630883412e-01
13 90 9.52090220555416367e-01
14 90 9.48371849613448559e-01
15 90 9.44724985804980322e-01
16 90 9.41149629130011767e-01
17 90 9.37645779588541783e-01
18 90 9.34213437180571482e-01
19 90 9.30852601906101307e-01
20 90 9.27563273765129481e-01
21 90 9.24345452757657560e-01
22 90 9.21199138883684654e-01
23 90 9.18124332143211763e-01
24 90 9.15121032536237999e-01
25 90 9.12189240062763584e-01
26 90 9.09328954722787963e-01
27 90 9.06540176516312690e-01
28 90 9.03822905443335989e-01
29 90 9.01177141503859302e-01
30 90 8.98602884697881632e-01
31 90 8.96100135025403310e-01
32 90 8.93668892486424338e-01
33 90 8.91309157080944603e-01
34 90 8.89020928808964550e-01
35 90 8.86804207670484179e-01
36 90 8.84658993665502380e-01
37 90 8.82585286794020485e-01
38 90 8.80583087056038272e-01
39 90 8.78652394451554963e-01
40 90 8.76793208980571004e-01
41 90 8.75005530643086504e-01
42 90 8.73289359439101354e-01
43 90 8.71644695368615441e-01
44 90 8.70071538431629321e-01
45 90 8.68569888628142772e-01
46 90 8.67139745958155350e-01
47 90 8.65781110421666944e-01
48 90 8.64493982018677998e-01
49 90 8.63278360749188622e-01
50 90 8.62134246613198596e-01
51 90 8.61061639610707807e-01
52 90 8.60060539741716368e-01
53 90 8.59130947006224388e-01
54 90 8.58272861404231868e-01
55 90 8.57486282935739030e-01
56 90 8.56771211600745208e-01
57 90 8.56127647399250846e-01
58 90 8.55555590331255500e-01
59 90 8.55055040396760169e-01
60 90 8.54625997595763742e-01
61 90 8.54268461928266776e-01
62 90 8.53982433394269491e-01
63 90 8.53767911993771333e-01
64 90 8.53624897726772525e-01
65 90 8.53553390593273065e-01
66 90 8.53553390593273065e-01
67 90 8.53624897726772525e-01
68 90 8.53767911993771111e-01
69 90 8.53982433394269380e-01
70 90 8.54268461928266776e-01
71 90 8.54625997595763742e-01
72 90 8.55055040396759947e-01
73 90 8.55555590331255389e-01
74 90 8.56127647399250846e-01
75 90 8.56771211600745097e-01
76 90 8.57486282935738919e-01
77 90 8.58272861404231868e-01
78 90 8.59130947006224388e-01
79 90 8.60060539741716368e-01
80 90 8.61061639610707807e-01
81 90 8.62134246613198596e-01
82 90 8.63278360749188289e-01
83 90 8.64493982018677998e-01
84 90 8.65781110421666722e-01
85 90 8.67139745958155350e-01
86 90 8.68569888628142661e-01
87 90 8.70071538431629321e-01
88 90 8.71644695368615441e-01
89 90 8.73289359439101354e-01
90 90 8.75005530643086504e-01
91 90 8.76793208980571004e-01
92 90 8.78652394451555074e-01
93 90 8.80583087056038272e-01
94 90 8.82585286794020263e-01
95 90 8.84658993665502380e-01
96 90 8.86804207670484179e-01
97 90 8.89020928808964550e-01
98 90 8.91309157080944603e-01
99 90 8.93668892486424338e-01
100 90 8.96100135025403199e-01
101 90 8.98602884697881299e-01
102 90 9.01177141503859191e-01
103 90 9.03822905443335989e-01
104 90 9.06540176516312246e-01
105 90 9.09328954722787963e-01
106 90 9.12189240062763251e-01
107 90 9.15121032536237888e-01
108 90 9.18124332143211541e-01
109 90 9.21199138883684543e-01
110 90 9.24345452757657449e-01
111 90 9.27563273765129370e-01
112 90 9.30852601906101307e-01
113 90 9.34213437180571482e-01
114 90 9.37645779588542005e-01
115 90 9.41149629130011989e-01
116 90 9.44724985804980544e-01
117 90 9.48371849613448892e-01
118 90 9.52090220555416811e-01
119 90 9.55880098630883523e-01
120 90 9.59741483839849807e-01
121 90 9.63674376182315773e-01
122 90 9.67678775658281087e-01
123 90 9.71754682267745640e-01
124 90 9.75902096010709652e-01
125 90 9.80121016887172791e-01
126 90 9.84411444897135612e-01
127 90 9.88773380040597449e-01
128 90 9.93206822317558857e-01
129 90 9.97711771728019725e-01
130 90 1.00000000000000000e+00
1 91 1.00000000000000000e+00
2 91 9.97711771728019836e-01
3 91 9.93206822317559079e-01
4 91 9.88773380040597449e-01
5 91 9.84411444897135390e-01
6 91 9.80121016887172680e-01
7 91 9.75902096010709319e-01
8 91 9.71754682267745307e-01
9 91 9.67678775658280643e-01
10 91 9.63674376182315440e-01
11 91 9.59741483839849696e-01
12 91 9.55880098630883412e-01
13 91 9.52090220555416367e-01
14 91 9.48371849613448559e-01
15 91 9.44724985804980433e-01
16 91 9.41149629130011767e-01
17 91 9.37645779588541783e-01
18 91 9.34213437180571482e-01
19 91 9.30852601906101307e-01
20 91 9.27563273765129481e-01
21 91 9.24345452757657560e-01
22 91 9.21199138883684654e-01
23 91 9.18124332143211763e-01
24 91 9.15121032536237999e-01
25 91 9.12189240062763584e-01
26 91 9.09328954722787963e-01
27 91 9.06540176516312690e-01
28 91 9.03822905443335989e-01
29 91 9.01177141503859414e-01
30 91 8.98602884697881632e-01
31 91 8.96100135025403310e-01
32 91 8.93668892486424338e-01
33 91 8.91309157080944603e-01
34 91 8.89020928808964550e-01
35 91 8.86804207670484179e-01
36 91 8.84658993665502380e-01
37 91 8.82585286794020485e-01
38 91 8.80583087056038272e-01
39 91 8.78652394451554963e-01
40 91 8.76793208980571004e-01
41 91 8.75005530643086504e-01
42 91 8.73289359439101354e-01
43 91 8.71644695368615441e-01
44 91 8.70071538431629432e-01
45 91 8.68569888628142772e-01
46 91 8.67139745958155350e-01
47 91 8.65781110421667055e-01
48 91 8.64493982018677998e-01
49 91 8.63278360749188622e-01
50 91 8.62134246613198596e-01
51 91 8.61061639610707807e-01
52 91 8.60060539741716368e-01
53 91 8.59130947006224388e-01
54 91 8.58272861404231868e-01
55 91 8.57486282935739141e-01
56 91 8.56771211600745208e-01
57 91 8.56127647399250846e-01
58 91 8.55555590331255500e-01
59 91 8.55055040396760169e-01
60 91 8.54625997595763742e-01
61 91 8.54268461928266776e-01
62 91 8.53982433394269491e-01
63 91 8.53767911993771333e-01
64 91 8.53624897726772525e-01
65 91 8.53553390593273065e-01
66 91 8.53553390593273065e-01
67 91 8.53624897726772525e-01
68 91 8.53767911993771111e-01
69 91 8.53982433394269380e-01
70 91 8.54268461928266776e-01
71 91 8.54625997595763742e-01
72 91 8.55055040396759947e-01
73 91 8.55555590331255389e-01
74 91 8.56127647399250846e-01
75 91 8.56771211600745097e-01
76 91 8.57486282935738919e-01
77 91 8.58272861404231868e-01
78 91 8.59130947006224388e-01
79 91 8.60060539741716368e-01
80 91 8.61061639610707807e-01
81 91 8.62134246613198596e-01
82 91 8.63278360749188289e-01
83 91 8.64493982018677998e-01
84 91 8.65781110421666833e-01
85 91 8.67139745958155350e-01
86 91 8.68569888628142661e-01
87 91 8.70071538431629432e-01
88 91 8.71644695368615441e-01
89 91 8.73289359439101354e-01
90 91 8.75005530643086504e-01
91 91 8.76793208980571004e-01
92 91 8.78652394451555074e-01
93 91 8.80583087056038272e-01
94 91 8.82585286794020263e-01
95 91 8.84658993665502380e-01
96 91 8.86804207670484179e-01
97 91 8.89020928808964550e-01
98 91 8.91309157080944603e-01
99 91 8.93668892486424338e-01
100 91 8.96100135025403199e-01
101 91 8.98602884697881299e-01
102 91 9.01177141503859302e-01
103 91 9.03822905443335989e-01
104 91 9.06540176516312246e-01
105 91 9.09328954722787963e-01
106 91 9.12189240062763251e-01
107 91 9.15121032536237888e-01
108 91 9.18124332143211652e-01
109 91 9.21199138883684543e-01
110 91 9.24345452757657449e-01
111 91 9.27563273765129370e-01
112 91 9.30852601906101307e-01
113 91 9.34213437180571482e-01
114 91 9.37645779588542005e-01
115 91 9.41149629130011989e-01
116 91 9.44724985804980655e-01
117 91 9.48371849613448892e-01
118 91 9.52090220555416811e-01
119 91 9.55880098630883523e-01
120 91 9.59741483839849807e-01
121 91 9.63674376182315773e-01
122 91 9.67678775658281087e-01
123 91 9.71754682267745640e-01
124 91 9.75902096010709763e-01
125 91 9.80121016887172791e-01
126 91 9.84411444897135723e-01
127 91 9.88773380040597560e-01
128 91 9.93206822317558968e-01
129 91 9.97711771728019836e-01
130 91 1.00000000000000000e+00
1 92 1.00000000000000000e+00
2 92 9.97711771728019836e-01
3 92 9.93206822317559079e-01
4 92 9.88773380040597449e-01
5 92 9.84411444897135390e-01
6 92 9.80121016887172680e-01
7 92 9.75902096010709319e-01
8 92 9.71754682267745307e-01
9 92 9.67678775658280643e-01
10 92 9.63674376182315440e-01
11 92 9.59741483839849696e-01
12 92 9.55880098630883412e-01
13 92 9.52090220555416367e-01
14 92 9.48371849613448559e-01
15 92 9.44724985804980433e-01
16 92 9.41149629130011767e-01
17 92 9.37645779588541783e-01
18 92 9.34213437180571593e-01
19 92 9.30852601906101307e-01
20 92 9.27563273765129481e-01
21 92 9.24345452757657560e-01
22 92 9.21199138883684654e-01
23 92 9.18124332143211763e-01
24 92 9.15121032536237999e-01
25 92 9.12189240062763584e-01
26 92 9.09328954722788074e-01
27 92 9.06540176516312690e-01
28 92 9.03822905443335989e-01
29 92 9.01177141503859414e-01
30 92 8.98602884697881632e-01
31 92 8.96100135025403421e-01
32 92 8.93668892486424338e-01
33 92 8.91309157080944603e-01
34 92 8.89020928808964550e-01
35 92 8.86804207670484179e-01
36 92 8.84658993665502491e-01
37 92 8.82585286794020485e-01
38 92 8.80583087056038272e-01
39 92 8.78652394451554963e-01
40 92 8.76793208980571004e-01
41 92 8.75005530643086504e-01
42 92 8.73289359439101465e-01
43 92 8.71644695368615441e-01
44 92 8.70071538431629432e-01
45 92 8.68569888628142772e-01
46 92 8.67139745958155350e-01
47 92 8.65781110421667055e-01
48 92 8.64493982018677998e-01
49 92 8.63278360749188622e-01
50 92 8.62134246613198596e-01
51 92 8.61061639610707918e-01
52 92 8.60060539741716479e-01
53 92 8.59130947006224388e-01
54 92 8.58272861404231868e-01
55 92 8.57486282935739141e-01
56 92 8.56771211600745208e-01
57 92 8.56127647399250846e-01
58 92 8.55555590331255500e-01
59 92 8.55055040396760169e-01
60 92 8.54625997595763742e-01
61 92 8.54268461928266776e-01
62 92 8.53982433394269491e-01
63 92 8.53767911993771333e-01
64 92 8.53624897726772525e-01
65 92 8.53553390593273065e-01
66 92 8.53553390593273065e-01
67 92 8.53624897726772525e-01
68 92 8.53767911993771111e-01
69 92 8.53982433394269380e-01
70 92 8.54268461928266776e-01
71 92 8.54625997595763742e-01
72 92 8.55055040396759947e-01
73 92 8.55555590331255389e-01
74 92 8.56127647399250846e-01
75 92 8.56771211600745097e-01
76 92 8.57486282935738919e-01
77 92 8.58272861404231868e-01
78 92 8.59130947006224388e-01
79 92 8.60060539741716479e-01
80 92 8.61061639610707807e-01
81 92 8.62134246613198596e-01
82 92 8.63278360749188289e-01
83 92 8.64493982018677998e-01
84 92 8.65781110421666833e-01
85 92 8.67139745958155350e-01
86 92 8.68569888628142661e-01
87 92 8.70071538431629432e-01
88 92 8.71644695368615441e-01
89 92 8.73289359439101465e-01
90 92 8.75005530643086504e-01
91 92 8.76793208980571004e-01
92 92 8.78652394451555074e-01
93 92 8.80583087056038272e-01
94 92 8.82585286794020263e-01
95 92 8.84658993665502491e-01
96 92 8.86804207670484179e-01
97 92 8.89020928808964550e-01
98 92 8.91309157080944603e-01
99 92 8.93668892486424338e-01
100 92 8.96100135025403310e-01
101 92 8.98602884697881299e-01
102 92 9.01177141503859302e-01
103 92 9.03822905443335989e-01
104 92 9.06540176516312246e-01
105 92 9.09328954722788074e-01
106 92 9.12189240062763251e-01
107 92 9.15121032536237888e-01
108 92 9.18124332143211652e-01
109 92 9.21199138883684543e-01
110 92 9.24345452757657449e-01
111 92 9.27563273765129370e-01
112 92 9.30852601906101307e-01
113 92 9.34213437180571593e-01
114 92 9.37645779588542005e-01
115 92 9.41149629130011989e-01
116 92 9.44724985804980766e-01
117 92 9.48371849613448892e-01
118 92 9.52090220555416811e-01
119 92 9.55880098630883523e-01
120 92 9.59741483839849807e-01
121 92 9.63674376182315773e-01
122 92 9.67678775658281087e-01
123 92 9.71754682267745640e-01
124 92 9.75902096010709763e-01
125 92 9.80121016887172791e-01
126 92 9.84411444897135723e-01
127 92 9.88773380040597560e-01
128 92 9.93206822317558968e-01
129 92 9.97711771728019836e-01
130 92 1.00000000000000000e+00
1 93 1.00000000000000000e+00
2 93 9.97711771728019725e-01
3 93 9.93206822317559079e-01
4 93 9.88773380040597449e-01
5 93 9.84411444897135390e-01
6 93 9.80121016887172680e-01
7 93 9.75902096010709319e-01
8 93 9.71754682267745196e-01
9 93 9.67678775658280643e-01
10 93 9.63674376182315329e-01
11 93 9.59741483839849696e-01
12 93 9.55880098630883412e-01
13 93 9.52090220555416367e-01
14 93 9.48371849613448448e-01
15 93 9.44724985804980433e-01
16 93 9.41149629130011656e-01
17 93 9.37645779588541783e-01
18 93 9.34213437180571593e-01
19 93 9.30852601906101307e-01
20 93 9.27563273765129370e-01
21 93 9.24345452757657560e-01
22 93 9.21199138883684654e-01
23 93 9.18124332143211763e-01
24 93 9.15121032536237999e-01
25 93 9.12189240062763584e-01
26 93 9.09328954722788074e-01
27 93 9.06540176516312690e-01
28 93 9.03822905443335989e-01
29 93 9.01177141503859302e-01
30 93 8.98602884697881521e-01
31 93 8.96100135025403310e-01
32 93 8.93668892486424338e-01
33 93 8.91309157080944603e-01
34 93 8.89020928808964550e-01
35 93 8.86804207670484179e-01
36 93 8.84658993665502491e-01
37 93 8.82585286794020485e-01
38 93 8.80583087056038272e-01
39 93 8.78652394451554852e-01
40 93 8.76793208980571004e-01
41 93 8.75005530643086504e-01
42 93 8.73289359439101465e-01
43 93 8.71644695368615441e-01
44 93 8.70071538431629432e-01
45 93 8.68569888628142772e-01
46 93 8.67139745958155239e-01
47 93 8.65781110421667055e-01
48 93 8.64493982018677998e-01
49 93 8.63278360749188511e-01
50 93 8.62134246613198596e-01
51 93 8.61061639610707918e-01
52 93 8.60060539741716479e-01
53 93 8.59130947006224388e-01
54 93 8.58272861404231868e-01
55 93 8.57486282935739141e-01
56 93 8.56771211600745208e-01
57 93 8.56127647399250735e-01
58 93 8.55555590331255500e-01
59 93 8.55055040396760169e-01
60 93 8.54625997595763742e-01
61 93 8.54268461928266776e-01
62 93 8.53982433394269380e-01
63 93 8.53767911993771333e-01
64 93 8.53624897726772525e-01
65 93 8.53553390593272954e-01
66 93 8.53553390593272954e-01
67 93 8.53624897726772525e-01
68 93 8.53767911993771111e-01
69 93 8.53982433394269269e-01
70 93 8.54268461928266776e-01
71 93 8.54625997595763742e-01
72 93 8.55055040396759947e-01
73 93 8.55555590331255389e-01
74 93 8.56127647399250735e-01
75 93 8.56771211600745097e-01
76 93 8.57486282935738919e-01
77 93 8.58272861404231868e-01
78 93 8.59130947006224388e-01
79 93 8.60060539741716479e-01
80 93 8.61061639610707807e-01
81 93 8.62134246613198596e-01
82 93 8.63278360749188178e-01
83 93 8.64493982018677998e-01
84 93 8.65781110421666833e-01
85 93 8.67139745958155239e-01
86 93 8.68569888628142661e-01
87 93 8.70071538431629321e-01
88 93 8.71644695368615441e-01
89 93 8.73289359439101465e-01
90 93 8.75005530643086504e-01
91 93 8.76793208980571004e-01
92 93 8.78652394451554963e-01
93 93 8.80583087056038272e-01
94 93 8.82585286794020263e-01
95 93 8.84658993665502491e-01
96 93 8.86804207670484179e-01
97 93 8.89020928808964550e-01
98 93 8.91309157080944603e-01
99 93 8.93668892486424338e-01
100 93 8.96100135025403199e-01
101 93 8.98602884697881188e-01
102 93 9.01177141503859191e-01
103 93 9.03822905443335989e-01
104 93 9.06540176516312246e-01
105 93 9.09328954722788074e-01
106 93 9.12189240062763140e-01
107 93 9.15121032536237888e-01
108 93 9.18124332143211652e-01
109 93 9.21199138883684543e-01
110 93 9.24345452757657449e-01
111 93 9.27563273765129259e-01
112 93 9.30852601906101307e-01
113 93 9.34213437180571593e-01
114 93 9.37645779588542005e-01
115 93 9.41149629130011878e-01
116 93 9.44724985804980766e-01
117 93 9.48371849613448781e-01
118 93 9.52090220555416811e-01
119 93 9.55880098630883523e-01
120 93 9.59741483839849807e-01
121 93 9.63674376182315662e-01
122 93 9.67678775658281087e-01
123 93 9.71754682267745529e-01
124 93 9.75902096010709763e-01
125 93 9.80121016887172791e-01
126 93 9.84411444897135723e-01
127 93 9.88773380040597449e-01
128 93 9.93206822317558968e-01
129 93 9.97711771728019725e-01
130 93 1.00000000000000000e+00
1 94 1.00000000000000000e+00
2 94 9.97711771728019725e-01
3 94 9.93206822317559079e-01
4 94 9.88773380040597449e-01
5 94 9.84411444897135279e-01
6 94 9.80121016887172569e-01
7 94 9.75902096010709319e-01
8 94 9.71754682267745196e-01
9 94 9.67678775658280643e-01
10 94 9.63674376182315218e-01
11 94 9.59741483839849696e-01
12 94 9.55880098630883412e-01
13 94 9.52090220555416367e-01
14 94 9.48371849613448448e-01
15 94 9.44724985804980433e-01
16 94 9.41149629130011656e-01
17 94 9.37645779588541783e-01
18 94 9.34213437180571593e-01
19 94 9.30852601906101307e-01
20 94 9.27563273765129370e-01
21 94 9.24345452757657560e-01
22 94 9.21199138883684654e-01
23 94 9.18124332143211763e-01
24 94 9.15121032536237999e-01
25 94 9.12189240062763584e-01
26 94 9.09328954722788074e-01
27 94 9.06540176516312690e-01
28 94 9.03822905443335989e-01
29 94 9.01177141503859191e-01
30 94 8.98602884697881521e-01
31 94 8.96100135025403310e-01
32 94 8.93668892486424227e-01
33 94 8.91309157080944603e-01
34 94 8.89020928808964550e-01
35 94 8.86804207670484179e-01
36 94 8.84658993665502380e-01
37 94 8.82585286794020485e-01
38 94 8.80583087056038161e-01
39 94 8.78652394451554852e-01
40 94 8.76793208980571004e-01
41 94 8.75005530643086504e-01
42 94 8.73289359439101465e-01
43 94 8.71644695368615441e-01
44 94 8.70071538431629321e-01
45 94 8.68569888628142661e-01
46 94 8.67139745958155128e-01
47 94 8.65781110421667055e-01
48 94 8.64493982018677998e-01
49 94 8.63278360749188511e-01
50 94 8.62134246613198596e-01
51 94 8.61061639610707807e-01
52 94 8.60060539741716479e-01
53 94 8.59130947006224388e-01
54 94 8.58272861404231868e-01
55 94 8.57486282935739141e-01
56 94 8.56771211600745097e-01
57 94 8.56127647399250735e-01
58 94 8.55555590331255500e-01
59 94 8.55055040396760058e-01
60 94 8.54625997595763742e-01
61 94 8.54268461928266776e-01
62 94 8.53982433394269380e-01
63 94 8.53767911993771222e-01
64 94 8.53624897726772414e-01
65 94 8.53553390593272843e-01
66 94 8.53553390593272843e-01
67 94 8.53624897726772414e-01
68 94 8.53767911993771111e-01
69 94 8.53982433394269269e-01
70 94 8.54268461928266776e-01
71 94 8.54625997595763742e-01
72 94 8.55055040396759836e-01
73 94 8.55555590331255389e-01
74 94 8.56127647399250735e-01
75 94 8.56771211600744986e-01
76 94 8.57486282935738919e-01
77 94 8.58272861404231868e-01
78 94 8.59130947006224388e-01
79 94 8.60060539741716479e-01
80 94 8.61061639610707696e-01
81 94 8.62134246613198596e-01
82 94 8.63278360749188178e-01
83 94 8.64493982018677998e-01
84 94 8.65781110421666833e-01
85 94 8.67139745958155128e-01
86 94 8.68569888628142550e-01
87 94 8.70071538431629210e-01
88 94 8.71644695368615441e-01
89 94 8.73289359439101465e-01
90 94 8.75005530643086504e-01
91 94 8.76793208980571004e-01
92 94 8.78652394451554963e-01
93 94 8.80583087056038161e-01
94 94 8.82585286794020263e-01
95 94 8.84658993665502380e-01
96 94 8.86804207670484179e-01
97 94 8.89020928808964550e-01
98 94 8.91309157080944603e-01
99 94 8.93668892486424227e-01
100 94 8.96100135025403199e-01
101 94 8.98602884697881188e-01
102 94 9.01177141503859080e-01
103 94 9.03822905443335989e-01
104 94 9.06540176516312246e-01
105 94 9.09328954722788074e-01
106 94 9.12189240062763140e-01
107 94 9.15121032536237888e-01
108 94 9.18124332143211652e-01
109 94 9.21199138883684543e-01
110 94 9.24345452757657449e-01
111 94 9.27563273765129259e-01
112 94 9.30852601906101307e-01
113 94 9.34213437180571593e-01
114 94 9.37645779588542005e-01
115 94 9.41149629130011878e-01
116 94 9.44724985804980766e-01
117 94 9.48371849613448781e-01
118 94 9.52090220555416700e-01
119 94 9.55880098630883523e-01
120 94 9.59741483839849807e-01
121 94 9.63674376182315551e-01
122 94 9.67678775658281087e-01
123 94 9.71754682267745529e-01
124 94 9.75902096010709652e-01
125 94 9.80121016887172680e-01
126 94 9.84411444897135612e-01
127 94 9.88773380040597449e-01
128 94 9.93206822317558968e-01
129 94 9.97711771728019725e-01
130 94 1.00000000000000000e+00
1 95 1.00000000000000000e+00
2 95 9.97711771728019725e-01
3 95 9.93206822317559079e-01
4 95 9.88773380040597449e-01
5 95 9.84411444897135279e-01
6 95 9.80121016887172569e-01
7 95 9.75902096010709319e-01
8 95 9.71754682267745196e-01
9 95 9.67678775658280643e-01
10 95 9.63674376182315218e-01
11 95 9.59741483839849696e-01
12 95 9.55880098630883412e-01
13 95 9.52090220555416367e-01
14 95 9.48371849613448448e-01
15 95 9.44724985804980433e-01
16 95 9.41149629130011656e-01
17 95 9.37645779588541783e-01
18 95 9.34213437180571593e-01
19 95 9.30852601906101307e-01
20 95 9.27563273765129370e-01
21 95 9.24345452757657560e-01
22 95 9.21199138883684654e-01
23 95 9.18124332143211763e-01
24 95 9.15121032536237999e-01
25 95 9.12189240062763584e-01
26 95 9.09328954722788074e-01
27 95 9.06540176516312690e-01
28 95 9.03822905443335989e-01
29 95 9.01177141503859191e-01
30 95 8.98602884697881521e-01
31 95 8.96100135025403310e-01
32 95 8.93668892486424227e-01
33 95 8.91309157080944714e-01
34 95 8.89020928808964550e-01
35 95 8.86804207670484179e-01
36 95 8.84658993665502380e-01
37 95 8.82585286794020485e-01
38 95 8.80583087056038161e-01
39 95 8.78652394451554963e-01
40 95 8.76793208980571004e-01
41 95 8.75005530643086504e-01
42 95 8.73289359439101465e-01
43 95 8.71644695368615552e-01
44 95 8.70071538431629321e-01
45 95 8.68569888628142661e-01
46 95 8.67139745958155128e-01
47 95 8.65781110421667055e-01
48 95 8.64493982018677998e-01
49 95 8.63278360749188511e-01
50 95 8.62134246613198596e-01
51 95 8.61061639610707807e-01
52 95 8.60060539741716479e-01
53 95 8.59130947006224388e-01
54 95 8.58272861404231868e-01
55 95 8.57486282935739141e-01
56 95 8.56771211600745097e-01
57 95 8.56127647399250735e-01
58 95 8.55555590331255500e-01
59 95 8.55055040396760058e-01
60 95 8.54625997595763742e-01
61 95 8.54268461928266776e-01
62 95 8.53982433394269380e-01
63 95 8.53767911993771222e-01
64 95 8.53624897726772414e-01
65 95 8.53553390593272843e-01
66 95 8.53553390593272843e-01
67 95 8.53624897726772414e-01
68 95 8.53767911993771111e-01
69 95 8.53982433394269269e-01
70 95 8.54268461928266776e-01
71 95 8.54625997595763742e-01
72 95 8.55055040396759836e-01
73 95 8.55555590331255389e-01
74 95 8.56127647399250735e-01
75 95 8.56771211600744986e-01
76 95 8.57486282935738919e-01
77 95 8.58272861404231868e-01
78 95 8.59130947006224388e-01
79 95 8.60060539741716479e-01
80 95 8.61061639610707696e-01
81 95 8.62134246613198596e-01
82 95 8.63278360749188289e-01
83 95 8.64493982018677998e-01
84 95 8.65781110421666833e-01
85 95 8.67139745958155128e-01
86 95 8.68569888628142550e-01
87 95 8.70071538431629210e-01
88 95 8.71644695368615552e-01
89 95 8.73289359439101465e-01
90 95 8.75005530643086504e-01
91 95 8.76793208980571004e-01
92 95 8.78652394451555074e-01
93 95 8.80583087056038161e-01
94 95 8.82585286794020263e-01
95 95 8.84658993665502380e-01
96 95 8.86804207670484179e-01
97 95 8.89020928808964550e-01
98 95 8.91309157080944714e-01
99 95 8.93668892486424227e-01
100 95 8.96100135025403199e-01
101 95 8.98602884697881188e-01
102 95 9.01177141503859080e-01
103 95 9.03822905443335989e-01
104 95 9.06540176516312246e-01
105 95 9.09328954722788074e-01
106 95 9.12189240062763140e-01
107 95 9.15121032536237888e-01
108 95 9.18124332143211652e-01
109 95 9.21199138883684543e-01
110 95 9.24345452757657449e-01
111 95 9.27563273765129259e-01
112 95 9.30852601906101307e-01
113 95 9.34213437180571593e-01
114 95 9.37645779588542005e-01
115 95 9.41149629130011878e-01
116 95 9.44724985804980766e-01
117 95 9.48371849613448781e-01
118 95 9.52090220555416700e-01
119 95 9.55880098630883523e-01
120 95 9.59741483839849807e-01
121 95 9.63674376182315551e-01
122 95 9.67678775658281087e-01
123 95 9.71754682267745529e-01
124 95 9.75902096010709652e-01
125 95 9.80121016887172680e-01
126 95 9.84411444897135612e-01
127 95 9.88773380040597449e-01
128 95 9.93206822317558968e-01
129 95 9.97711771728019725e-01
130 95 1.00000000000000000e+00
1 96 1.00000000000000000e+00
2 96 9.97711771728019725e-01
3 96 9.93206822317558968e-01
4 96 9.88773380040597338e-01
5 96 9.84411444897135168e-01
6 96 9.80121016887172458e-01
7 96 9.75902096010709208e-01
8 96 9.71754682267745085e-01
9 96 9.67678775658280532e-01
10 96 9.63674376182315218e-01
11 96 9.59741483839849696e-01
12 96 9.55880098630883301e-01
13 96 9.52090220555416256e-01
14 96 9.48371849613448337e-01
15 96 9.44724985804980322e-01
16 96 9.41149629130011545e-01
17 96 9.37645779588541783e-01
18 96 9.34213437180571593e-01
19 96 9.30852601906101196e-01
20 96 9.27563273765129259e-01
21 96 9.24345452757657560e-01
22 96 9.21199138883684654e-01
23 96 9.18124332143211763e-01
24 96 9.15121032536237888e-01
25 96 9.12189240062763473e-01
26 96 9.09328954722787963e-01
27 96 9.06540176516312690e-01
28 96 9.03822905443335878e-01
29 96 9.01177141503859080e-01
30 96 8.98602884697881521e-01
31 96 8.96100135025403199e-01
32 96 8.93668892486424116e-01
33 96 8.91309157080944603e-01
34 96 8.89020928808964439e-01
35 96 8.86804207670484179e-01
36 96 8.84658993665502269e-01
37 96 8.82585286794020485e-01
38 96 8.80583087056038161e-01
39 96 8.78652394451554963e-01
40 96 8.76793208980570893e-01
41 96 8.75005530643086504e-01
42 96 8.73289359439101465e-01
43 96 8.71644695368615552e-01
44 96 8.70071538431629210e-01
45 96 8.68569888628142550e-01
46 96 8.67139745958155017e-01
47 96 8.65781110421666944e-01
48 96 8.64493982018677887e-01
49 96 8.63278360749188511e-01
50 96 8.62134246613198596e-01
51 96 8.61061639610707696e-01
52 96 8.60060539741716368e-01
53 96 8.59130947006224388e-01
54 96 8.58272861404231757e-01
55 96 8.57486282935739141e-01
56 96 8.56771211600744986e-01
57 96 8.56127647399250624e-01
58 96 8.55555590331255500e-01
59 96 8.55055040396760058e-01
60 96 8.54625997595763631e-01
61 96 8.54268461928266776e-01
62 96 8.53982433394269269e-01
63 96 8.53767911993771222e-01
64 96 8.53624897726772414e-01
65 96 8.53553390593272843e-01
66 96 8.53553390593272843e-01
67 96 8.53624897726772414e-01
68 96 8.53767911993771111e-01
69 96 8.53982433394269158e-01
70 96 8.54268461928266776e-01
71 96 8.54625997595763631e-01
72 96 8.55055040396759836e-01
73 96 8.55555590331255389e-01
74 96 8.56127647399250624e-01
75 96 8.56771211600744875e-01
76 96 8.57486282935738919e-01
77 96 8.58272861404231757e-01
78 96 8.59130947006224388e-01
79 96 8.60060539741716368e-01
80 96 8.61061639610707585e-01
81 96 8.62134246613198596e-01
82 96 8.63278360749188289e-01
83 96 8.64493982018677887e-01
84 96 8.65781110421666722e-01
85 96 8.67139745958155017e-01
86 96 8.68569888628142439e-01
87 96 8.70071538431629099e-01
88 96 8.71644695368615552e-01
89 96 8.73289359439101465e-01
90 96 8.75005530643086504e-01
91 96 8.76793208980570893e-01
92 96 8.78652394451555074e-01
93 96 8.80583087056038161e-01
94 96 8.82585286794020263e-01
95 96 8.84658993665502269e-01
96 96 8.86804207670484179e-01
97 96 8.89020928808964439e-01
98 96 8.91309157080944603e-01
99 96 8.93668892486424116e-01
100 96 8.96100135025403088e-01
101 96 8.98602884697881188e-01
102 96 9.01177141503858969e-01
103 96 9.03822905443335878e-01
104 96 9.06540176516312246e-01
105 96 9.09328954722787963e-01
106 96 9.12189240062763140e-01
107 96 9.15121032536237777e-01
108 96 9.18124332143211652e-01
109 96 9.21199138883684543e-01
110 96 9.24345452757657449e-01
111 96 9.27563273765129148e-01
112 96 9.30852601906101196e-01
113 96 9.34213437180571593e-01
114 96 9.37645779588542005e-01
115 96 9.41149629130011767e-01
116 96 9.44724985804980655e-01
117 96 9.48371849613448670e-01
118 96 9.52090220555416700e-01
119 96 9.55880098630883412e-01
120 96 9.59741483839849807e-01
121 96 9.63674376182315551e-01
122 96 9.67678775658280976e-01
123 96 9.71754682267745418e-01
124 96 9.75902096010709541e-01
125 96 9.80121016887172569e-01
126 96 9.84411444897135501e-01
127 96 9.88773380040597449e-01
128 96 9.93206822317558857e-01
129 96 9.97711771728019725e-01
130 96 1.00000000000000000e+00
1 97 1.00000000000000000e+00
2 97 9.97711771728019725e-01
3 97 9.93206822317558968e-01
4 97 9.88773380040597338e-01
5 97 9.84411444897135168e-01
6 97 9.80121016887172569e-01
7 97 9.75902096010709208e-01
8 97 9.71754682267745085e-01
9 97 9.67678775658280532e-01
10 97 9.63674376182315218e-01
11 97 9.59741483839849807e-01
12 97 9.55880098630883301e-01
13 97 9.52090220555416256e-01
14 97 9.48371849613448337e-01
15 97 9.44724985804980322e-01
16 97 9.41149629130011545e-01
17 97 9.37645779588541783e-01
18 97 9.34213437180571704e-01
19 97 9.30852601906101196e-01
20 97 9.27563273765129259e-01
21 97 9.24345452757657560e-01
22 97 9.21199138883684765e-01
23 97 9.18124332143211763e-01
24 97 9.15121032536237888e-01
25 97 9.12189240062763584e-01
26 97 9.09328954722788074e-01
27 97 9.06540176516312801e-01
28 97 9.03822905443335989e-01
29 97 9.01177141503859191e-01
30 97 8.98602884697881521e-01
31 97 8.96100135025403199e-01
32 97 8.93668892486424227e-01
33 97 8.91309157080944603e-01
34 97 8.89020928808964550e-01
35 97 8.86804207670484179e-01
36 97 8.84658993665502269e-01
37 97 8.82585286794020485e-01
38 97 8.80583087056038161e-01
39 97 8.78652394451554963e-01
40 97 8.76793208980570893e-01
41 97 8.75005530643086504e-01
42 97 8.73289359439101465e-01
43 97 8.71644695368615663e-01
44 97 8.70071538431629210e-01
45 97 8.68569888628142550e-01
46 97 8.67139745958155128e-01
47 97 8.65781110421666944e-01
48 97 8.64493982018677887e-01
49 97 8.63278360749188511e-01
50 97 8.62134246613198596e-01
51 97 8.61061639610707696e-01
52 97 8.60060539741716368e-01
53 97 8.59130947006224388e-01
54 97 8.58272861404231757e-01
55 97 8.57486282935739141e-01
56 97 8.56771211600744986e-01
57 97 8.56127647399250624e-01
58 97 8.55555590331255500e-01
59 97 8.55055040396760058e-01
60 97 8.54625997595763631e-01
61 97 8.54268461928266887e-01
62 97 8.53982433394269269e-01
63 97 8.53767911993771222e-01
64 97 8.53624897726772414e-01
65 97 8.53553390593272843e-01
66 97 8.53553390593272843e-01
67 97 8.53624897726772414e-01
68 97 8.53767911993771111e-01
69 97 8.53982433394269158e-01
70 97 8.54268461928266887e-01
71 97 8.54625997595763631e-01
72 97 8.55055040396759836e-01
73 97 8.55555590331255389e-01
74 97 8.56127647399250624e-01
75 97 8.56771211600744875e-01
76 97 8.57486282935738919e-01
77 97 8.58272861404231757e-01
78 97 8.59130947006224388e-01
79 97 8.60060539741716368e-01
80 97 8.61061639610707585e-01
81 97 8.62134246613198596e-01
82 97 8.63278360749188289e-01
83 97 8.64493982018677887e-01
84 97 8.65781110421666722e-01
85 97 8.67139745958155128e-01
86 97 8.68569888628142439e-01
87 97 8.70071538431629099e-01
88 97 8.71644695368615663e-01
89 97 8.73289359439101465e-01
90 97 8.75005530643086504e-01
91 97 8.76793208980570893e-01
92 97 8.78652394451555074e-01
93 97 8.80583087056038161e-01
94 97 8.82585286794020374e-01
95 97 8.84658993665502269e-01
96 97 8.86804207670484179e-01
97 97 8.89020928808964550e-01
98 97 8.91309157080944603e-01
99 97 8.93668892486424227e-01
100 97 8.96100135025403088e-01
101 97 8.98602884697881188e-01
102 97 9.01177141503858969e-01
103 97 9.03822905443335989e-01
104 97 9.06540176516312357e-01
105 97 9.09328954722788074e-01
106 97 9.12189240062763140e-01
107 97 9.15121032536237777e-01
108 97 9.18124332143211652e-01
109 97 9.21199138883684654e-01
110 97 9.24345452757657449e-01
111 97 9.27563273765129148e-01
112 97 9.30852601906101196e-01
113 97 9.34213437180571704e-01
114 97 9.37645779588542005e-01
115 97 9.41149629130011767e-01
116 97 9.44724985804980655e-01
117 97 9.48371849613448670e-01
118 97 9.52090220555416700e-01
119 97 9.55880098630883412e-01
120 97 9.59741483839849807e-01
121 97 9.63674376182315551e-01
122 97 9.67678775658280976e-01
123 97 9.71754682267745418e-01
124 97 9.75902096010709541e-01
125 97 9.80121016887172680e-01
126 97 9.84411444897135501e-01
127 97 9.88773380040597449e-01
128 97 9.93206822317558857e-01
129 97 9.97711771728019725e-01
130 97 1.00000000000000000e+00
1 98 1.00000000000000000e+00
2 98 9.97711771728019725e-01
3 98 9.93206822317558968e-01
4 98 9.88773380040597338e-01
5 98 9.84411444897135168e-01
6 98 9.80121016887172569e-01
7 98 9.75902096010709208e-01
8 98 9.71754682267745196e-01
9 98 9.67678775658280532e-01
10 98 9.63674376182315329e-01
11 98 9.59741483839849807e-01
12 98 9.55880098630883301e-01
13 98 9.52090220555416256e-01
14 98 9.48371849613448337e-01
15 98 9.44724985804980322e-01
16 98 9.41149629130011545e-01
17 98 9.37645779588541894e-01
18 98 9.34213437180571815e-01
19 98 9.30852601906101196e-01
20 98 9.27563273765129259e-01
21 98 9.24345452757657560e-01
22 98 9.21199138883684765e-01
23 98 9.18124332143211763e-01
24 98 9.15121032536237888e-01
25 98 9.12189240062763584e-01
26 98 9.09328954722788074e-01
27 98 9.06540176516312801e-01
28 98 9.03822905443336100e-01
29 98 9.01177141503859302e-01
30 98 8.98602884697881521e-01
31 98 8.96100135025403199e-01
32 98 8.93668892486424227e-01
33 98 8.91309157080944603e-01
34 98 8.89020928808964550e-01
35 98 8.86804207670484179e-01
36 98 8.84658993665502269e-01
37 98 8.82585286794020485e-01
38 98 8.80583087056038161e-01
39 98 8.78652394451554963e-01
40 98 8.76793208980570893e-01
41 98 8.75005530643086504e-01
42 98 8.73289359439101465e-01
43 98 8.71644695368615663e-01
44 98 8.70071538431629210e-01
45 98 8.68569888628142550e-01
46 98 8.67139745958155128e-01
47 98 8.65781110421666944e-01
48 98 8.64493982018677887e-01
49 98 8.63278360749188511e-01
50 98 8.62134246613198596e-01
51 98 8.61061639610707696e-01
52 98 8.60060539741716368e-01
53 98 8.59130947006224499e-01
54 98 8.58272861404231757e-01
55 98 8.57486282935739141e-01
56 98 8.56771211600744986e-01
57 98 8.56127647399250624e-01
58 98 8.55555590331255611e-01
59 98 8.55055040396760058e-01
60 98 8.54625997595763742e-01
61 98 8.54268461928266887e-01
62 98 8.53982433394269269e-01
63 98 8.53767911993771222e-01
64 98 8.53624897726772414e-01
65 98 8.53553390593272843e-01
66 98 8.53553390593272843e-01
67 98 8.53624897726772414e-01
68 98 8.53767911993771111e-01
69 98 8.53982433394269158e-01
70 98 8.54268461928266887e-01
71 98 8.54625997595763742e-01
72 98 8.55055040396759836e-01
73 98 8.55555590331255500e-01
74 98 8.56127647399250624e-01
75 98 8.56771211600744875e-01
76 98 8.57486282935738919e-01
77 98 8.58272861404231757e-01
78 98 8.59130947006224499e-01
79 98 8.60060539741716368e-01
80 98 8.61061639610707585e-01
81 98 8.62134246613198596e-01
82 98 8.63278360749188289e-01
83 98 8.64493982018677887e-01
84 98 8.65781110421666722e-01
85 98 8.67139745958155128e-01
86 98 8.68569888628142439e-01
87 98 8.70071538431629099e-01
88 98 8.71644695368615663e-01
89 98 8.73289359439101465e-01
90 98 8.75005530643086504e-01
91 98 8.76793208980570893e-01
92 98 8.78652394451555074e-01
93 98 8.80583087056038161e-01
94 98 8.82585286794020374e-01
95 98 8.84658993665502269e-01
96 98 8.86804207670484179e-01
97 98 8.89020928808964550e-01
98 98 8.91309157080944603e-01
99 98 8.93668892486424227e-01
100 98 8.96100135025403088e-01
101 98 8.98602884697881188e-01
102 98 9.01177141503859080e-01
103 98 9.03822905443336100e-01
104 98 9.06540176516312357e-01
105 98 9.09328954722788074e-01
106 98 9.12189240062763140e-01
107 98 9.15121032536237777e-01
108 98 9.18124332143211652e-01
109 98 9.21199138883684654e-01
110 98 9.24345452757657449e-01
111 98 9.27563273765129148e-01
112 98 9.30852601906101196e-01
113 98 9.34213437180571815e-01
114 98 9.37645779588542005e-01
115 98 9.41149629130011767e-01
116 98 9.44724985804980655e-01
117 98 9.48371849613448670e-01
118 98 9.52090220555416700e-01
119 98 9.55880098630883412e-01
120 98 9.59741483839849918e-01
121 98 9.63674376182315662e-01
122 98 9.67678775658280976e-01
123 98 9.71754682267745418e-01
124 98 9.75902096010709541e-01
125 98 9.80121016887172680e-01
126 98 9.84411444897135501e-01
127 98 9.88773380040597449e-01
128 98 9.93206822317558857e-01
129 98 9.97711771728019725e-01
130 98 1.00000000000000000e+00
1 99 1.00000000000000000e+00
2 99 9.97711771728019725e-01
3 99 9.93206822317558968e-01
4 99 9.88773380040597449e-01
5 99 9.84411444897135168e-01
6 99 9.80121016887172569e-01
7 99 9.75902096010709208e-01
8 99 9.71754682267745196e-01
9 99 9.67678775658280532e-01
10 99 9.63674376182315329e-01
11 99 9.59741483839849807e-01
12 99 9.55880098630883301e-01
13 99 9.52090220555416256e-01
14 99 9.48371849613448337e-01
15 99 9.44724985804980322e-01
16 99 9.41149629130011545e-01
17 99 9.37645779588541894e-01
18 99 9.34213437180571815e-01
19 99 9.30852601906101196e-01
20 99 9.27563273765129259e-01
21 99 9.24345452757657560e-01
22 99 9.21199138883684765e-01
23 99 9.18124332143211763e-01
24 99 9.15121032536237888e-01
25 99 9.12189240062763584e-01
26 99 9.09328954722788074e-01
27 99 9.06540176516312801e-01
28 99 9.03822905443336100e-01
29 99 9.01177141503859302e-01
30 99 8.98602884697881521e-01
31 99 8.96100135025403199e-01
32 99 8.93668892486424227e-01
33 99 8.91309157080944603e-01
34 99 8.89020928808964550e-01
35 99 8.86804207670484290e-01
36 99 8.84658993665502269e-01
37 99 8.82585286794020485e-01
38 99 8.80583087056038272e-01
39 99 8.78652394451554963e-01
40 99 8.76793208980570893e-01
41 99 8.75005530643086504e-01
42 99 8.73289359439101576e-01
43 99 8.71644695368615774e-01
44 99 8.70071538431629210e-01
45 99 8.68569888628142550e-01
46 99 8.67139745958155128e-01
47 99 8.65781110421666944e-01
48 99 8.64493982018677887e-01
49 99 8.63278360749188511e-01
50 99 8.62134246613198596e-01
51 99 8.61061639610707696e-01
52 99 8.60060539741716368e-01
53 99 8.59130947006224499e-01
54 99 8.58272861404231757e-01
55 99 8.57486282935739141e-01
56 99 8.56771211600744986e-01
57 99 8.56127647399250735e-01
58 99 8.55555590331255611e-01
59 99 8.55055040396760169e-01
60 99 8.54625997595763742e-01
61 99 8.54268461928266887e-01
62 99 8.53982433394269269e-01
63 99 8.53767911993771222e-01
64 99 8.53624897726772414e-01
65 99 8.53553390593272843e-01
66 99 8.53553390593272843e-01
67 99 8.53624897726772414e-01
68 99 8.53767911993771111e-01
69 99 8.53982433394269269e-01
70 99 8.54268461928266887e-01
71 99 8.54625997595763742e-01
72 99 8.55055040396759947e-01
73 99 8.55555590331255500e-01
74 99 8.56127647399250624e-01
75 99 8.56771211600744875e-01
76 99 8.57486282935738919e-01
77 99 8.58272861404231757e-01
78 99 8.59130947006224499e-01
79 99 8.60060539741716368e-01
80 99 8.61061639610707585e-01
81 99 8.62134246613198596e-01
82 99 8.63278360749188289e-01
83 99 8.64493982018677887e-01
84 99 8.65781110421666722e-01
85 99 8.67139745958155128e-01
86 99 8.68569888628142439e-01
87 99 8.70071538431629099e-01
88 99 8.71644695368615774e-01
89 99 8.73289359439101576e-01
90 99 8.75005530643086504e-01
91 99 8.76793208980570893e-01
92 99 8.78652394451555074e-01
93 99 8.80583087056038272e-01
94 99 8.82585286794020374e-01
95 99 8.84658993665502269e-01
96 99 8.86804207670484290e-01
97 99 8.89020928808964550e-01
98 99 8.91309157080944603e-01
99 99 8.93668892486424227e-01
100 99 8.96100135025403088e-01
101 99 8.98602884697881188e-01
102 99 9.01177141503859080e-01
103 99 9.03822905443336100e-01
104 99 9.06540176516312468e-01
105 99 9.09328954722788074e-01
106 99 9.12189240062763140e-01
107 99 9.15121032536237777e-01
108 99 9.18124332143211652e-01
109 99 9.21199138883684654e-01
110 99 9.24345452757657449e-01
111 99 9.27563273765129148e-01
112 99 9.30852601906101196e-01
113 99 9.34213437180571815e-01
114 99 9.37645779588542005e-01
115 99 9.41149629130011767e-01
116 99 9.44724985804980655e-01
117 99 9.48371849613448670e-01
118 99 9.52090220555416700e-01
119 99 9.55880098630883412e-01
120 99 9.59741483839849918e-01
121 99 9.63674376182315662e-01
122 99 9.67678775658280976e-01
123 99 9.71754682267745418e-01
124 99 9.75902096010709541e-01
125 99 9.80121016887172680e-01
126 99 9.84411444897135501e-01
127 99 9.88773380040597560e-01
128 99 9.93206822317558857e-01
129 99 9.97711771728019725e-01
130 99 1.00000000000000000e+00
1 100 1.00000000000000000e+00
2 100 9.97711771728019725e-01
3 100 9.93206822317558968e-01
4 100 9.88773380040597560e-01
5 100 9.84411444897135168e-01
6 100 9.80121016887172569e-01
7 100 9.75902096010709208e-01
8 100 9.71754682267745196e-01
9 100 9.67678775658280532e-01
10 100 9.63674376182315329e-01
11 100 9.59741483839849807e-01
12 100 9.55880098630883301e-01
13 100 9.52090220555416256e-01
14 100 9.48371849613448337e-01
15 100 9.44724985804980322e-01
16 100 9.41149629130011545e-01
17 100 9.37645779588541894e-01
18 100 9.34213437180571815e-01
19 100 9.30852601906101196e-01
20 100 9.27563273765129259e-01
21 100 9.24345452757657560e-01
22 100 9.21199138883684765e-01
23 100 9.18124332143211763e-01
24 100 9.15121032536237999e-01
25 100 9.12189240062763584e-01
26 100 9.09328954722788074e-01
27 100 9.06540176516312801e-01
28 100 9.03822905443336100e-01
29 100 9.01177141503859302e-01
30 100 8.98602884697881521e-01
31 100 8.96100135025403199e-01
32 100 8.93668892486424227e-01
33 100 8.91309157080944603e-01
34 100 8.89020928808964550e-01
35 100 8.86804207670484290e-01
36 100 8.84658993665502269e-01
37 100 8.82585286794020485e-01
38 100 8.80583087056038272e-01
39 100 8.78652394451554963e-01
40 100 8.76793208980570893e-01
41 100 8.75005530643086504e-01
42 100 8.73289359439101576e-01
43 100 8.71644695368615774e-01
44 100 8.70071538431629210e-01
45 100 8.68569888628142550e-01
46 100 8.67139745958155128e-01
47 100 8.65781110421666944e-01
48 100 8.64493982018677887e-01
49 100 8.63278360749188511e-01
50 100 8.62134246613198596e-01
51 100 8.61061639610707696e-01
52 100 8.60060539741716368e-01
53 100 8.59130947006224499e-01
54 100 8.58272861404231868e-01
55 100 8.57486282935739141e-01
56 100 8.56771211600744986e-01
57 100 8.56127647399250735e-01
58 100 8.55555590331255611e-01
59 100 8.55055040396760169e-01
60 100 8.54625997595763742e-01
61 100 8.54268461928266998e-01
62 100 8.53982433394269269e-01
63 100 8.53767911993771222e-01
64 100 8.53624897726772414e-01
65 100 8.53553390593272954e-01
66 100 8.53553390593272954e-01
67 100 8.53624897726772414e-01
68 100 8.53767911993771111e-01
69 100 8.53982433394269269e-01
70 100 8.54268461928266998e-01
71 100 8.54625997595763742e-01
72 100 8.55055040396759947e-01
73 100 8.55555590331255500e-01
74 100 8.56127647399250624e-01
75 100 8.56771211600744875e-01
76 100 8.57486282935738919e-01
77 100 8.58272861404231868e-01
78 100 8.59130947006224499e-01
79 100 8.60060539741716368e-01
80 100 8.61061639610707585e-01
81 100 8.62134246613198596e-01
82 100 8.63278360749188289e-01
83 100 8.64493982018677887e-01
84 100 8.65781110421666722e-01
85 100 8.67139745958155128e-01
86 100 8.68569888628142439e-01
87 100 8.70071538431629099e-01
88 100 8.71644695368615774e-01
89 100 8.73289359439101576e-01
90 100 8.75005530643086504e-01
91 100 8.76793208980570893e-01
92 100 8.78652394451555074e-01
93 100 8.80583087056038272e-01
94 100 8.82585286794020374e-01
95 100 8.84658993665502269e-01
96 100 8.86804207670484290e-01
97 100 8.89020928808964550e-01
98 100 8.91309157080944603e-01
99 100 8.93668892486424227e-01
100 100 8.96100135025403088e-01
101 100 8.98602884697881188e-01
102 100 9.01177141503859080e-01
103 100 9.03822905443336100e-01
104 100 9.06540176516312468e-01
105 100 9.09328954722788074e-01
106 100 9.12189240062763140e-01
107 100 9.15121032536237777e-01
108 100 9.18124332143211652e-01
109 100 9.21199138883684654e-01
110 100 9.24345452757657449e-01
111 100 9.27563273765129148e-01
112 100 9.30852601906101196e-01
113 100 9.34213437180571815e-01
114 100 9.37645779588542005e-01
115 100 9.41149629130011767e-01
116 100 9.44724985804980655e-01
117 100 9.48371849613448670e-01
118 100 9.52090220555416700e-01
119 100 9.55880098630883412e-01
120 100 9.59741483839850029e-01
121 100 9.63674376182315662e-01
122 100 9.67678775658280976e-01
123 100 9.71754682267745418e-01
124 100 9.75902096010709541e-01
125 100 9.80121016887172680e-01
126 100 9.84411444897135501e-01
127 100 9.88773380040597671e-01
128 100 9.93206822317558857e-01
129 100 9.97711771728019725e-01
130 100 1.00000000000000000e+00
1 101 1.00000000000000000e+00
2 101 9.97711771728019725e-01
3 101 9.93206822317558968e-01
4 101 9.88773380040597560e-01
5 101 9.84411444897135168e-01
6 101 9.80121016887172569e-01
7 101 9.75902096010709208e-01
8 101 9.71754682267745196e-01
9 101 9.67678775658280532e-01
10 101 9.63674376182315329e-01
11 101 9.59741483839849807e-01
12 101 9.55880098630883301e-01
13 101 9.52090220555416256e-01
14 101 9.48371849613448337e-01
15 101 9.44724985804980322e-01
16 101 9.41149629130011545e-01
17 101 9.37645779588541894e-01
18 101 9.34213437180571926e-01
19 101 9.30852601906101196e-01
20 101 9.27563273765129259e-01
21 101 9.24345452757657560e-01
22 101 9.21199138883684876e-01
23 101 9.18124332143211763e-01
24 101 9.15121032536237999e-01
25 101 9.12189240062763584e-01
26 101 9.09328954722788074e-01
27 101 9.06540176516312801e-01
28 101 9.03822905443336100e-01
29 101 9.01177141503859302e-01
30 101 8.98602884697881521e-01
31 101 8.96100135025403199e-01
32 101 8.93668892486424227e-01
33 101 8.91309157080944603e-01
34 101 8.89020928808964550e-01
35 101 8.86804207670484290e-01
36 101 8.84658993665502269e-01
37 101 8.82585286794020485e-01
38 101 8.80583087056038383e-01
39 101 8.78652394451554963e-01
40 101 8.76793208980570893e-01
41 101 8.75005530643086504e-01
42 101 8.73289359439101576e-01
43 101 8.71644695368615774e-01
44 101 8.70071538431629321e-01
45 101 8.68569888628142550e-01
46 101 8.67139745958155128e-01
47 101 8.65781110421666944e-01
48 101 8.64493982018677887e-01
49 101 8.63278360749188511e-01
50 101 8.62134246613198596e-01
51 101 8.61061639610707696e-01
52 101 8.60060539741716368e-01
53 101 8.59130947006224499e-01
54 101 8.58272861404231868e-01
55 101 8.57486282935739141e-01
56 101 8.56771211600744986e-01
57 101 8.56127647399250735e-01
58 101 8.55555590331255611e-01
59 101 8.55055040396760169e-01
60 101 8.54625997595763742e-01
61 101 8.54268461928267109e-01
62 101 8.53982433394269269e-01
63 101 8.53767911993771333e-01
64 101 8.53624897726772414e-01
65 101 8.53553390593272954e-01
66 101 8.53553390593272954e-01
67 101 8.53624897726772414e-01
68 101 8.53767911993771222e-01
69 101 8.53982433394269269e-01
70 101 8.54268461928267109e-01
71 101 8.54625997595763742e-01
72 101 8.55055040396759947e-01
73 101 8.55555590331255500e-01
74 101 8.56127647399250624e-01
75 101 8.56771211600744875e-01
76 101 8.57486282935738919e-01
77 101 8.58272861404231868e-01
78 101 8.59130947006224499e-01
79 101 8.60060539741716368e-01
80 101 8.61061639610707585e-01
81 101 8.62134246613198596e-01
82 101 8.63278360749188289e-01
83 101 8.64493982018677887e-01
84 101 8.65781110421666722e-01
85 101 8.67139745958155128e-01
86 101 8.68569888628142439e-01
87 101 8.70071538431629099e-01
88 101 8.71644695368615774e-01
89 101 8.73289359439101576e-01
90 101 8.75005530643086504e-01
91 101 8.76793208980570893e-01
92 101 8.78652394451555074e-01
93 101 8.80583087056038383e-01
94 101 8.82585286794020374e-01
95 101 8.84658993665502269e-01
96 101 8.86804207670484290e-01
97 101 8.89020928808964550e-01
98 101 8.91309157080944603e-01
99 101 8.93668892486424227e-01
100 101 8.96100135025403088e-01
101 101 8.98602884697881188e-01
102 101 9.01177141503859080e-01
103 101 9.03822905443336100e-01
104 101 9.06540176516312468e-01
105 101 9.09328954722788074e-01
106 101 9.12189240062763140e-01
107 101 9.15121032536237777e-01
108 101 9.18124332143211652e-01
109 101 9.21199138883684765e-01
110 101 9.24345452757657449e-01
111 101 9.27563273765129148e-01
112 101 9.30852601906101196e-01
113 101 9.34213437180571926e-01
114 101 9.37645779588542005e-01
115 101 9.41149629130011767e-01
116 101 9.44724985804980655e-01
117 101 9.48371849613448670e-01
118 101 9.52090220555416700e-01
119 101 9.55880098630883412e-01
120 101 9.59741483839850029e-01
121 101 9.63674376182315662e-01
122 101 9.67678775658280976e-01
123 101 9.71754682267745418e-01
124 101 9.75902096010709541e-01
125 101 9.80121016887172680e-01
126 101 9.84411444897135501e-01
127 101 9.88773380040597671e-01
128 101 9.93206822317558857e-01
129 101 9.97711771728019725e-01
130 101 1.00000000000000000e+00
1 102 1.00000000000000000e+00
2 102 9.97711771728019725e-01
3 102 9.93206822317558968e-01
4 102 9.88773380040597560e-01
5 102 9.84411444897135168e-01
6 102 9.80121016887172569e-01
7 102 9.75902096010709208e-01
8 102 9.71754682267745196e-01
9 102 9.67678775658280532e-01
10 102 9.63674376182315329e-01
11 102 9.59741483839849807e-01
12 102 9.55880098630883301e-01
13 102 9.52090220555416367e-01
14 102 9.48371849613448337e-01
15 102 9.44724985804980322e-01
16 102 9.41149629130011545e-01
17 102 9.37645779588541894e-01
18 102 9.34213437180572037e-01
19 102 9.30852601906101196e-01
20 102 9.27563273765129259e-01
21 102 9.24345452757657560e-01
22 102 9.21199138883684876e-01
23 102 9.18124332143211763e-01
24 102 9.15121032536237999e-01
25 102 9.12189240062763584e-01
26 102 9.09328954722788074e-01
27 102 9.06540176516312801e-01
28 102 9.03822905443336100e-01
29 102 9.01177141503859302e-01
30 102 8.98602884697881521e-01
31 102 8.96100135025403199e-01
32 102 8.93668892486424227e-01
33 102 8.91309157080944603e-01
34 102 8.89020928808964550e-01
35 102 8.86804207670484401e-01
36 102 8.84658993665502269e-01
37 102 8.82585286794020485e-01
38 102 8.80583087056038494e-01
39 102 8.78652394451554963e-01
40 102 8.76793208980570893e-01
41 102 8.75005530643086504e-01
42 102 8.73289359439101576e-01
43 102 8.71644695368615774e-01
44 102 8.70071538431629321e-01
45 102 8.68569888628142550e-01
46 102 8.67139745958155128e-01
47 102 8.65781110421666944e-01
48 102 8.64493982018677887e-01
49 102 8.63278360749188511e-01
50 102 8.62134246613198596e-01
51 102 8.61061639610707696e-01
52 102 8.60060539741716368e-01
53 102 8.59130947006224499e-01
54 102 8.58272861404231868e-01
55 102 8.57486282935739141e-01
56 102 8.56771211600744986e-01
57 102 8.56127647399250735e-01
58 102 8.55555590331255611e-01
59 102 8.55055040396760169e-01
60 102 8.54625997595763742e-01
61 102 8.54268461928267109e-01
62 102 8.53982433394269269e-01
63 102 8.53767911993771333e-01
64 102 8.53624897726772414e-01
65 102 8.53553390593272954e-01
66 102 8.53553390593272954e-01
67 102 8.53624897726772414e-01
68 102 8.53767911993771222e-01
69 102 8.53982433394269269e-01
70 102 8.54268461928267109e-01
71 102 8.54625997595763742e-01
72 102 8.55055040396759947e-01
73 102 8.55555590331255500e-01
74 102 8.56127647399250624e-01
75 102 8.56771211600744875e-01
76 102 8.57486282935738919e-01
77 102 8.58272861404231868e-01
78 102 8.59130947006224499e-01
79 102 8.60060539741716368e-01
80 102 8.61061639610707585e-01
81 102 8.62134246613198596e-01
82 102 8.63278360749188289e-01
83 102 8.64493982018677887e-01
84 102 8.65781110421666722e-01
85 102 8.67139745958155128e-01
86 102 8.68569888628142439e-01
87 102 8.70071538431629099e-01
88 102 8.71644695368615774e-01
89 102 8.73289359439101576e-01
90 102 8.75005530643086504e-01
91 102 8.76793208980570893e-01
92 102 8.78652394451555074e-01
93 102 8.80583087056038494e-01
94 102 8.82585286794020374e-01
95 102 8.84658993665502269e-01
96 102 8.86804207670484290e-01
97 102 8.89020928808964550e-01
98 102 8.91309157080944603e-01
99 102 8.93668892486424227e-01
100 102 8.96100135025403088e-01
101 102 8.98602884697881188e-01
102 102 9.01177141503859080e-01
103 102 9.03822905443336100e-01
104 102 9.06540176516312468e-01
105 102 9.09328954722788074e-01
106 102 9.12189240062763140e-01
107 102 9.15121032536237777e-01
108 102 9.18124332143211652e-01
109 102 9.21199138883684765e-01
110 102 9.24345452757657449e-01
111 102 9.27563273765129148e-01
112 102 9.30852601906101196e-01
113 102 9.34213437180572037e-01
114 102 9.37645779588542116e-01
115 102 9.41149629130011767e-01
116 102 9.44724985804980655e-01
117 102 9.48371849613448670e-01
118 102 9.52090220555416700e-01
119 102 9.55880098630883412e-01
120 102 9.59741483839850029e-01
121 102 9.63674376182315662e-01
122 102 9.67678775658280976e-01
123 102 9.71754682267745418e-01
124 102 9.75902096010709541e-01
125 102 9.80121016887172680e-01
126 102 9.84411444897135501e-01
127 102 9.88773380040597671e-01
128 102 9.93206822317558857e-01
129 102 9.97711771728019725e-01
130 102 1.00000000000000000e+00
1 103 1.00000000000000000e+00
2 103 9.97711771728019725e-01
3 103 9.93206822317559079e-01
4 103 9.88773380040597560e-01
5 103 9.84411444897135279e-01
6 103 9.80121016887172569e-01
7 103 9.75902096010709208e-01
8 103 9.71754682267745196e-01
9 103 9.67678775658280532e-01
10 103 9.63674376182315329e-01
11 103 9.59741483839849807e-01
12 103 9.55880098630883301e-01
13 103 9.52090220555416367e-01
14 103 9.48371849613448448e-01
15 103 9.44724985804980322e-01
16 103 9.41149629130011656e-01
17 103 9.37645779588541894e-01
18 103 9.34213437180572037e-01
19 103 9.30852601906101196e-01
20 103 9.27563273765129259e-01
21 103 9.24345452757657560e-01
22 103 9.21199138883684876e-01
23 103 9.18124332143211874e-01
24 103 9.15121032536237999e-01
25 103 9.12189240062763584e-01
26 103 9.09328954722788185e-01
27 103 9.06540176516312801e-01
28 103 9.03822905443336100e-01
29 103 9.01177141503859414e-01
30 103 8.98602884697881521e-01
31 103 8.96100135025403199e-01
32 103 8.93668892486424338e-01
33 103 8.91309157080944714e-01
34 103 8.89020928808964550e-01
35 103 8.86804207670484401e-01
36 103 8.84658993665502269e-01
37 103 8.82585286794020485e-01
38 103 8.80583087056038494e-01
39 103 8.78652394451554963e-01
40 103 8.76793208980570893e-01
41 103 8.75005530643086615e-01
42 103 8.73289359439101687e-01
43 103 8.71644695368615774e-01
44 103 8.70071538431629321e-01
45 103 8.68569888628142550e-01
46 103 8.67139745958155128e-01
47 103 8.65781110421667055e-01
48 103 8.64493982018677887e-01
49 103 8.63278360749188511e-01
50 103 8.62134246613198596e-01
51 103 8.61061639610707807e-01
52 103 8.60060539741716368e-01
53 103 8.59130947006224499e-01
54 103 8.58272861404231979e-01
55 103 8.57486282935739252e-01
56 103 8.56771211600744986e-01
57 103 8.56127647399250735e-01
58 103 8.55555590331255611e-01
59 103 8.55055040396760169e-01
60 103 8.54625997595763853e-01
61 103 8.54268461928267109e-01
62 103 8.53982433394269269e-01
63 103 8.53767911993771333e-01
64 103 8.53624897726772414e-01
65 103 8.53553390593273065e-01
66 103 8.53553390593273065e-01
67 103 8.53624897726772414e-01
68 103 8.53767911993771222e-01
69 103 8.53982433394269269e-01
70 103 8.54268461928267109e-01
71 103 8.54625997595763853e-01
72 103 8.55055040396759947e-01
73 103 8.55555590331255500e-01
74 103 8.56127647399250624e-01
75 103 8.56771211600744875e-01
76 103 8.57486282935739030e-01
77 103 8.58272861404231868e-01
78 103 8.59130947006224499e-01
79 103 8.60060539741716368e-01
80 103 8.61061639610707696e-01
81 103 8.62134246613198596e-01
82 103 8.63278360749188400e-01
83 103 8.64493982018677887e-01
84 103 8.65781110421666833e-01
85 103 8.67139745958155128e-01
86 103 8.68569888628142439e-01
87 103 8.70071538431629099e-01
88 103 8.71644695368615774e-01
89 103 8.73289359439101687e-01
90 103 8.75005530643086615e-01
91 103 8.76793208980570893e-01
92 103 8.78652394451555074e-01
93 103 8.80583087056038494e-01
94 103 8.82585286794020374e-01
95 103 8.84658993665502269e-01
96 103 8.86804207670484290e-01
97 103 8.89020928808964550e-01
98 103 8.91309157080944714e-01
99 103 8.93668892486424338e-01
100 103 8.96100135025403088e-01
101 103 8.98602884697881188e-01
102 103 9.01177141503859191e-01
103 103 9.03822905443336100e-01
104 103 9.06540176516312579e-01
105 103 9.09328954722788074e-01
106 103 9.12189240062763251e-01
107 103 9.15121032536237777e-01
108 103 9.18124332143211763e-01
109 103 9.21199138883684765e-01
110 103 9.24345452757657449e-01
111 103 9.27563273765129148e-01
112 103 9.30852601906101196e-01
113 103 9.34213437180572037e-01
114 103 9.37645779588542116e-01
115 103 9.41149629130011878e-01
116 103 9.44724985804980655e-01
117 103 9.48371849613448781e-01
118 103 9.52090220555416700e-01
119 103 9.55880098630883523e-01
120 103 9.59741483839850029e-01
121 103 9.63674376182315662e-01
122 103 9.67678775658280976e-01
123 103 9.71754682267745418e-01
124 103 9.75902096010709541e-01
125 103 9.80121016887172680e-01
126 103 9.84411444897135612e-01
127 103 9.88773380040597671e-01
128 103 9.93206822317558968e-01
129 103 9.97711771728019725e-01
130 103 1.00000000000000000e+00
1 104 1.00000000000000000e+00
2 104 9.97711771728019725e-01
3 104 9.93206822317559079e-01
4 104 9.88773380040597560e-01
5 104 9.84411444897135279e-01
6 104 9.80121016887172569e-01
7 104 9.75902096010709208e-01
8 104 9.71754682267745196e-01
9 104 9.67678775658280532e-01
10 104 9.63674376182315329e-01
11 104 9.59741483839849807e-01
12 104 9.55880098630883301e-01
13 104 9.52090220555416367e-01
14 104 9.48371849613448448e-01
15 104 9.44724985804980211e-01
16 104 9.41149629130011656e-01
17 104 9.37645779588541894e-01
18 104 9.34213437180572037e-01
19 104 9.30852601906101196e-01
20 104 9.27563273765129259e-01
21 104 9.24345452757657560e-01
22 104 9.21199138883684876e-01
23 104 9.18124332143211874e-01
24 104 9.15121032536237999e-01
25 104 9.12189240062763584e-01
26 104 9.09328954722788185e-01
27 104 9.06540176516312801e-01
28 104 9.03822905443336100e-01
29 104 9.01177141503859414e-01
30 104 8.98602884697881521e-01
31 104 8.96100135025403199e-01
32 104 8.93668892486424338e-01
33 104 8.91309157080944603e-01
34 104 8.89020928808964550e-01
35 104 8.86804207670484401e-01
36 104 8.84658993665502269e-01
37 104 8.82585286794020485e-01
38 104 8.80583087056038494e-01
39 104 8.78652394451554963e-01
40 104 8.76793208980570782e-01
41 104 8.75005530643086615e-01
42 104 8.73289359439101687e-01
43 104 8.71644695368615774e-01
44 104 8.70071538431629210e-01
45 104 8.68569888628142550e-01
46 104 8.67139745958155128e-01
47 104 8.65781110421667055e-01
48 104 8.64493982018677887e-01
49 104 8.63278360749188511e-01
50 104 8.62134246613198485e-01
51 104 8.61061639610707807e-01
52 104 8.60060539741716368e-01
53 104 8.59130947006224499e-01
54 104 8.58272861404231979e-01
55 104 8.57486282935739252e-01
56 104 8.56771211600744875e-01
57 104 8.56127647399250735e-01
58 104 8.55555590331255611e-01
59 104 8.55055040396760169e-01
60 104 8.54625997595763853e-01
61 104 8.54268461928267109e-01
62 104 8.53982433394269269e-01
63 104 8.53767911993771333e-01
64 104 8.53624897726772414e-01
65 104 8.53553390593273065e-01
66 104 8.53553390593273065e-01
67 104 8.53624897726772414e-01
68 104 8.53767911993771222e-01
69 104 8.53982433394269269e-01
70 104 8.54268461928267109e-01
71 104 8.54625997595763853e-01
72 104 8.55055040396759947e-01
73 104 8.55555590331255500e-01
74 104 8.56127647399250624e-01
75 104 8.56771211600744764e-01
76 104 8.57486282935739030e-01
77 104 8.58272861404231868e-01
78 104 8.59130947006224499e-01
79 104 8.60060539741716368e-01
80 104 8.61061639610707696e-01
81 104 8.62134246613198485e-01
82 104 8.63278360749188400e-01
83 104 8.64493982018677887e-01
84 104 8.65781110421666833e-01
85 104 8.67139745958155128e-01
86 104 8.68569888628142439e-01
87 104 8.70071538431628988e-01
88 104 8.71644695368615774e-01
89 104 8.73289359439101687e-01
90 104 8.75005530643086615e-01
91 104 8.76793208980570782e-01
92 104 8.78652394451555074e-01
93 104 8.80583087056038494e-01
94 104 8.82585286794020374e-01
95 104 8.84658993665502269e-01
96 104 8.86804207670484290e-01
97 104 8.89020928808964550e-01
98 104 8.91309157080944603e-01
99 104 8.93668892486424338e-01
100 104 8.96100135025403088e-01
101 104 8.98602884697881188e-01
102 104 9.01177141503859191e-01
103 104 9.03822905443336100e-01
104 104 9.06540176516312579e-01
105 104 9.09328954722788074e-01
106 104 9.12189240062763251e-01
107 104 9.15121032536237777e-01
108 104 9.18124332143211763e-01
109 104 9.21199138883684765e-01
110 104 9.24345452757657449e-01
111 104 9.27563273765129148e-01
112 104 9.30852601906101196e-01
113 104 9.34213437180572037e-01
114 104 9.37645779588542116e-01
115 104 9.41149629130011878e-01
116 104 9.44724985804980655e-01
117 104 9.48371849613448781e-01
118 104 9.52090220555416700e-01
119 104 9.55880098630883523e-01
120 104 9.59741483839850029e-01
121 104 9.63674376182315662e-01
122 104 9.67678775658280976e-01
123 104 9.71754682267745418e-01
124 104 9.75902096010709541e-01
125 104 9.80121016887172680e-01
126 104 9.84411444897135612e-01
127 104 9.88773380040597671e-01
128 104 9.93206822317558968e-01
129 104 9.97711771728019725e-01
130 104 1.00000000000000000e+00
1 105 1.00000000000000000e+00
2 105 9.97711771728019836e-01
3 105 9.93206822317559190e-01
4 105 9.88773380040597560e-01
5 105 9.84411444897135279e-01
6 105 9.80121016887172680e-01
7 105 9.75902096010709208e-01
8 105 9.71754682267745196e-01
9 105 9.67678775658280643e-01
10 105 9.63674376182315329e-01
11 105 9.59741483839849807e-01
12 105 9.55880098630883301e-01
13 105 9.52090220555416478e-01
14 105 9.48371849613448448e-01
15 105 9.44724985804980211e-01
16 105 9.41149629130011656e-01
17 105 9.37645779588542005e-01
18 105 9.34213437180572037e-01
19 105 9.30852601906101196e-01
20 105 9.27563273765129259e-01
21 105 9.24345452757657671e-01
22 105 9.21199138883684876e-01
23 105 9.18124332143211874e-01
24 105 9.15121032536237999e-01
25 105 9.12189240062763695e-01
26 105 9.09328954722788296e-01
27 105 9.06540176516312801e-01
28 105 9.03822905443336100e-01
29 105 9.01177141503859414e-01
30 105 8.98602884697881632e-01
31 105 8.96100135025403310e-01
32 105 8.93668892486424338e-01
33 105 8.91309157080944603e-01
34 105 8.89020928808964550e-01
35 105 8.86804207670484401e-01
36 105 8.84658993665502380e-01
37 105 8.82585286794020596e-01
38 105 8.80583087056038494e-01
39 105 8.78652394451554963e-01
40 105 8.76793208980570782e-01
41 105 8.75005530643086615e-01
42 105 8.73289359439101687e-01
43 105 8.71644695368615885e-01
44 105 8.70071538431629321e-01
45 105 8.68569888628142661e-01
46 105 8.67139745958155239e-01
47 105 8.65781110421667055e-01
48 105 8.64493982018677887e-01
49 105 8.63278360749188511e-01
50 105 8.62134246613198485e-01
51 105 8.61061639610707807e-01
52 105 8.60060539741716368e-01
53 105 8.59130947006224499e-01
54 105 8.58272861404231979e-01
55 105 8.57486282935739363e-01
56 105 8.56771211600744986e-01
57 105 8.56127647399250846e-01
58 105 8.55555590331255722e-01
59 105 8.55055040396760280e-01
60 105 8.54625997595763964e-01
61 105 8.54268461928267220e-01
62 105 8.53982433394269380e-01
63 105 8.53767911993771444e-01
64 105 8.53624897726772414e-01
65 105 8.53553390593273176e-01
66 105 8.53553390593273176e-01
67 105 8.53624897726772414e-01
68 105 8.53767911993771333e-01
69 105 8.53982433394269380e-01
70 105 8.54268461928267220e-01
71 105 8.54625997595763964e-01
72 105 8.55055040396760058e-01
73 105 8.55555590331255611e-01
74 105 8.56127647399250735e-01
75 105 8.56771211600744875e-01
76 105 8.57486282935739141e-01
77 105 8.58272861404231868e-01
78 105 8.59130947006224499e-01
79 105 8.60060539741716368e-01
80 105 8.61061639610707696e-01
81 105 8.62134246613198485e-01
82 105 8.63278360749188400e-01
83 105 8.64493982018677887e-01
84 105 8.65781110421666833e-01
85 105 8.67139745958155239e-01
86 105 8.68569888628142550e-01
87 105 8.70071538431629099e-01
88 105 8.71644695368615885e-01
89 105 8.73289359439101687e-01
90 105 8.75005530643086615e-01
91 105 8.76793208980570782e-01
92 105 8.78652394451555074e-01
93 105 8.80583087056038494e-01
94 105 8.82585286794020485e-01
95 105 8.84658993665502380e-01
96 105 8.86804207670484290e-01
97 105 8.89020928808964550e-01
98 105 8.91309157080944603e-01
99 105 8.93668892486424338e-01
100 105 8.96100135025403199e-01
101 105 8.98602884697881299e-01
102 105 9.01177141503859191e-01
103 105 9.03822905443336100e-01
104 105 9.06540176516312579e-01
105 105 9.09328954722788074e-01
106 105 9.12189240062763362e-01
107 105 9.15121032536237777e-01
108 105 9.18124332143211763e-01
109 105 9.21199138883684765e-01
110 105 9.24345452757657560e-01
111 105 9.27563273765129148e-01
112 105 9.30852601906101196e-01
113 105 9.34213437180572037e-01
114 105 9.37645779588542228e-01
115 105 9.41149629130011878e-01
116 105 9.44724985804980655e-01
117 105 9.48371849613448781e-01
118 105 9.52090220555416811e-01
119 105 9.55880098630883523e-01
120 105 9.59741483839850029e-01
121 105 9.63674376182315662e-01
122 105 9.67678775658281087e-01
123 105 9.71754682267745418e-01
124 105 9.75902096010709541e-01
125 105 9.80121016887172791e-01
126 105 9.84411444897135612e-01
127 105 9.88773380040597671e-01
128 105 9.93206822317558968e-01
129 105 9.97711771728019836e-01
130 105 1.00000000000000000e+00
1 106 1.00000000000000000e+00
2 106 9.97711771728019836e-01
3 106 9.93206822317559190e-01
4 106 9.88773380040597560e-01
5 106 9.84411444897135390e-01
6 106 9.80121016887172680e-01
7 106 9.75902096010709208e-01
8 106 9.71754682267745307e-01
9 106 9.67678775658280643e-01
10 106 9.63674376182315329e-01
11 106 9.59741483839849807e-01
12 106 9.55880098630883301e-01
13 106 9.52090220555416478e-01
14 106 9.48371849613448559e-01
15 106 9.44724985804980211e-01
16 106 9.41149629130011656e-01
17 106 9.37645779588542005e-01
18 106 9.34213437180572037e-01
19 106 9.30852601906101196e-01
20 106 9.27563273765129370e-01
21 106 9.24345452757657671e-01
22 106 9.21199138883684987e-01
23 106 9.18124332143211874e-01
24 106 9.15121032536237999e-01
25 106 9.12189240062763695e-01
26 106 9.09328954722788296e-01
27 106 9.06540176516312801e-01
28 106 9.03822905443336211e-01
29 106 9.01177141503859414e-01
30 106 8.98602884697881743e-01
31 106 8.96100135025403310e-01
32 106 8.93668892486424338e-01
33 106 8.91309157080944603e-01
34 106 8.89020928808964550e-01
35 106 8.86804207670484401e-01
36 106 8.84658993665502491e-01
37 106 8.82585286794020596e-01
38 106 8.80583087056038494e-01
39 106 8.78652394451554963e-01
40 106 8.76793208980570893e-01
41 106 8.75005530643086615e-01
42 106 8.73289359439101798e-01
43 106 8.71644695368615885e-01
44 106 8.70071538431629321e-01
45 106 8.68569888628142772e-01
46 106 8.67139745958155239e-01
47 106 8.65781110421667055e-01
48 106 8.64493982018677887e-01
49 106 8.63278360749188511e-01
50 106 8.62134246613198485e-01
51 106 8.61061639610707807e-01
52 106 8.60060539741716368e-01
53 106 8.59130947006224610e-01
54 106 8.58272861404231979e-01
55 106 8.57486282935739363e-01
56 106 8.56771211600745097e-01
57 106 8.56127647399250846e-01
58 106 8.55555590331255722e-01
59 106 8.55055040396760280e-01
60 106 8.54625997595764075e-01
61 106 8.54268461928267220e-01
62 106 8.53982433394269380e-01
63 106 8.53767911993771444e-01
64 106 8.53624897726772525e-01
65 106 8.53553390593273176e-01
66 106 8.53553390593273176e-01
67 106 8.53624897726772525e-01
68 106 8.53767911993771333e-01
69 106 8.53982433394269380e-01
70 106 8.54268461928267220e-01
71 106 8.54625997595764075e-01
72 106 8.55055040396760058e-01
73 106 8.55555590331255611e-01
74 106 8.56127647399250735e-01
75 106 8.56771211600744986e-01
76 106 8.57486282935739141e-01
77 106 8.58272861404231868e-01
78 106 8.59130947006224610e-01
79 106 8.60060539741716368e-01
80 106 8.61061639610707696e-01
81 106 8.62134246613198485e-01
82 106 8.63278360749188400e-01
83 106 8.64493982018677887e-01
84 106 8.65781110421666833e-01
85 106 8.67139745958155239e-01
86 106 8.68569888628142661e-01
87 106 8.70071538431629099e-01
88 106 8.71644695368615885e-01
89 106 8.73289359439101687e-01
90 106 8.75005530643086615e-01
91 106 8.76793208980570893e-01
92 106 8.78652394451555074e-01
93 106 8.80583087056038494e-01
94 106 8.82585286794020485e-01
95 106 8.84658993665502491e-01
96 106 8.86804207670484290e-01
97 106 8.89020928808964550e-01
98 106 8.91309157080944603e-01
99 106 8.93668892486424338e-01
100 106 8.96100135025403199e-01
101 106 8.98602884697881410e-01
102 106 9.01177141503859191e-01
103 106 9.03822905443336100e-01
104 106 9.06540176516312579e-01
105 106 9.09328954722788074e-01
106 106 9.12189240062763362e-01
107 106 9.15121032536237777e-01
108 106 9.18124332143211763e-01
109 106 9.21199138883684876e-01
110 106 9.24345452757657560e-01
111 106 9.27563273765129259e-01
112 106 9.30852601906101196e-01
113 106 9.34213437180572037e-01
114 106 9.37645779588542228e-01
115 106 9.41149629130011878e-01
116 106 9.44724985804980655e-01
117 106 9.48371849613448781e-01
118 106 9.52090220555416811e-01
119 106 9.55880098630883523e-01
120 106 9.59741483839850029e-01
121 106 9.63674376182315662e-01
122 106 9.67678775658281087e-01
123 106 9.71754682267745529e-01
124 106 9.75902096010709541e-01
125 106 9.80121016887172791e-01
126 106 9.84411444897135723e-01
127 106 9.88773380040597671e-01
128 106 9.93206822317558968e-01
129 106 9.97711771728019836e-01
130 106 1.00000000000000000e+00
1 107 1.00000000000000000e+00
2 107 9.97711771728019836e-01
3 107 9.93206822317559190e-01
4 107 9.88773380040597560e-01
5 107 9.84411444897135390e-01
6 107 9.80121016887172680e-01
7 107 9.75902096010709208e-01
8 107 9.71754682267745307e-01
9 107 9.67678775658280643e-01
10 107 9.63674376182315329e-01
11 107 9.59741483839849807e-01
12 107 9.55880098630883301e-01
13 107 9.52090220555416478e-01
14 107 9.48371849613448559e-01
15 107 9.44724985804980211e-01
16 107 9.41149629130011656e-01
17 107 9.37645779588542005e-01
18 107 9.34213437180572037e-01
19 107 9.30852601906101196e-01
20 107 9.27563273765129370e-01
21 107 9.24345452757657671e-01
22 107 9.21199138883684987e-01
23 107 9.18124332143211874e-01
24 107 9.15121032536237999e-01
25 107 9.12189240062763695e-01
26 107 9.09328954722788296e-01
27 107 9.06540176516312801e-01
28 107 9.03822905443336211e-01
29 107 9.01177141503859414e-01
30 107 8.98602884697881632e-01
31 107 8.96100135025403310e-01
32 107 8.93668892486424227e-01
33 107 8.91309157080944603e-01
34 107 8.89020928808964550e-01
35 107 8.86804207670484401e-01
36 107 8.84658993665502491e-01
37 107 8.82585286794020596e-01
38 107 8.80583087056038494e-01
39 107 8.78652394451554852e-01
40 107 8.76793208980570893e-01
41 107 8.75005530643086615e-01
42 107 8.73289359439101798e-01
43 107 8.71644695368615885e-01
44 107 8.70071538431629321e-01
45 107 8.68569888628142661e-01
46 107 8.67139745958155239e-01
47 107 8.65781110421667055e-01
48 107 8.64493982018677887e-01
49 107 8.63278360749188511e-01
50 107 8.62134246613198485e-01
51 107 8.61061639610707807e-01
52 107 8.60060539741716368e-01
53 107 8.59130947006224610e-01
54 107 8.58272861404231979e-01
55 107 8.57486282935739363e-01
56 107 8.56771211600745097e-01
57 107 8.56127647399250846e-01
58 107 8.55555590331255722e-01
59 107 8.55055040396760169e-01
60 107 8.54625997595764075e-01
61 107 8.54268461928267220e-01
62 107 8.53982433394269380e-01
63 107 8.53767911993771444e-01
64 107 8.53624897726772525e-01
65 107 8.53553390593273065e-01
66 107 8.53553390593273065e-01
67 107 8.53624897726772525e-01
68 107 8.53767911993771333e-01
69 107 8.53982433394269380e-01
70 107 8.54268461928267220e-01
71 107 8.54625997595764075e-01
72 107 8.55055040396760058e-01
73 107 8.55555590331255611e-01
74 107 8.56127647399250735e-01
75 107 8.56771211600744986e-01
76 107 8.57486282935739141e-01
77 107 8.58272861404231868e-01
78 107 8.59130947006224610e-01
79 107 8.60060539741716368e-01
80 107 8.61061639610707696e-01
81 107 8.62134246613198485e-01
82 107 8.63278360749188400e-01
83 107 8.64493982018677887e-01
84 107 8.65781110421666833e-01
85 107 8.67139745958155239e-01
86 107 8.68569888628142550e-01
87 107 8.70071538431629099e-01
88 107 8.71644695368615885e-01
89 107 8.73289359439101687e-01
90 107 8.75005530643086615e-01
91 107 8.76793208980570893e-01
92 107 8.78652394451554963e-01
93 107 8.80583087056038494e-01
94 107 8.82585286794020485e-01
95 107 8.84658993665502491e-01
96 107 8.86804207670484290e-01
97 107 8.89020928808964550e-01
98 107 8.91309157080944603e-01
99 107 8.93668892486424227e-01
100 107 8.96100135025403199e-01
101 107 8.98602884697881410e-01
102 107 9.01177141503859191e-01
103 107 9.03822905443336100e-01
104 107 9.06540176516312579e-01
105 107 9.09328954722788074e-01
106 107 9.12189240062763362e-01
107 107 9.15121032536237777e-01
108 107 9.18124332143211763e-01
109 107 9.21199138883684876e-01
110 107 9.24345452757657560e-01
111 107 9.27563273765129259e-01
112 107 9.30852601906101196e-01
113 107 9.34213437180572037e-01
114 107 9.37645779588542228e-01
115 107 9.41149629130011878e-01
116 107 9.44724985804980655e-01
117 107 9.48371849613448781e-01
118 107 9.52090220555416811e-01
119 107 9.55880098630883523e-01
120 107 9.59741483839850029e-01
121 107 9.63674376182315662e-01
122 107 9.67678775658281087e-01
123 107 9.71754682267745529e-01
124 107 9.75902096010709541e-01
125 107 9.80121016887172791e-01
126 107 9.84411444897135723e-01
127 107 9.88773380040597671e-01
128 107 9.93206822317558968e-01
129 107 9.97711771728019836e-01
130 107 1.00000000000000000e+00
1 108 1.00000000000000000e+00
2 108 9.97711771728019836e-01
3 108 9.93206822317559190e-01
4 108 9.88773380040597560e-01
5 108 9.84411444897135390e-01
6 108 9.80121016887172680e-01
7 108 9.75902096010709208e-01
8 108 9.71754682267745307e-01
9 108 9.67678775658280643e-01
10 108 9.63674376182315329e-01
11 108 9.59741483839849807e-01
12 108 9.55880098630883301e-01
13 108 9.52090220555416367e-01
14 108 9.48371849613448559e-01
15 108 9.44724985804980211e-01
16 108 9.41149629130011656e-01
17 108 9.37645779588542005e-01
18 108 9.34213437180572037e-01
19 108 9.30852601906101085e-01
20 108 9.27563273765129370e-01
21 108 9.24345452757657671e-01
22 108 9.21199138883684987e-01
23 108 9.18124332143211874e-01
24 108 9.15121032536237999e-01
25 108 9.12189240062763695e-01
26 108 9.09328954722788296e-01
27 108 9.06540176516312801e-01
28 108 9.03822905443336211e-01
29 108 9.01177141503859414e-01
30 108 8.98602884697881632e-01
31 108 8.96100135025403310e-01
32 108 8.93668892486424227e-01
33 108 8.91309157080944603e-01
34 108 8.89020928808964550e-01
35 108 8.86804207670484401e-01
36 108 8.84658993665502602e-01
37 108 8.82585286794020596e-01
38 108 8.80583087056038494e-01
39 108 8.78652394451554852e-01
40 108 8.76793208980570893e-01
41 108 8.75005530643086615e-01
42 108 8.73289359439101798e-01
43 108 8.71644695368615996e-01
44 108 8.70071538431629321e-01
45 108 8.68569888628142661e-01
46 108 8.67139745958155239e-01
47 108 8.65781110421667055e-01
48 108 8.64493982018677887e-01
49 108 8.63278360749188511e-01
50 108 8.62134246613198485e-01
51 108 8.61061639610707807e-01
52 108 8.60060539741716368e-01
53 108 8.59130947006224610e-01
54 108 8.58272861404231979e-01
55 108 8.57486282935739474e-01
56 108 8.56771211600745097e-01
57 108 8.56127647399250846e-01
58 108 8.55555590331255722e-01
59 108 8.55055040396760169e-01
60 108 8.54625997595764075e-01
61 108 8.54268461928267220e-01
62 108 8.53982433394269380e-01
63 108 8.53767911993771444e-01
64 108 8.53624897726772525e-01
65 108 8.53553390593273065e-01
66 108 8.53553390593273065e-01
67 108 8.53624897726772525e-01
68 108 8.53767911993771333e-01
69 108 8.53982433394269380e-01
70 108 8.54268461928267220e-01
71 108 8.54625997595764075e-01
72 108 8.55055040396760058e-01
73 108 8.55555590331255611e-01
74 108 8.56127647399250735e-01
75 108 8.56771211600744986e-01
76 108 8.57486282935739252e-01
77 108 8.58272861404231868e-01
78 108 8.59130947006224610e-01
79 108 8.60060539741716368e-01
80 108 8.61061639610707696e-01
81 108 8.62134246613198485e-01
82 108 8.63278360749188400e-01
83 108 8.64493982018677887e-01
84 108 8.65781110421666944e-01
85 108 8.67139745958155239e-01
86 108 8.68569888628142550e-01
87 108 8.70071538431629099e-01
88 108 8.71644695368615885e-01
89 108 8.73289359439101687e-01
90 108 8.75005530643086615e-01
91 108 8.76793208980570893e-01
92 108 8.78652394451554963e-01
93 108 8.80583087056038494e-01
94 108 8.82585286794020485e-01
95 108 8.84658993665502491e-01
96 108 8.86804207670484290e-01
97 108 8.89020928808964550e-01
98 108 8.91309157080944603e-01
99 108 8.93668892486424227e-01
100 108 8.96100135025403199e-01
101 108 8.98602884697881410e-01
102 108 9.01177141503859191e-01
103 108 9.03822905443336100e-01
104 108 9.06540176516312579e-01
105 108 9.09328954722788074e-01
106 108 9.12189240062763362e-01
107 108 9.15121032536237777e-01
108 108 9.18124332143211763e-01
109 108 9.21199138883684876e-01
110 108 9.24345452757657560e-01
111 108 9.27563273765129259e-01
112 108 9.30852601906101085e-01
113 108 9.34213437180572037e-01
114 108 9.37645779588542228e-01
115 108 9.41149629130011878e-01
116 108 9.44724985804980655e-01
117 108 9.48371849613448781e-01
118 108 9.52090220555416811e-01
119 108 9.55880098630883523e-01
120 108 9.59741483839850029e-01
121 108 9.63674376182315662e-01
122 108 9.67678775658281087e-01
123 108 9.71754682267745529e-01
124 108 9.75902096010709541e-01
125 108 9.80121016887172791e-01
126 108 9.84411444897135723e-01
127 108 9.88773380040597782e-01
128 108 9.93206822317558968e-01
129 108 9.97711771728019836e-01
130 108 1.00000000000000000e+00
1 109 1.00000000000000000e+00
2 109 9.97711771728019836e-01
3 109 9.93206822317559190e-01
4 109 9.88773380040597560e-01
5 109 9.84411444897135279e-01
6 109 9.80121016887172680e-01
7 109 9.75902096010709208e-01
8 109 9.71754682267745196e-01
9 109 9.67678775658280532e-01
10 109 9.63674376182315329e-01
11 109 9.59741483839849696e-01
12 109 9.55880098630883190e-01
13 109 9.52090220555416367e-01
14 109 9.48371849613448559e-01
15 109 9.44724985804980100e-01
16 109 9.41149629130011545e-01
17 109 9.37645779588541894e-01
18 109 9.34213437180572037e-01
19 109 9.30852601906100974e-01
20 109 9.27563273765129370e-01
21 109 9.24345452757657671e-01
22 109 9.21199138883684987e-01
23 109 9.18124332143211763e-01
24 109 9.15121032536237999e-01
25 109 9.12189240062763584e-01
26 109 9.09328954722788296e-01
27 109 9.06540176516312801e-01
28 109 9.03822905443336211e-01
29 109 9.01177141503859414e-01
30 109 8.98602884697881632e-01
31 109 8.96100135025403310e-01
32 109 8.93668892486424227e-01
33 109 8.91309157080944603e-01
34 109 8.89020928808964550e-01
35 109 8.86804207670484290e-01
36 109 8.84658993665502602e-01
37 109 8.82585286794020596e-01
38 109 8.80583087056038494e-01
39 109 8.78652394451554852e-01
40 109 8.76793208980570893e-01
41 109 8.75005530643086615e-01
42 109 8.73289359439101687e-01
43 109 8.71644695368615996e-01
44 109 8.70071538431629321e-01
45 109 8.68569888628142550e-01
46 109 8.67139745958155239e-01
47 109 8.65781110421666944e-01
48 109 8.64493982018677887e-01
49 109 8.63278360749188511e-01
50 109 8.62134246613198485e-01
51 109 8.61061639610707696e-01
52 109 8.60060539741716368e-01
53 109 8.59130947006224610e-01
54 109 8.58272861404231868e-01
55 109 8.57486282935739363e-01
56 109 8.56771211600745097e-01
57 109 8.56127647399250846e-01
58 109 8.55555590331255611e-01
59 109 8.55055040396760058e-01
60 109 8.54625997595764075e-01
61 109 8.54268461928267109e-01
62 109 8.53982433394269380e-01
63 109 8.53767911993771444e-01
64 109 8.53624897726772525e-01
65 109 8.53553390593272954e-01
66 109 8.53553390593272954e-01
67 109 8.53624897726772525e-01
68 109 8.53767911993771333e-01
69 109 8.53982433394269380e-01
70 109 8.54268461928267109e-01
71 109 8.54625997595764075e-01
72 109 8.55055040396759947e-01
73 109 8.55555590331255611e-01
74 109 8.56127647399250735e-01
75 109 8.56771211600744986e-01
76 109 8.57486282935739141e-01
77 109 8.58272861404231757e-01
78 109 8.59130947006224610e-01
79 109 8.60060539741716368e-01
80 109 8.61061639610707585e-01
81 109 8.62134246613198485e-01
82 109 8.63278360749188400e-01
83 109 8.64493982018677887e-01
84 109 8.65781110421666833e-01
85 109 8.67139745958155239e-01
86 109 8.68569888628142439e-01
87 109 8.70071538431628988e-01
88 109 8.71644695368615885e-01
89 109 8.73289359439101576e-01
90 109 8.75005530643086615e-01
91 109 8.76793208980570893e-01
92 109 8.78652394451554963e-01
93 109 8.80583087056038494e-01
94 109 8.82585286794020485e-01
95 109 8.84658993665502491e-01
96 109 8.86804207670484179e-01
97 109 8.89020928808964550e-01
98 109 8.91309157080944603e-01
99 109 8.93668892486424227e-01
100 109 8.96100135025403199e-01
101 109 8.98602884697881410e-01
102 109 9.01177141503859191e-01
103 109 9.03822905443335989e-01
104 109 9.06540176516312579e-01
105 109 9.09328954722788074e-01
106 109 9.12189240062763251e-01
107 109 9.15121032536237777e-01
108 109 9.18124332143211652e-01
109 109 9.21199138883684876e-01
110 109 9.24345452757657560e-01
111 109 9.27563273765129259e-01
112 109 9.30852601906100974e-01
113 109 9.34213437180572037e-01
114 109 9.37645779588542116e-01
115 109 9.41149629130011767e-01
116 109 9.44724985804980544e-01
117 109 9.48371849613448781e-01
118 109 9.52090220555416811e-01
119 109 9.55880098630883412e-01
120 109 9.59741483839850029e-01
121 109 9.63674376182315662e-01
122 109 9.67678775658280976e-01
123 109 9.71754682267745418e-01
124 109 9.75902096010709541e-01
125 109 9.80121016887172791e-01
126 109 9.84411444897135612e-01
127 109 9.88773380040597671e-01
128 109 9.93206822317558968e-01
129 109 9.97711771728019836e-01
130 109 1.00000000000000000e+00
1 110 1.00000000000000000e+00
2 110 9.97711771728019836e-01
3 110 9.93206822317559190e-01
4 110 9.88773380040597560e-01
5 110 9.84411444897135279e-01
6 110 9.80121016887172569e-01
7 110 9.75902096010709208e-01
8 110 9.71754682267745196e-01
9 110 9.67678775658280532e-01
10 110 9.63674376182315329e-01
11 110 9.59741483839849696e-01
12 110 9.55880098630883190e-01
13 110 9.52090220555416367e-01
14 110 9.48371849613448559e-01
15 110 9.44724985804980100e-01
16 110 9.41149629130011545e-01
17 110 9.37645779588541894e-01
18 110 9.34213437180572037e-01
19 110 9.30852601906100974e-01
20 110 9.27563273765129370e-01
21 110 9.24345452757657671e-01
22 110 9.21199138883684987e-01
23 110 9.18124332143211763e-01
24 110 9.15121032536237999e-01
25 110 9.12189240062763584e-01
26 110 9.09328954722788296e-01
27 110 9.06540176516312801e-01
28 110 9.03822905443336211e-01
29 110 9.01177141503859414e-01
30 110 8.98602884697881632e-01
31 110 8.96100135025403310e-01
32 110 8.93668892486424227e-01
33 110 8.91309157080944603e-01
34 110 8.89020928808964550e-01
35 110 8.86804207670484290e-01
36 110 8.84658993665502602e-01
37 110 8.82585286794020596e-01
38 110 8.80583087056038494e-01
39 110 8.78652394451554852e-01
40 110 8.76793208980570893e-01
41 110 8.75005530643086504e-01
42 110 8.73289359439101687e-01
43 110 8.71644695368615996e-01
44 110 8.70071538431629321e-01
45 110 8.68569888628142550e-01
46 110 8.67139745958155239e-01
47 110 8.65781110421666944e-01
48 110 8.64493982018677887e-01
49 110 8.63278360749188511e-01
50 110 8.62134246613198485e-01
51 110 8.61061639610707696e-01
52 110 8.60060539741716368e-01
53 110 8.59130947006224610e-01
54 110 8.58272861404231868e-01
55 110 8.57486282935739363e-01
56 110 8.56771211600745097e-01
57 110 8.56127647399250846e-01
58 110 8.55555590331255611e-01
59 110 8.55055040396760058e-01
60 110 8.54625997595764075e-01
61 110 8.54268461928267109e-01
62 110 8.53982433394269380e-01
63 110 8.53767911993771444e-01
64 110 8.53624897726772525e-01
65 110 8.53553390593272954e-01
66 110 8.53553390593272954e-01
67 110 8.53624897726772525e-01
68 110 8.53767911993771333e-01
69 110 8.53982433394269380e-01
70 110 8.54268461928267109e-01
71 110 8.54625997595764075e-01
72 110 8.55055040396759947e-01
73 110 8.55555590331255500e-01
74 110 8.56127647399250735e-01
75 110 8.56771211600744986e-01
76 110 8.57486282935739141e-01
77 110 8.58272861404231757e-01
78 110 8.59130947006224610e-01
79 110 8.60060539741716368e-01
80 110 8.61061639610707585e-01
81 110 8.62134246613198485e-01
82 110 8.63278360749188400e-01
83 110 8.64493982018677887e-01
84 110 8.65781110421666833e-01
85 110 8.67139745958155239e-01
86 110 8.68569888628142439e-01
87 110 8.70071538431628988e-01
88 110 8.71644695368615885e-01
89 110 8.73289359439101576e-01
90 110 8.75005530643086504e-01
91 110 8.76793208980570893e-01
92 110 8.78652394451554963e-01
93 110 8.80583087056038494e-01
94 110 8.82585286794020485e-01
95 110 8.84658993665502491e-01
96 110 8.86804207670484179e-01
97 110 8.89020928808964550e-01
98 110 8.91309157080944603e-01
99 110 8.93668892486424227e-01
100 110 8.96100135025403199e-01
101 110 8.98602884697881410e-01
102 110 9.01177141503859191e-01
103 110 9.03822905443335989e-01
104 110 9.06540176516312579e-01
105 110 9.09328954722788074e-01
106 110 9.12189240062763251e-01
107 110 9.15121032536237777e-01
108 110 9.18124332143211652e-01
109 110 9.21199138883684876e-01
110 110 9.24345452757657560e-01
111 110 9.27563273765129259e-01
112 110 9.30852601906100974e-01
113 110 9.34213437180572037e-01
114 110 9.37645779588542116e-01
115 110 9.41149629130011767e-01
116 110 9.44724985804980544e-01
117 110 9.48371849613448781e-01
118 110 9.52090220555416811e-01
119 110 9.55880098630883412e-01
120 110 9.59741483839850029e-01
121 110 9.63674376182315662e-01
122 110 9.67678775658280976e-01
123 110 9.71754682267745418e-01
124 110 9.75902096010709541e-01
125 110 9.80121016887172791e-01
126 110 9.84411444897135612e-01
127 110 9.88773380040597671e-01
128 110 9.93206822317558968e-01
129 110 9.97711771728019836e-01
130 110 1.00000000000000000e+00
1 111 1.00000000000000000e+00
2 111 9.97711771728019836e-01
3 111 9.93206822317559301e-01
4 111 9.88773380040597560e-01
5 111 9.84411444897135168e-01
6 111 9.80121016887172569e-01
7 111 9.75902096010709208e-01
8 111 9.71754682267745196e-01
9 111 9.67678775658280532e-01
10 111 9.63674376182315329e-01
11 111 9.59741483839849696e-01
12 111 9.55880098630883190e-01
13 111 9.52090220555416367e-01
14 111 9.48371849613448559e-01
15 111 9.44724985804980100e-01
16 111 9.41149629130011545e-01
17 111 9.37645779588541894e-01
18 111 9.34213437180572037e-01
19 111 9.30852601906100974e-01
20 111 9.27563273765129370e-01
21 111 9.24345452757657782e-01
22 111 9.21199138883684987e-01
23 111 9.18124332143211763e-01
24 111 9.15121032536237999e-01
25 111 9.12189240062763584e-01
26 111 9.09328954722788185e-01
27 111 9.06540176516312801e-01
28 111 9.03822905443336322e-01
29 111 9.01177141503859414e-01
30 111 8.98602884697881632e-01
31 111 8.96100135025403310e-01
32 111 8.93668892486424227e-01
33 111 8.91309157080944603e-01
34 111 8.89020928808964550e-01
35 111 8.86804207670484290e-01
36 111 8.84658993665502602e-01
37 111 8.82585286794020596e-01
38 111 8.80583087056038494e-01
39 111 8.78652394451554852e-01
40 111 8.76793208980570893e-01
41 111 8.75005530643086504e-01
42 111 8.73289359439101687e-01
43 111 8.71644695368615996e-01
44 111 8.70071538431629321e-01
45 111 8.68569888628142550e-01
46 111 8.67139745958155239e-01
47 111 8.65781110421666944e-01
48 111 8.64493982018677887e-01
49 111 8.63278360749188511e-01
50 111 8.62134246613198485e-01
51 111 8.61061639610707696e-01
52 111 8.60060539741716368e-01
53 111 8.59130947006224721e-01
54 111 8.58272861404231868e-01
55 111 8.57486282935739363e-01
56 111 8.56771211600745097e-01
57 111 8.56127647399250846e-01
58 111 8.55555590331255611e-01
59 111 8.55055040396760058e-01
60 111 8.54625997595764075e-01
61 111 8.54268461928267109e-01
62 111 8.53982433394269380e-01
63 111 8.53767911993771444e-01
64 111 8.53624897726772525e-01
65 111 8.53553390593272954e-01
66 111 8.53553390593272954e-01
67 111 8.53624897726772525e-01
68 111 8.53767911993771333e-01
69 111 8.53982433394269380e-01
70 111 8.54268461928267109e-01
71 111 8.54625997595764075e-01
72 111 8.55055040396759947e-01
73 111 8.55555590331255500e-01
74 111 8.56127647399250735e-01
75 111 8.56771211600744986e-01
76 111 8.57486282935739141e-01
77 111 8.58272861404231757e-01
78 111 8.59130947006224610e-01
79 111 8.60060539741716368e-01
80 111 8.61061639610707585e-01
81 111 8.62134246613198485e-01
82 111 8.63278360749188400e-01
83 111 8.64493982018677887e-01
84 111 8.65781110421666833e-01
85 111 8.67139745958155239e-01
86 111 8.68569888628142439e-01
87 111 8.70071538431628988e-01
88 111 8.71644695368615885e-01
89 111 8.73289359439101576e-01
90 111 8.75005530643086504e-01
91 111 8.76793208980570893e-01
92 111 8.78652394451554963e-01
93 111 8.80583087056038494e-01
94 111 8.82585286794020485e-01
95 111 8.84658993665502491e-01
96 111 8.86804207670484179e-01
97 111 8.89020928808964550e-01
98 111 8.91309157080944603e-01
99 111 8.93668892486424227e-01
100 111 8.96100135025403199e-01
101 111 8.98602884697881410e-01
102 111 9.01177141503859191e-01
103 111 9.03822905443335989e-01
104 111 9.06540176516312579e-01
105 111 9.09328954722788074e-01
106 111 9.12189240062763251e-01
107 111 9.15121032536237777e-01
108 111 9.18124332143211652e-01
109 111 9.21199138883684876e-01
110 111 9.24345452757657560e-01
111 111 9.27563273765129259e-01
112 111 9.30852601906100974e-01
113 111 9.34213437180572037e-01
114 111 9.37645779588542116e-01
115 111 9.41149629130011767e-01
116 111 9.44724985804980544e-01
117 111 9.48371849613448781e-01
118 111 9.52090220555416811e-01
119 111 9.55880098630883412e-01
120 111 9.59741483839850029e-01
121 111 9.63674376182315662e-01
122 111 9.67678775658280976e-01
123 111 9.71754682267745418e-01
124 111 9.75902096010709541e-01
125 111 9.80121016887172791e-01
126 111 9.84411444897135612e-01
127 111 9.88773380040597671e-01
128 111 9.93206822317559079e-01
129 111 9.97711771728019836e-01
130 111 1.00000000000000000e+00
1 112 1.00000000000000000e+00
2 112 9.97711771728019836e-01
3 112 9.93206822317559301e-01
4 112 9.88773380040597560e-01
5 112 9.84411444897135279e-01
6 112 9.80121016887172569e-01
7 112 9.75902096010709319e-01
8 112 9.71754682267745196e-01
9 112 9.67678775658280532e-01
10 112 9.63674376182315440e-01
11 112 9.59741483839849696e-01
12 112 9.55880098630883190e-01
13 112 9.52090220555416367e-01
14 112 9.48371849613448559e-01
15 112 9.44724985804980100e-01
16 112 9.41149629130011545e-01
17 112 9.37645779588542005e-01
18 112 9.34213437180572037e-01
19 112 9.30852601906100974e-01
20 112 9.27563273765129481e-01
21 112 9.24345452757657782e-01
22 112 9.21199138883684987e-01
23 112 9.18124332143211874e-01
24 112 9.15121032536237999e-01
25 112 9.12189240062763584e-01
26 112 9.09328954722788185e-01
27 112 9.06540176516312801e-01
28 112 9.03822905443336322e-01
29 112 9.01177141503859414e-01
30 112 8.98602884697881743e-01
31 112 8.96100135025403310e-01
32 112 8.93668892486424227e-01
33 112 8.91309157080944603e-01
34 112 8.89020928808964550e-01
35 112 8.86804207670484290e-01
36 112 8.84658993665502602e-01
37 112 8.82585286794020596e-01
38 112 8.80583087056038494e-01
39 112 8.78652394451554852e-01
40 112 8.76793208980570893e-01
41 112 8.75005530643086504e-01
42 112 8.73289359439101687e-01
43 112 8.71644695368615996e-01
44 112 8.70071538431629321e-01
45 112 8.68569888628142661e-01
46 112 8.67139745958155239e-01
47 112 8.65781110421667055e-01
48 112 8.64493982018677998e-01
49 112 8.63278360749188622e-01
50 112 8.62134246613198485e-01
51 112 8.61061639610707696e-01
52 112 8.60060539741716479e-01
53 112 8.59130947006224721e-01
54 112 8.58272861404231868e-01
55 112 8.57486282935739363e-01
56 112 8.56771211600745208e-01
57 112 8.56127647399250846e-01
58 112 8.55555590331255722e-01
59 112 8.55055040396760058e-01
60 112 8.54625997595764075e-01
61 112 8.54268461928267109e-01
62 112 8.53982433394269491e-01
63 112 8.53767911993771444e-01
64 112 8.53624897726772525e-01
65 112 8.53553390593273065e-01
66 112 8.53553390593273065e-01
67 112 8.53624897726772525e-01
68 112 8.53767911993771333e-01
69 112 8.53982433394269491e-01
70 112 8.54268461928267109e-01
71 112 8.54625997595764075e-01
72 112 8.55055040396759947e-01
73 112 8.55555590331255611e-01
74 112 8.56127647399250735e-01
75 112 8.56771211600745097e-01
76 112 8.57486282935739141e-01
77 112 8.58272861404231757e-01
78 112 8.59130947006224610e-01
79 112 8.60060539741716479e-01
80 112 8.61061639610707585e-01
81 112 8.62134246613198485e-01
82 112 8.63278360749188511e-01
83 112 8.64493982018677998e-01
84 112 8.65781110421666944e-01
85 112 8.67139745958155239e-01
86 112 8.68569888628142550e-01
87 112 8.70071538431628988e-01
88 112 8.71644695368615885e-01
89 112 8.73289359439101576e-01
90 112 8.75005530643086504e-01
91 112 8.76793208980570893e-01
92 112 8.78652394451554963e-01
93 112 8.80583087056038494e-01
94 112 8.82585286794020485e-01
95 112 8.84658993665502491e-01
96 112 8.86804207670484179e-01
97 112 8.89020928808964550e-01
98 112 8.91309157080944603e-01
99 112 8.93668892486424227e-01
100 112 8.96100135025403199e-01
101 112 8.98602884697881410e-01
102 112 9.01177141503859191e-01
103 112 9.03822905443335989e-01
104 112 9.06540176516312579e-01
105 112 9.09328954722788074e-01
106 112 9.12189240062763251e-01
107 112 9.15121032536237777e-01
108 112 9.18124332143211652e-01
109 112 9.21199138883684876e-01
110 112 9.24345452757657671e-01
111 112 9.27563273765129370e-01
112 112 9.30852601906100974e-01
113 112 9.34213437180572037e-01
114 112 9.37645779588542228e-01
115 112 9.41149629130011767e-01
116 112 9.44724985804980544e-01
117 112 9.48371849613448781e-01
118 112 9.52090220555416811e-01
119 112 9.55880098630883412e-01
120 112 9.59741483839850029e-01
121 112 9.63674376182315773e-01
122 112 9.67678775658280976e-01
123 112 9.71754682267745418e-01
124 112 9.75902096010709652e-01
125 112 9.80121016887172791e-01
126 112 9.84411444897135723e-01
127 112 9.88773380040597671e-01
128 112 9.93206822317559079e-01
129 112 9.97711771728019836e-01
130 112 1.00000000000000000e+00
1 113 1.00000000000000000e+00
2 113 9.97711771728019947e-01
3 113 9.93206822317559301e-01
4 113 9.88773380040597671e-01
5 113 9.84411444897135279e-01
6 113 9.80121016887172680e-01
7 113 9.75902096010709319e-01
8 113 9.71754682267745307e-01
9 113 9.67678775658280643e-01
10 113 9.63674376182315551e-01
11 113 9.59741483839849807e-01
12 113 9.55880098630883301e-01
13 113 9.52090220555416478e-01
14 113 9.48371849613448670e-01
15 113 9.44724985804980211e-01
16 113 9.41149629130011656e-01
17 113 9.37645779588542005e-01
18 113 9.34213437180572148e-01
19 113 9.30852601906100974e-01
20 113 9.27563273765129592e-01
21 113 9.24345452757657782e-01
22 113 9.21199138883685098e-01
23 113 9.18124332143211874e-01
24 113 9.15121032536238110e-01
25 113 9.12189240062763584e-01
26 113 9.09328954722788185e-01
27 113 9.06540176516312801e-01
28 113 9.03822905443336322e-01
29 113 9.01177141503859414e-01
30 113 8.98602884697881743e-01
31 113 8.96100135025403421e-01
32 113 8.93668892486424227e-01
33 113 8.91309157080944714e-01
34 113 8.89020928808964661e-01
35 113 8.86804207670484290e-01
36 113 8.84658993665502713e-01
37 113 8.82585286794020596e-01
38 113 8.80583087056038494e-01
39 113 8.78652394451554852e-01
40 113 8.76793208980570893e-01
41 113 8.75005530643086615e-01
42 113 8.73289359439101798e-01
43 113 8.71644695368615996e-01
44 113 8.70071538431629432e-01
45 113 8.68569888628142661e-01
46 113 8.67139745958155239e-01
47 113 8.65781110421667166e-01
48 113 8.64493982018677998e-01
49 113 8.63278360749188622e-01
50 113 8.62134246613198485e-01
51 113 8.61061639610707696e-01
52 113 8.60060539741716479e-01
53 113 8.59130947006224832e-01
54 113 8.58272861404231979e-01
55 113 8.57486282935739363e-01
56 113 8.56771211600745208e-01
57 113 8.56127647399250846e-01
58 113 8.55555590331255722e-01
59 113 8.55055040396760058e-01
60 113 8.54625997595764186e-01
61 113 8.54268461928267109e-01
62 113 8.53982433394269491e-01
63 113 8.53767911993771556e-01
64 113 8.53624897726772636e-01
65 113 8.53553390593273065e-01
66 113 8.53553390593273065e-01
67 113 8.53624897726772636e-01
68 113 8.53767911993771444e-01
69 113 8.53982433394269491e-01
70 113 8.54268461928267109e-01
71 113 8.54625997595764186e-01
72 113 8.55055040396759947e-01
73 113 8.55555590331255611e-01
74 113 8.56127647399250735e-01
75 113 8.56771211600745097e-01
76 113 8.57486282935739141e-01
77 113 8.58272861404231868e-01
78 113 8.59130947006224721e-01
79 113 8.60060539741716479e-01
80 113 8.61061639610707585e-01
81 113 8.62134246613198485e-01
82 113 8.63278360749188511e-01
83 113 8.64493982018677998e-01
84 113 8.65781110421667055e-01
85 113 8.67139745958155239e-01
86 113 8.68569888628142550e-01
87 113 8.70071538431629099e-01
88 113 8.71644695368615885e-01
89 113 8.73289359439101687e-01
90 113 8.75005530643086615e-01
91 113 8.76793208980570893e-01
92 113 8.78652394451554963e-01
93 113 8.80583087056038494e-01
94 113 8.82585286794020485e-01
95 113 8.84658993665502602e-01
96 113 8.86804207670484179e-01
97 113 8.89020928808964661e-01
98 113 8.91309157080944714e-01
99 113 8.93668892486424227e-01
100 113 8.96100135025403310e-01
101 113 8.98602884697881410e-01
102 113 9.01177141503859191e-01
103 113 9.03822905443335989e-01
104 113 9.06540176516312579e-01
105 113 9.09328954722788074e-01
106 113 9.12189240062763251e-01
107 113 9.15121032536237888e-01
108 113 9.18124332143211652e-01
109 113 9.21199138883684987e-01
110 113 9.24345452757657671e-01
111 113 9.27563273765129481e-01
112 113 9.30852601906100974e-01
113 113 9.34213437180572148e-01
114 113 9.37645779588542228e-01
115 113 9.41149629130011878e-01
116 113 9.44724985804980655e-01
117 113 9.48371849613448892e-01
118 113 9.52090220555416922e-01
119 113 9.55880098630883523e-01
120 113 9.59741483839850140e-01
121 113 9.63674376182315884e-01
122 113 9.67678775658280976e-01
123 113 9.71754682267745529e-01
124 113 9.75902096010709652e-01
125 113 9.80121016887172902e-01
126 113 9.84411444897135723e-01
127 113 9.88773380040597782e-01
128 113 9.93206822317559079e-01
129 113 9.97711771728019947e-01
130 113 1.00000000000000000e+00
1 114 1.00000000000000000e+00
2 114 9.97711771728019947e-01
3 114 9.93206822317559301e-01
4 114 9.88773380040597671e-01
5 114 9.84411444897135279e-01
6 114 9.80121016887172791e-01
7 114 9.75902096010709319e-01
8 114 9.71754682267745418e-01
9 114 9.67678775658280643e-01
10 114 9.63674376182315551e-01
11 114 9.59741483839849807e-01
12 114 9.55880098630883301e-01
13 114 9.52090220555416478e-01
14 114 9.48371849613448670e-01
15 114 9.44724985804980211e-01
16 114 9.41149629130011656e-01
17 114 9.37645779588542005e-01
18 114 9.34213437180572148e-01
19 114 9.30852601906100974e-01
20 114 9.27563273765129703e-01
21 114 9.24345452757657782e-01
22 114 9.21199138883685098e-01
23 114 9.18124332143211985e-01
24 114 9.15121032536238110e-01
25 114 9.12189240062763584e-01
26 114 9.09328954722788185e-01
27 114 9.06540176516312801e-01
28 114 9.03822905443336322e-01
29 114 9.01177141503859414e-01
30 114 8.98602884697881854e-01
31 114 8.96100135025403421e-01
32 114 8.93668892486424227e-01
33 114 8.91309157080944825e-01
34 114 8.89020928808964772e-01
35 114 8.86804207670484290e-01
36 114 8.84658993665502824e-01
37 114 8.82585286794020596e-01
38 114 8.80583087056038494e-01
39 114 8.78652394451554852e-01
40 114 8.76793208980571004e-01
41 114 8.75005530643086615e-01
42 114 8.73289359439101798e-01
43 114 8.71644695368615996e-01
44 114 8.70071538431629543e-01
45 114 8.68569888628142661e-01
46 114 8.67139745958155239e-01
47 114 8.65781110421667166e-01
48 114 8.64493982018678109e-01
49 114 8.63278360749188622e-01
50 114 8.62134246613198485e-01
51 114 8.61061639610707696e-01
52 114 8.60060539741716590e-01
53 114 8.59130947006224832e-01
54 114 8.58272861404231979e-01
55 114 8.57486282935739363e-01
56 114 8.56771211600745208e-01
57 114 8.56127647399250957e-01
58 114 8.55555590331255833e-01
59 114 8.55055040396760169e-01
60 114 8.54625997595764186e-01
61 114 8.54268461928267109e-01
62 114 8.53982433394269491e-01
63 114 8.53767911993771556e-01
64 114 8.53624897726772636e-01
65 114 8.53553390593273065e-01
66 114 8.53553390593273065e-01
67 114 8.53624897726772636e-01
68 114 8.53767911993771444e-01
69 114 8.53982433394269491e-01
70 114 8.54268461928267109e-01
71 114 8.54625997595764186e-01
72 114 8.55055040396759947e-01
73 114 8.55555590331255722e-01
74 114 8.56127647399250846e-01
75 114 8.56771211600745097e-01
76 114 8.57486282935739141e-01
77 114 8.58272861404231868e-01
78 114 8.59130947006224721e-01
79 114 8.60060539741716590e-01
80 114 8.61061639610707585e-01
81 114 8.62134246613198485e-01
82 114 8.63278360749188511e-01
83 114 8.64493982018678109e-01
84 114 8.65781110421667055e-01
85 114 8.67139745958155239e-01
86 114 8.68569888628142550e-01
87 114 8.70071538431629210e-01
88 114 8.71644695368615885e-01
89 114 8.73289359439101687e-01
90 114 8.75005530643086615e-01
91 114 8.76793208980571004e-01
92 114 8.78652394451554963e-01
93 114 8.80583087056038494e-01
94 114 8.82585286794020485e-01
95 114 8.84658993665502602e-01
96 114 8.86804207670484290e-01
97 114 8.89020928808964772e-01
98 114 8.91309157080944825e-01
99 114 8.93668892486424227e-01
100 114 8.96100135025403310e-01
101 114 8.98602884697881521e-01
102 114 9.01177141503859191e-01
103 114 9.03822905443335989e-01
104 114 9.06540176516312579e-01
105 114 9.09328954722788074e-01
106 114 9.12189240062763251e-01
107 114 9.15121032536237888e-01
108 114 9.18124332143211763e-01
109 114 9.21199138883684987e-01
110 114 9.24345452757657671e-01
111 114 9.27563273765129592e-01
112 114 9.30852601906100974e-01
113 114 9.34213437180572148e-01
114 114 9.37645779588542228e-01
115 114 9.41149629130011878e-01
116 114 9.44724985804980655e-01
117 114 9.48371849613448892e-01
118 114 9.52090220555416922e-01
119 114 9.55880098630883523e-01
120 114 9.59741483839850140e-01
121 114 9.63674376182315884e-01
122 114 9.67678775658280976e-01
123 114 9.71754682267745640e-01
124 114 9.75902096010709652e-01
125 114 9.80121016887173013e-01
126 114 9.84411444897135723e-01
127 114 9.88773380040597782e-01
128 114 9.93206822317559079e-01
129 114 9.97711771728019947e-01
130 114 1.00000000000000000e+00
1 115 1.00000000000000000e+00
2 115 9.97711771728019947e-01
3 115 9.93206822317559301e-01
4 115 9.88773380040597671e-01
5 115 9.84411444897135390e-01
6 115 9.80121016887172902e-01
7 115 9.75902096010709430e-01
8 115 9.71754682267745418e-01
9 115 9.67678775658280643e-01
10 115 9.63674376182315551e-01
11 115 9.59741483839849807e-01
12 115 9.55880098630883301e-01
13 115 9.52090220555416478e-01
14 115 9.48371849613448670e-01
15 115 9.44724985804980322e-01
16 115 9.41149629130011767e-01
17 115 9.37645779588542116e-01
18 115 9.34213437180572148e-01
19 115 9.30852601906100974e-01
20 115 9.27563273765129703e-01
21 115 9.24345452757657893e-01
22 115 9.21199138883685098e-01
23 115 9.18124332143211985e-01
24 115 9.15121032536238110e-01
25 115 9.12189240062763584e-01
26 115 9.09328954722788185e-01
27 115 9.06540176516312801e-01
28 115 9.03822905443336433e-01
29 115 9.01177141503859414e-01
30 115 8.98602884697881854e-01
31 115 8.96100135025403532e-01
32 115 8.93668892486424338e-01
33 115 8.91309157080944936e-01
34 115 8.89020928808964883e-01
35 115 8.86804207670484401e-01
36 115 8.84658993665502824e-01
37 115 8.82585286794020707e-01
38 115 8.80583087056038494e-01
39 115 8.78652394451554963e-01
40 115 8.76793208980571004e-01
41 115 8.75005530643086615e-01
42 115 8.73289359439101798e-01
43 115 8.71644695368615996e-01
44 115 8.70071538431629654e-01
45 115 8.68569888628142661e-01
46 115 8.67139745958155239e-01
47 115 8.65781110421667166e-01
48 115 8.64493982018678109e-01
49 115 8.63278360749188733e-01
50 115 8.62134246613198485e-01
51 115 8.61061639610707696e-01
52 115 8.60060539741716590e-01
53 115 8.59130947006224832e-01
54 115 8.58272861404232090e-01
55 115 8.57486282935739363e-01
56 115 8.56771211600745208e-01
57 115 8.56127647399251068e-01
58 115 8.55555590331255833e-01
59 115 8.55055040396760169e-01
60 115 8.54625997595764186e-01
61 115 8.54268461928267220e-01
62 115 8.53982433394269491e-01
63 115 8.53767911993771667e-01
64 115 8.53624897726772636e-01
65 115 8.53553390593273176e-01
66 115 8.53553390593273176e-01
67 115 8.53624897726772636e-01
68 115 8.53767911993771556e-01
69 115 8.53982433394269491e-01
70 115 8.54268461928267220e-01
71 115 8.54625997595764186e-01
72 115 8.55055040396759947e-01
73 115 8.55555590331255722e-01
74 115 8.56127647399250957e-01
75 115 8.56771211600745097e-01
76 115 8.57486282935739141e-01
77 115 8.58272861404231979e-01
78 115 8.59130947006224721e-01
79 115 8.60060539741716590e-01
80 115 8.61061639610707585e-01
81 115 8.62134246613198485e-01
82 115 8.63278360749188622e-01
83 115 8.64493982018678109e-01
84 115 8.65781110421667055e-01
85 115 8.67139745958155239e-01
86 115 8.68569888628142550e-01
87 115 8.70071538431629321e-01
88 115 8.71644695368615885e-01
89 115 8.73289359439101687e-01
90 115 8.75005530643086615e-01
91 115 8.76793208980571004e-01
92 115 8.78652394451555074e-01
93 115 8.80583087056038494e-01
94 115 8.82585286794020596e-01
95 115 8.84658993665502602e-01
96 115 8.86804207670484290e-01
97 115 8.89020928808964883e-01
98 115 8.91309157080944936e-01
99 115 8.93668892486424338e-01
100 115 8.96100135025403421e-01
101 115 8.98602884697881521e-01
102 115 9.01177141503859191e-01
103 115 9.03822905443336100e-01
104 115 9.06540176516312579e-01
105 115 9.09328954722788074e-01
106 115 9.12189240062763251e-01
107 115 9.15121032536237888e-01
108 115 9.18124332143211763e-01
109 115 9.21199138883684987e-01
110 115 9.24345452757657671e-01
111 115 9.27563273765129592e-01
112 115 9.30852601906100974e-01
113 115 9.34213437180572148e-01
114 115 9.37645779588542228e-01
115 115 9.41149629130011989e-01
116 115 9.44724985804980766e-01
117 115 9.48371849613448892e-01
118 115 9.52090220555416922e-01
119 115 9.55880098630883523e-01
120 115 9.59741483839850140e-01
121 115 9.63674376182315884e-01
122 115 9.67678775658280976e-01
123 115 9.71754682267745640e-01
124 115 9.75902096010709652e-01
125 115 9.80121016887173124e-01
126 115 9.84411444897135723e-01
127 115 9.88773380040597782e-01
128 115 9.93206822317559079e-01
129 115 9.97711771728019947e-01
130 115 1.00000000000000000e+00
1 116 1.00000000000000000e+00
2 116 9.97711771728019947e-01
3 116 9.93206822317559301e-01
4 116 9.88773380040597671e-01
5 116 9.84411444897135501e-01
6 116 9.80121016887172902e-01
7 116 9.75902096010709430e-01
8 116 9.71754682267745418e-01
9 116 9.67678775658280643e-01
10 116 9.63674376182315662e-01
11 116 9.59741483839849807e-01
12 116 9.55880098630883301e-01
13 116 9.52090220555416478e-01
14 116 9.48371849613448670e-01
15 116 9.44724985804980322e-01
16 116 9.41149629130011767e-01
17 116 9.37645779588542116e-01
18 116 9.34213437180572148e-01
19 116 9.30852601906100974e-01
20 116 9.27563273765129703e-01
21 116 9.24345452757658004e-01
22 116 9.21199138883685098e-01
23 116 9.18124332143211985e-01
24 116 9.15121032536238110e-01
25 116 9.12189240062763584e-01
26 116 9.09328954722788185e-01
27 116 9.06540176516312801e-01
28 116 9.03822905443336433e-01
29 116 9.01177141503859414e-01
30 116 8.98602884697881854e-01
31 116 8.96100135025403532e-01
32 116 8.93668892486424338e-01
33 116 8.91309157080944936e-01
34 116 8.89020928808964994e-01
35 116 8.86804207670484401e-01
36 116 8.84658993665502824e-01
37 116 8.82585286794020707e-01
38 116 8.80583087056038494e-01
39 116 8.78652394451554963e-01
40 116 8.76793208980571004e-01
41 116 8.75005530643086615e-01
42 116 8.73289359439101798e-01
43 116 8.71644695368615996e-01
44 116 8.70071538431629654e-01
45 116 8.68569888628142661e-01
46 116 8.67139745958155239e-01
47 116 8.65781110421667166e-01
48 116 8.64493982018678109e-01
49 116 8.63278360749188733e-01
50 116 8.62134246613198485e-01
51 116 8.61061639610707696e-01
52 116 8.60060539741716590e-01
53 116 8.59130947006224832e-01
54 116 8.58272861404232090e-01
55 116 8.57486282935739363e-01
56 116 8.56771211600745208e-01
57 116 8.56127647399251068e-01
58 116 8.55555590331255833e-01
59 116 8.55055040396760169e-01
60 116 8.54625997595764186e-01
61 116 8.54268461928267220e-01
62 116 8.53982433394269491e-01
63 116 8.53767911993771667e-01
64 116 8.53624897726772636e-01
65 116 8.53553390593273176e-01
66 116 8.53553390593273176e-01
67 116 8.53624897726772636e-01
68 116 8.53767911993771556e-01
69 116 8.53982433394269491e-01
70 116 8.54268461928267220e-01
71 116 8.54625997595764186e-01
72 116 8.55055040396759947e-01
73 116 8.55555590331255722e-01
74 116 8.56127647399250957e-01
75 116 8.56771211600745097e-01
76 116 8.57486282935739141e-01
77 116 8.58272861404231979e-01
78 116 8.59130947006224721e-01
79 116 8.60060539741716590e-01
80 116 8.61061639610707696e-01
81 116 8.62134246613198485e-01
82 116 8.63278360749188622e-01
83 116 8.64493982018678109e-01
84 116 8.65781110421667055e-01
85 116 8.67139745958155239e-01
86 116 8.68569888628142550e-01
87 116 8.70071538431629321e-01
88 116 8.71644695368615885e-01
89 116 8.73289359439101687e-01
90 116 8.75005530643086615e-01
91 116 8.76793208980571004e-01
92 116 8.78652394451555074e-01
93 116 8.80583087056038494e-01
94 116 8.82585286794020596e-01
95 116 8.84658993665502602e-01
96 116 8.86804207670484290e-01
97 116 8.89020928808964994e-01
98 116 8.91309157080944936e-01
99 116 8.93668892486424338e-01
100 116 8.96100135025403421e-01
101 116 8.98602884697881521e-01
102 116 9.01177141503859191e-01
103 116 9.03822905443336100e-01
104 116 9.06540176516312579e-01
105 116 9.09328954722788074e-01
106 116 9.12189240062763251e-01
107 116 9.15121032536237888e-01
108 116 9.18124332143211763e-01
109 116 9.21199138883684987e-01
110 116 9.24345452757657782e-01
111 116 9.27563273765129592e-01
112 116 9.30852601906100974e-01
113 116 9.34213437180572148e-01
114 116 9.37645779588542228e-01
115 116 9.41149629130011989e-01
116 116 9.44724985804980766e-01
117 116 9.48371849613448892e-01
118 116 9.52090220555416922e-01
119 116 9.55880098630883523e-01
120 116 9.59741483839850140e-01
121 116 9.63674376182315995e-01
122 116 9.67678775658280976e-01
123 116 9.71754682267745640e-01
124 116 9.75902096010709652e-01
125 116 9.80121016887173124e-01
126 116 9.84411444897135834e-01
127 116 9.88773380040597782e-01
128 116 9.93206822317559079e-01
129 116 9.97711771728019947e-01
130 116 1.00000000000000000e+00
1 117 1.00000000000000000e+00
2 117 9.97711771728019947e-01
3 117 9.93206822317559301e-01
4 117 9.88773380040597782e-01
5 117 9.84411444897135501e-01
6 117 9.80121016887172902e-01
7 117 9.75902096010709430e-01
8 117 9.71754682267745529e-01
9 117 9.67678775658280754e-01
10 117 9.63674376182315662e-01
11 117 9.59741483839849918e-01
12 117 9.55880098630883412e-01
13 117 9.52090220555416478e-01
14 117 9.48371849613448781e-01
15 117 9.44724985804980433e-01
16 117 9.41149629130011767e-01
17 117 9.37645779588542116e-01
18 117 9.34213437180572148e-01
19 117 9.30852601906100974e-01
20 117 9.27563273765129703e-01
21 117 9.24345452757658004e-01
22 117 9.21199138883685098e-01
23 117 9.18124332143211985e-01
24 117 9.15121032536238110e-01
25 117 9.12189240062763584e-01
26 117 9.09328954722788296e-01
27 117 9.06540176516312801e-01
28 117 9.03822905443336433e-01
29 117 9.01177141503859414e-01
30 117 8.98602884697881854e-01
31 117 8.96100135025403532e-01
32 117 8.93668892486424449e-01
33 117 8.91309157080944936e-01
34 117 8.89020928808964994e-01
35 117 8.86804207670484401e-01
36 117 8.84658993665502824e-01
37 117 8.82585286794020707e-01
38 117 8.80583087056038494e-01
39 117 8.78652394451555074e-01
40 117 8.76793208980571004e-01
41 117 8.75005530643086615e-01
42 117 8.73289359439101798e-01
43 117 8.71644695368616107e-01
44 117 8.70071538431629654e-01
45 117 8.68569888628142661e-01
46 117 8.67139745958155239e-01
47 117 8.65781110421667166e-01
48 117 8.64493982018678109e-01
49 117 8.63278360749188733e-01
50 117 8.62134246613198485e-01
51 117 8.61061639610707696e-01
52 117 8.60060539741716701e-01
53 117 8.59130947006224943e-01
54 117 8.58272861404232090e-01
55 117 8.57486282935739363e-01
56 117 8.56771211600745208e-01
57 117 8.56127647399251068e-01
58 117 8.55555590331255833e-01
59 117 8.55055040396760280e-01
60 117 8.54625997595764186e-01
61 117 8.54268461928267220e-01
62 117 8.53982433394269491e-01
63 117 8.53767911993771667e-01
64 117 8.53624897726772636e-01
65 117 8.53553390593273176e-01
66 117 8.53553390593273176e-01
67 117 8.53624897726772636e-01
68 117 8.53767911993771556e-01
69 117 8.53982433394269491e-01
70 117 8.54268461928267220e-01
71 117 8.54625997595764186e-01
72 117 8.55055040396760058e-01
73 117 8.55555590331255722e-01
74 117 8.56127647399250957e-01
75 117 8.56771211600745097e-01
76 117 8.57486282935739141e-01
77 117 8.58272861404231979e-01
78 117 8.59130947006224832e-01
79 117 8.60060539741716701e-01
80 117 8.61061639610707696e-01
81 117 8.62134246613198485e-01
82 117 8.63278360749188622e-01
83 117 8.64493982018678109e-01
84 117 8.65781110421667055e-01
85 117 8.67139745958155239e-01
86 117 8.68569888628142550e-01
87 117 8.70071538431629432e-01
88 117 8.71644695368615996e-01
89 117 8.73289359439101687e-01
90 117 8.75005530643086615e-01
91 117 8.76793208980571004e-01
92 117 8.78652394451555185e-01
93 117 8.80583087056038494e-01
94 117 8.82585286794020596e-01
95 117 8.84658993665502602e-01
96 117 8.86804207670484290e-01
97 117 8.89020928808964994e-01
98 117 8.91309157080944936e-01
99 117 8.93668892486424449e-01
100 117 8.96100135025403421e-01
101 117 8.98602884697881521e-01
102 117 9.01177141503859302e-01
103 117 9.03822905443336100e-01
104 117 9.06540176516312579e-01
105 117 9.09328954722788185e-01
106 117 9.12189240062763251e-01
107 117 9.15121032536237888e-01
108 117 9.18124332143211763e-01
109 117 9.21199138883684987e-01
110 117 9.24345452757657893e-01
111 117 9.27563273765129592e-01
112 117 9.30852601906100974e-01
113 117 9.34213437180572148e-01
114 117 9.37645779588542228e-01
115 117 9.41149629130011989e-01
116 117 9.44724985804980877e-01
117 117 9.48371849613449003e-01
118 117 9.52090220555416922e-01
119 117 9.55880098630883634e-01
120 117 9.59741483839850251e-01
121 117 9.63674376182315995e-01
122 117 9.67678775658281087e-01
123 117 9.71754682267745751e-01
124 117 9.75902096010709652e-01
125 117 9.80121016887173124e-01
126 117 9.84411444897135834e-01
127 117 9.88773380040597893e-01
128 117 9.93206822317559079e-01
129 117 9.97711771728019947e-01
130 117 1.00000000000000000e+00
1 118 1.00000000000000000e+00
2 118 9.97711771728020058e-01
3 118 9.93206822317559301e-01
4 118 9.88773380040597893e-01
5 118 9.84411444897135501e-01
6 118 9.80121016887172902e-01
7 118 9.75902096010709541e-01
8 118 9.71754682267745640e-01
9 118 9.67678775658280754e-01
10 118 9.63674376182315662e-01
11 118 9.59741483839849918e-01
12 118 9.55880098630883412e-01
13 118 9.52090220555416478e-01
14 118 9.48371849613448892e-01
15 118 9.44724985804980433e-01
16 118 9.41149629130011767e-01
17 118 9.37645779588542116e-01
18 118 9.34213437180572148e-01
19 118 9.30852601906101085e-01
20 118 9.27563273765129703e-01
21 118 9.24345452757658004e-01
22 118 9.21199138883685098e-01
23 118 9.18124332143212096e-01
24 118 9.15121032536238110e-01
25 118 9.12189240062763695e-01
26 118 9.09328954722788407e-01
27 118 9.06540176516312801e-01
28 118 9.03822905443336433e-01
29 118 9.01177141503859525e-01
30 118 8.98602884697881854e-01
31 118 8.96100135025403643e-01
32 118 8.93668892486424449e-01
33 118 8.91309157080945047e-01
34 118 8.89020928808964994e-01
35 118 8.86804207670484401e-01
36 118 8.84658993665502935e-01
37 118 8.82585286794020818e-01
38 118 8.80583087056038494e-01
39 118 8.78652394451555074e-01
40 118 8.76793208980571004e-01
41 118 8.75005530643086615e-01
42 118 8.73289359439101798e-01
43 118 8.71644695368616107e-01
44 118 8.70071538431629654e-01
45 118 8.68569888628142772e-01
46 118 8.67139745958155350e-01
47 118 8.65781110421667166e-01
48 118 8.64493982018678109e-01
49 118 8.63278360749188844e-01
50 118 8.62134246613198485e-01
51 118 8.61061639610707807e-01
52 118 8.60060539741716701e-01
53 118 8.59130947006224943e-01
54 118 8.58272861404232090e-01
55 118 8.57486282935739363e-01
56 118 8.56771211600745319e-01
57 118 8.56127647399251179e-01
58 118 8.55555590331255833e-01
59 118 8.55055040396760280e-01
60 118 8.54625997595764186e-01
61 118 8.54268461928267220e-01
62 118 8.53982433394269491e-01
63 118 8.53767911993771778e-01
64 118 8.53624897726772636e-01
65 118 8.53553390593273176e-01
66 118 8.53553390593273176e-01
67 118 8.53624897726772636e-01
68 118 8.53767911993771667e-01
69 118 8.53982433394269491e-01
70 118 8.54268461928267220e-01
71 118 8.54625997595764186e-01
72 118 8.55055040396760058e-01
73 118 8.55555590331255722e-01
74 118 8.56127647399251068e-01
75 118 8.56771211600745208e-01
76 118 8.57486282935739141e-01
77 118 8.58272861404231979e-01
78 118 8.59130947006224832e-01
79 118 8.60060539741716701e-01
80 118 8.61061639610707807e-01
81 118 8.62134246613198485e-01
82 118 8.63278360749188733e-01
83 118 8.64493982018678109e-01
84 118 8.65781110421667055e-01
85 118 8.67139745958155350e-01
86 118 8.68569888628142661e-01
87 118 8.70071538431629432e-01
88 118 8.71644695368615996e-01
89 118 8.73289359439101687e-01
90 118 8.75005530643086615e-01
91 118 8.76793208980571004e-01
92 118 8.78652394451555185e-01
93 118 8.80583087056038494e-01
94 118 8.82585286794020707e-01
95 118 8.84658993665502713e-01
96 118 8.86804207670484290e-01
97 118 8.89020928808964994e-01
98 118 8.91309157080945047e-01
99 118 8.93668892486424449e-01
100 118 8.96100135025403532e-01
101 118 8.98602884697881521e-01
102 118 9.01177141503859302e-01
103 118 9.03822905443336100e-01
104 118 9.06540176516312579e-01
105 118 9.09328954722788296e-01
106 118 9.12189240062763362e-01
107 118 9.15121032536237888e-01
108 118 9.18124332143211874e-01
109 118 9.21199138883684987e-01
110 118 9.24345452757657893e-01
111 118 9.27563273765129592e-01
112 118 9.30852601906101085e-01
113 118 9.34213437180572148e-01
114 118 9.37645779588542339e-01
115 118 9.41149629130012100e-01
116 118 9.44724985804980877e-01
117 118 9.48371849613449114e-01
118 118 9.52090220555416922e-01
119 118 9.55880098630883634e-01
120 118 9.59741483839850251e-01
121 118 9.63674376182315995e-01
122 118 9.67678775658281087e-01
123 118 9.71754682267745862e-01
124 118 9.75902096010709763e-01
125 118 9.80121016887173124e-01
126 118 9.84411444897135834e-01
127 118 9.88773380040598004e-01
128 118 9.93206822317559079e-01
129 118 9.97711771728020058e-01
130 118 1.00000000000000000e+00
1 119 1.00000000000000000e+00
2 119 9.97711771728020058e-01
3 119 9.93206822317559190e-01
4 119 9.88773380040597782e-01
5 119 9.84411444897135501e-01
6 119 9.80121016887172902e-01
7 119 9.75902096010709541e-01
8 119 9.71754682267745529e-01
9 119 9.67678775658280754e-01
10 119 9.63674376182315662e-01
11 119 9.59741483839849807e-01
12 119 9.55880098630883412e-01
13 119 9.52090220555416478e-01
14 119 9.48371849613448781e-01
15 119 9.44724985804980433e-01
16 119 9.41149629130011656e-01
17 119 9.37645779588542005e-01
18 119 9.34213437180572148e-01
19 119 9.30852601906101085e-01
20 119 9.27563273765129703e-01
21 119 9.24345452757658004e-01
22 119 9.21199138883685098e-01
23 119 9.18124332143212096e-01
24 119 9.15121032536238110e-01
25 119 9.12189240062763695e-01
26 119 9.09328954722788407e-01
27 119 9.06540176516312801e-01
28 119 9.03822905443336322e-01
29 119 9.01177141503859525e-01
30 119 8.98602884697881854e-01
31 119 8.96100135025403532e-01
32 119 8.93668892486424449e-01
33 119 8.91309157080945047e-01
34 119 8.89020928808964994e-01
35 119 8.86804207670484290e-01
36 119 8.84658993665502935e-01
37 119 8.82585286794020707e-01
38 119 8.80583087056038383e-01
39 119 8.78652394451555074e-01
40 119 8.76793208980571004e-01
41 119 8.75005530643086615e-01
42 119 8.73289359439101687e-01
43 119 8.71644695368615996e-01
44 119 8.70071538431629543e-01
45 119 8.68569888628142661e-01
46 119 8.67139745958155239e-01
47 119 8.65781110421667166e-01
48 119 8.64493982018678109e-01
49 119 8.63278360749188844e-01
50 119 8.62134246613198374e-01
51 119 8.61061639610707807e-01
52 119 8.60060539741716701e-01
53 119 8.59130947006224832e-01
54 119 8.58272861404232090e-01
55 119 8.57486282935739252e-01
56 119 8.56771211600745319e-01
57 119 8.56127647399251068e-01
58 119 8.55555590331255833e-01
59 119 8.55055040396760280e-01
60 119 8.54625997595764075e-01
61 119 8.54268461928267220e-01
62 119 8.53982433394269491e-01
63 119 8.53767911993771778e-01
64 119 8.53624897726772636e-01
65 119 8.53553390593273176e-01
66 119 8.53553390593273176e-01
67 119 8.53624897726772636e-01
68 119 8.53767911993771667e-01
69 119 8.53982433394269491e-01
70 119 8.54268461928267220e-01
71 119 8.54625997595764075e-01
72 119 8.55055040396760058e-01
73 119 8.55555590331255722e-01
74 119 8.56127647399250957e-01
75 119 8.56771211600745208e-01
76 119 8.57486282935739030e-01
77 119 8.58272861404231979e-01
78 119 8.59130947006224721e-01
79 119 8.60060539741716701e-01
80 119 8.61061639610707807e-01
81 119 8.62134246613198374e-01
82 119 8.63278360749188733e-01
83 119 8.64493982018678109e-01
84 119 8.65781110421667055e-01
85 119 8.67139745958155239e-01
86 119 8.68569888628142550e-01
87 119 8.70071538431629321e-01
88 119 8.71644695368615885e-01
89 119 8.73289359439101576e-01
90 119 8.75005530643086615e-01
91 119 8.76793208980571004e-01
92 119 8.78652394451555185e-01
93 119 8.80583087056038383e-01
94 119 8.82585286794020596e-01
95 119 8.84658993665502713e-01
96 119 8.86804207670484179e-01
97 119 8.89020928808964994e-01
98 119 8.91309157080945047e-01
99 119 8.93668892486424449e-01
100 119 8.96100135025403421e-01
101 119 8.98602884697881521e-01
102 119 9.01177141503859302e-01
103 119 9.03822905443335989e-01
104 119 9.06540176516312579e-01
105 119 9.09328954722788296e-01
106 119 9.12189240062763362e-01
107 119 9.15121032536237888e-01
108 119 9.18124332143211874e-01
109 119 9.21199138883684987e-01
110 119 9.24345452757657893e-01
111 119 9.27563273765129592e-01
112 119 9.30852601906101085e-01
113 119 9.34213437180572148e-01
114 119 9.37645779588542228e-01
115 119 9.41149629130011989e-01
116 119 9.44724985804980877e-01
117 119 9.48371849613449114e-01
118 119 9.52090220555416922e-01
119 119 9.55880098630883634e-01
120 119 9.59741483839850140e-01
121 119 9.63674376182315995e-01
122 119 9.67678775658281087e-01
123 119 9.71754682267745751e-01
124 119 9.75902096010709763e-01
125 119 9.80121016887173124e-01
126 119 9.84411444897135723e-01
127 119 9.88773380040597893e-01
128 119 9.93206822317558968e-01
129 119 9.97711771728020058e-01
130 119 1.00000000000000000e+00
1 120 1.00000000000000000e+00
2 120 9.97711771728020169e-01
3 120 9.93206822317559190e-01
4 120 9.88773380040597782e-01
5 120 9.84411444897135612e-01
6 120 9.80121016887173013e-01
7 120 9.75902096010709541e-01
8 120 9.71754682267745529e-01
9 120 9.67678775658280865e-01
10 120 9.63674376182315773e-01
11 120 9.59741483839849807e-01
12 120 9.55880098630883523e-01
13 120 9.52090220555416478e-01
14 120 9.48371849613448892e-01
15 120 9.44724985804980433e-01
16 120 9.41149629130011767e-01
17 120 9.37645779588542005e-01
18 120 9.34213437180572259e-01
19 120 9.30852601906101196e-01
20 120 9.27563273765129703e-01
21 120 9.24345452757658004e-01
22 120 9.21199138883685209e-01
23 120 9.18124332143212207e-01
24 120 9.15121032536238110e-01
25 120 9.12189240062763695e-01
26 120 9.09328954722788407e-01
27 120 9.06540176516312801e-01
28 120 9.03822905443336322e-01
29 120 9.01177141503859525e-01
30 120 8.98602884697881854e-01
31 120 8.96100135025403532e-01
32 120 8.93668892486424449e-01
33 120 8.91309157080945047e-01
34 120 8.89020928808964994e-01
35 120 8.86804207670484401e-01
36 120 8.84658993665503046e-01
37 120 8.82585286794020707e-01
38 120 8.80583087056038383e-01
39 120 8.78652394451555074e-01
40 120 8.76793208980571004e-01
41 120 8.75005530643086726e-01
42 120 8.73289359439101687e-01
43 120 8.71644695368616107e-01
44 120 8.70071538431629654e-01
45 120 8.68569888628142772e-01
46 120 8.67139745958155239e-01
47 120 8.65781110421667277e-01
48 120 8.64493982018678109e-01
49 120 8.63278360749188844e-01
50 120 8.62134246613198485e-01
51 120 8.61061639610707918e-01
52 120 8.60060539741716701e-01
53 120 8.59130947006224832e-01
54 120 8.58272861404232201e-01
55 120 8.57486282935739252e-01
56 120 8.56771211600745430e-01
57 120 8.56127647399251179e-01
58 120 8.55555590331255944e-01
59 120 8.55055040396760391e-01
60 120 8.54625997595764186e-01
61 120 8.54268461928267220e-01
62 120 8.53982433394269602e-01
63 120 8.53767911993771778e-01
64 120 8.53624897726772636e-01
65 120 8.53553390593273287e-01
66 120 8.53553390593273287e-01
67 120 8.53624897726772636e-01
68 120 8.53767911993771667e-01
69 120 8.53982433394269602e-01
70 120 8.54268461928267220e-01
71 120 8.54625997595764186e-01
72 120 8.55055040396760169e-01
73 120 8.55555590331255833e-01
74 120 8.56127647399251068e-01
75 120 8.56771211600745319e-01
76 120 8.57486282935739141e-01
77 120 8.58272861404232090e-01
78 120 8.59130947006224721e-01
79 120 8.60060539741716701e-01
80 120 8.61061639610707918e-01
81 120 8.62134246613198485e-01
82 120 8.63278360749188733e-01
83 120 8.64493982018678109e-01
84 120 8.65781110421667166e-01
85 120 8.67139745958155239e-01
86 120 8.68569888628142661e-01
87 120 8.70071538431629432e-01
88 120 8.71644695368615996e-01
89 120 8.73289359439101576e-01
90 120 8.75005530643086726e-01
91 120 8.76793208980571004e-01
92 120 8.78652394451555185e-01
93 120 8.80583087056038383e-01
94 120 8.82585286794020596e-01
95 120 8.84658993665502824e-01
96 120 8.86804207670484290e-01
97 120 8.89020928808964994e-01
98 120 8.91309157080945047e-01
99 120 8.93668892486424449e-01
100 120 8.96100135025403421e-01
101 120 8.98602884697881632e-01
102 120 9.01177141503859302e-01
103 120 9.03822905443336100e-01
104 120 9.06540176516312579e-01
105 120 9.09328954722788296e-01
106 120 9.12189240062763362e-01
107 120 9.15121032536237888e-01
108 120 9.18124332143211985e-01
109 120 9.21199138883685098e-01
110 120 9.24345452757657893e-01
111 120 9.27563273765129592e-01
112 120 9.30852601906101196e-01
113 120 9.34213437180572259e-01
114 120 9.37645779588542228e-01
115 120 9.41149629130012100e-01
116 120 9.44724985804980877e-01
117 120 9.48371849613449225e-01
118 120 9.52090220555416922e-01
119 120 9.55880098630883746e-01
120 120 9.59741483839850140e-01
121 120 9.63674376182316106e-01
122 120 9.67678775658281198e-01
123 120 9.71754682267745751e-01
124 120 9.75902096010709763e-01
125 120 9.80121016887173235e-01
126 120 9.84411444897135834e-01
127 120 9.88773380040597893e-01
128 120 9.93206822317558968e-01
129 120 9.97711771728020169e-01
130 120 1.00000000000000000e+00
1 121 1.00000000000000000e+00
2 121 9.97711771728020169e-01
3 121 9.93206822317559301e-01
4 121 9.88773380040597782e-01
5 121 9.84411444897135612e-01
6 121 9.80121016887173124e-01
7 121 9.75902096010709541e-01
8 121 9.71754682267745640e-01
9 121 9.67678775658280976e-01
10 121 9.63674376182315773e-01
11 121 9.59741483839849918e-01
12 121 9.55880098630883634e-01
13 121 9.52090220555416589e-01
14 121 9.48371849613448892e-01
15 121 9.44724985804980544e-01
16 121 9.41149629130011878e-01
17 121 9.37645779588542116e-01
18 121 9.34213437180572259e-01
19 121 9.30852601906101307e-01
20 121 9.27563273765129814e-01
21 121 9.24345452757658004e-01
22 121 9.21199138883685209e-01
23 121 9.18124332143212207e-01
24 121 9.15121032536238110e-01
25 121 9.12189240062763695e-01
26 121 9.09328954722788518e-01
27 121 9.06540176516312912e-01
28 121 9.03822905443336433e-01
29 121 9.01177141503859525e-01
30 121 8.98602884697881965e-01
31 121 8.96100135025403532e-01
32 121 8.93668892486424560e-01
33 121 8.91309157080945158e-01
34 121 8.89020928808964994e-01
35 121 8.86804207670484401e-01
36 121 8.84658993665503046e-01
37 121 8.82585286794020818e-01
38 121 8.80583087056038494e-01
39 121 8.78652394451555074e-01
40 121 8.76793208980571115e-01
41 121 8.75005530643086726e-01
42 121 8.73289359439101798e-01
43 121 8.71644695368616218e-01
44 121 8.70071538431629654e-01
45 121 8.68569888628142772e-01
46 121 8.67139745958155239e-01
47 121 8.65781110421667277e-01
48 121 8.64493982018678220e-01
49 121 8.63278360749188844e-01
50 121 8.62134246613198596e-01
51 121 8.61061639610708029e-01
52 121 8.60060539741716701e-01
53 121 8.59130947006224943e-01
54 121 8.58272861404232312e-01
55 121 8.57486282935739363e-01
56 121 8.56771211600745430e-01
57 121 8.56127647399251290e-01
58 121 8.55555590331256055e-01
59 121 8.55055040396760502e-01
60 121 8.54625997595764186e-01
61 121 8.54268461928267220e-01
62 121 8.53982433394269602e-01
63 121 8.53767911993771778e-01
64 121 8.53624897726772747e-01
65 121 8.53553390593273287e-01
66 121 8.53553390593273287e-01
67 121 8.53624897726772747e-01
68 121 8.53767911993771667e-01
69 121 8.53982433394269602e-01
70 121 8.54268461928267220e-01
71 121 8.54625997595764186e-01
72 121 8.55055040396760280e-01
73 121 8.55555590331255944e-01
74 121 8.56127647399251179e-01
75 121 8.56771211600745319e-01
76 121 8.57486282935739252e-01
77 121 8.58272861404232201e-01
78 121 8.59130947006224832e-01
79 121 8.60060539741716701e-01
80 121 8.61061639610707918e-01
81 121 8.62134246613198596e-01
82 121 8.63278360749188733e-01
83 121 8.64493982018678220e-01
84 121 8.65781110421667166e-01
85 121 8.67139745958155239e-01
86 121 8.68569888628142661e-01
87 121 8.70071538431629432e-01
88 121 8.71644695368616107e-01
89 121 8.73289359439101687e-01
90 121 8.75005530643086726e-01
91 121 8.76793208980571115e-01
92 121 8.78652394451555185e-01
93 121 8.80583087056038494e-01
94 121 8.82585286794020707e-01
95 121 8.84658993665502824e-01
96 121 8.86804207670484290e-01
97 121 8.89020928808964994e-01
98 121 8.91309157080945158e-01
99 121 8.93668892486424560e-01
100 121 8.96100135025403421e-01
101 121 8.98602884697881743e-01
102 121 9.01177141503859302e-01
103 121 9.03822905443336211e-01
104 121 9.06540176516312690e-01
105 121 9.09328954722788407e-01
106 121 9.12189240062763362e-01
107 121 9.15121032536237888e-01
108 121 9.18124332143211985e-01
109 121 9.21199138883685098e-01
110 121 9.24345452757657893e-01
111 121 9.27563273765129703e-01
112 121 9.30852601906101307e-01
113 121 9.34213437180572259e-01
114 121 9.37645779588542339e-01
115 121 9.41149629130012211e-01
116 121 9.44724985804980988e-01
117 121 9.48371849613449225e-01
118 121 9.52090220555417033e-01
119 121 9.55880098630883857e-01
120 121 9.59741483839850251e-01
121 121 9.63674376182316106e-01
122 121 9.67678775658281309e-01
123 121 9.71754682267745862e-01
124 121 9.75902096010709763e-01
125 121 9.80121016887173235e-01
126 121 9.84411444897135834e-01
127 121 9.88773380040597893e-01
128 121 9.93206822317559079e-01
129 121 9.97711771728020169e-01
130 121 1.00000000000000000e+00
1 122 1.00000000000000000e+00
2 122 9.97711771728020169e-01
3 122 9.93206822317559301e-01
4 122 9.88773380040597671e-01
5 122 9.84411444897135501e-01
6 122 9.80121016887173124e-01
7 122 9.75902096010709541e-01
8 122 9.71754682267745529e-01
9 122 9.67678775658280976e-01
10 122 9.63674376182315773e-01
11 122 9.59741483839849807e-01
12 122 9.55880098630883523e-01
13 122 9.52090220555416478e-01
14 122 9.48371849613448781e-01
15 122 9.44724985804980433e-01
16 122 9.41149629130011878e-01
17 122 9.37645779588542116e-01
18 122 9.34213437180572148e-01
19 122 9.30852601906101307e-01
20 122 9.27563273765129703e-01
21 122 9.24345452757657893e-01
22 122 9.21199138883685209e-01
23 122 9.18124332143212207e-01
24 122 9.15121032536238110e-01
25 122 9.12189240062763584e-01
26 122 9.09328954722788407e-01
27 122 9.06540176516312912e-01
28 122 9.03822905443336433e-01
29 122 9.01177141503859414e-01
30 122 8.98602884697881965e-01
31 122 8.96100135025403532e-01
32 122 8.93668892486424449e-01
33 122 8.91309157080945047e-01
34 122 8.89020928808964883e-01
35 122 8.86804207670484290e-01
36 122 8.84658993665502935e-01
37 122 8.82585286794020818e-01
38 122 8.80583087056038494e-01
39 122 8.78652394451554963e-01
40 122 8.76793208980571115e-01
41 122 8.75005530643086615e-01
42 122 8.73289359439101687e-01
43 122 8.71644695368616218e-01
44 122 8.70071538431629654e-01
45 122 8.68569888628142772e-01
46 122 8.67139745958155239e-01
47 122 8.65781110421667166e-01
48 122 8.64493982018678220e-01
49 122 8.63278360749188844e-01
50 122 8.62134246613198485e-01
51 122 8.61061639610708029e-01
52 122 8.60060539741716701e-01
53 122 8.59130947006224832e-01
54 122 8.58272861404232201e-01
55 122 8.57486282935739252e-01
56 122 8.56771211600745319e-01
57 122 8.56127647399251179e-01
58 122 8.55555590331256055e-01
59 122 8.55055040396760502e-01
60 122 8.54625997595764075e-01
61 122 8.54268461928267220e-01
62 122 8.53982433394269602e-01
63 122 8.53767911993771667e-01
64 122 8.53624897726772747e-01
65 122 8.53553390593273287e-01
66 122 8.53553390593273287e-01
67 122 8.53624897726772747e-01
68 122 8.53767911993771556e-01
69 122 8.53982433394269491e-01
70 122 8.54268461928267220e-01
71 122 8.54625997595764075e-01
72 122 8.55055040396760280e-01
73 122 8.55555590331255944e-01
74 122 8.56127647399251068e-01
75 122 8.56771211600745208e-01
76 122 8.57486282935739141e-01
77 122 8.58272861404232090e-01
78 122 8.59130947006224721e-01
79 122 8.60060539741716701e-01
80 122 8.61061639610707918e-01
81 122 8.62134246613198485e-01
82 122 8.63278360749188733e-01
83 122 8.64493982018678109e-01
84 122 8.65781110421667055e-01
85 122 8.67139745958155239e-01
86 122 8.68569888628142661e-01
87 122 8.70071538431629432e-01
88 122 8.71644695368616107e-01
89 122 8.73289359439101576e-01
90 122 8.75005530643086615e-01
91 122 8.76793208980571115e-01
92 122 8.78652394451555074e-01
93 122 8.80583087056038494e-01
94 122 8.82585286794020707e-01
95 122 8.84658993665502713e-01
96 122 8.86804207670484179e-01
97 122 8.89020928808964883e-01
98 122 8.91309157080945047e-01
99 122 8.93668892486424449e-01
100 122 8.96100135025403421e-01
101 122 8.98602884697881743e-01
102 122 9.01177141503859191e-01
103 122 9.03822905443336211e-01
104 122 9.06540176516312690e-01
105 122 9.09328954722788296e-01
106 122 9.12189240062763362e-01
107 122 9.15121032536237888e-01
108 122 9.18124332143211985e-01
109 122 9.21199138883685098e-01
110 122 9.24345452757657782e-01
111 122 9.27563273765129592e-01
112 122 9.30852601906101307e-01
113 122 9.34213437180572148e-01
114 122 9.37645779588542339e-01
115 122 9.41149629130012211e-01
116 122 9.44724985804980877e-01
117 122 9.48371849613449114e-01
118 122 9.52090220555416922e-01
119 122 9.55880098630883746e-01
120 122 9.59741483839850140e-01
121 122 9.63674376182316106e-01
122 122 9.67678775658281309e-01
123 122 9.71754682267745751e-01
124 122 9.75902096010709763e-01
125 122 9.80121016887173235e-01
126 122 9.84411444897135723e-01
127 122 9.88773380040597782e-01
128 122 9.93206822317559079e-01
129 122 9.97711771728020169e-01
130 122 1.00000000000000000e+00
1 123 1.00000000000000000e+00
2 123 9.97711771728020169e-01
3 123 9.93206822317559412e-01
4 123 9.88773380040597671e-01
5 123 9.84411444897135501e-01
6 123 9.80121016887173124e-01
7 123 9.75902096010709652e-01
8 123 9.71754682267745529e-01
9 123 9.67678775658280976e-01
10 123 9.63674376182315773e-01
11 123 9.59741483839849918e-01
12 123 9.55880098630883523e-01
13 123 9.52090220555416478e-01
14 123 9.48371849613448781e-01
15 123 9.44724985804980544e-01
16 123 9.41149629130011878e-01
17 123 9.37645779588542116e-01
18 123 9.34213437180572148e-01
19 123 9.30852601906101307e-01
20 123 9.27563273765129814e-01
21 123 9.24345452757657893e-01
22 123 9.21199138883685209e-01
23 123 9.18124332143212207e-01
24 123 9.15121032536238110e-01
25 123 9.12189240062763584e-01
26 123 9.09328954722788518e-01
27 123 9.06540176516312912e-01
28 123 9.03822905443336433e-01
29 123 9.01177141503859414e-01
30 123 8.98602884697881965e-01
31 123 8.96100135025403532e-01
32 123 8.93668892486424560e-01
33 123 8.91309157080945047e-01
34 123 8.89020928808964883e-01
35 123 8.86804207670484290e-01
36 123 8.84658993665502935e-01
37 123 8.82585286794020818e-01
38 123 8.80583087056038494e-01
39 123 8.78652394451555074e-01
40 123 8.76793208980571115e-01
41 123 8.75005530643086615e-01
42 123 8.73289359439101687e-01
43 123 8.71644695368616218e-01
44 123 8.70071538431629654e-01
45 123 8.68569888628142772e-01
46 123 8.67139745958155239e-01
47 123 8.65781110421667166e-01
48 123 8.64493982018678220e-01
49 123 8.63278360749188844e-01
50 123 8.62134246613198596e-01
51 123 8.61061639610708141e-01
52 123 8.60060539741716812e-01
53 123 8.59130947006224832e-01
54 123 8.58272861404232201e-01
55 123 8.57486282935739252e-01
56 123 8.56771211600745319e-01
57 123 8.56127647399251179e-01
58 123 8.55555590331256055e-01
59 123 8.55055040396760502e-01
60 123 8.54625997595764075e-01
61 123 8.54268461928267220e-01
62 123 8.53982433394269602e-01
63 123 8.53767911993771667e-01
64 123 8.53624897726772747e-01
65 123 8.53553390593273287e-01
66 123 8.53553390593273287e-01
67 123 8.53624897726772747e-01
68 123 8.53767911993771556e-01
69 123 8.53982433394269491e-01
70 123 8.54268461928267220e-01
71 123 8.54625997595764075e-01
72 123 8.55055040396760280e-01
73 123 8.55555590331255944e-01
74 123 8.56127647399251068e-01
75 123 8.56771211600745208e-01
76 123 8.57486282935739141e-01
77 123 8.58272861404232090e-01
78 123 8.59130947006224721e-01
79 123 8.60060539741716701e-01
80 123 8.61061639610708029e-01
81 123 8.62134246613198485e-01
82 123 8.63278360749188733e-01
83 123 8.64493982018678109e-01
84 123 8.65781110421667055e-01
85 123 8.67139745958155239e-01
86 123 8.68569888628142661e-01
87 123 8.70071538431629432e-01
88 123 8.71644695368616107e-01
89 123 8.73289359439101576e-01
90 123 8.75005530643086615e-01
91 123 8.76793208980571226e-01
92 123 8.78652394451555185e-01
93 123 8.80583087056038494e-01
94 123 8.82585286794020707e-01
95 123 8.84658993665502713e-01
96 123 8.86804207670484179e-01
97 123 8.89020928808964883e-01
98 123 8.91309157080945047e-01
99 123 8.93668892486424560e-01
100 123 8.96100135025403421e-01
101 123 8.98602884697881743e-01
102 123 9.01177141503859191e-01
103 123 9.03822905443336211e-01
104 123 9.06540176516312690e-01
105 123 9.09328954722788296e-01
106 123 9.12189240062763362e-01
107 123 9.15121032536237888e-01
108 123 9.18124332143211985e-01
109 123 9.21199138883685098e-01
110 123 9.24345452757657782e-01
111 123 9.27563273765129703e-01
112 123 9.30852601906101307e-01
113 123 9.34213437180572148e-01
114 123 9.37645779588542339e-01
115 123 9.41149629130012211e-01
116 123 9.44724985804980877e-01
117 123 9.48371849613449114e-01
118 123 9.52090220555416922e-01
119 123 9.55880098630883746e-01
120 123 9.59741483839850251e-01
121 123 9.63674376182316106e-01
122 123 9.67678775658281309e-01
123 123 9.71754682267745751e-01
124 123 9.75902096010709874e-01
125 123 9.80121016887173235e-01
126 123 9.84411444897135723e-01
127 123 9.88773380040597782e-01
128 123 9.93206822317559190e-01
129 123 9.97711771728020169e-01
130 123 1.00000000000000000e+00
1 124 1.00000000000000000e+00
2 124 9.97711771728020058e-01
3 124 9.93206822317559301e-01
4 124 9.88773380040597560e-01
5 124 9.84411444897135501e-01
6 124 9.80121016887173013e-01
7 124 9.75902096010709652e-01
8 124 9.71754682267745529e-01
9 124 9.67678775658280976e-01
10 124 9.63674376182315773e-01
11 124 9.59741483839849918e-01
12 124 9.55880098630883523e-01
13 124 9.52090220555416478e-01
14 124 9.48371849613448781e-01
15 124 9.44724985804980544e-01
16 124 9.41149629130011878e-01
17 124 9.37645779588542116e-01
18 124 9.34213437180572148e-01
19 124 9.30852601906101196e-01
20 124 9.27563273765129814e-01
21 124 9.24345452757657782e-01
22 124 9.21199138883685209e-01
23 124 9.18124332143212096e-01
24 124 9.15121032536238110e-01
25 124 9.12189240062763584e-01
26 124 9.09328954722788518e-01
27 124 9.06540176516312912e-01
28 124 9.03822905443336433e-01
29 124 9.01177141503859414e-01
30 124 8.98602884697881965e-01
31 124 8.96100135025403421e-01
32 124 8.93668892486424449e-01
33 124 8.91309157080945047e-01
34 124 8.89020928808964883e-01
35 124 8.86804207670484179e-01
36 124 8.84658993665502935e-01
37 124 8.82585286794020818e-01
38 124 8.80583087056038383e-01
39 124 8.78652394451555074e-01
40 124 8.76793208980571004e-01
41 124 8.75005530643086615e-01
42 124 8.73289359439101687e-01
43 124 8.71644695368616107e-01
44 124 8.70071538431629654e-01
45 124 8.68569888628142772e-01
46 124 8.67139745958155128e-01
47 124 8.65781110421667055e-01
48 124 8.64493982018678220e-01
49 124 8.63278360749188844e-01
50 124 8.62134246613198596e-01
51 124 8.61061639610708141e-01
52 124 8.60060539741716812e-01
53 124 8.59130947006224832e-01
54 124 8.58272861404232201e-01
55 124 8.57486282935739141e-01
56 124 8.56771211600745319e-01
57 124 8.56127647399251068e-01
58 124 8.55555590331256055e-01
59 124 8.55055040396760391e-01
60 124 8.54625997595764075e-01
61 124 8.54268461928267220e-01
62 124 8.53982433394269602e-01
63 124 8.53767911993771667e-01
64 124 8.53624897726772747e-01
65 124 8.53553390593273287e-01
66 124 8.53553390593273287e-01
67 124 8.53624897726772747e-01
68 124 8.53767911993771556e-01
69 124 8.53982433394269491e-01
70 124 8.54268461928267220e-01
71 124 8.54625997595764075e-01
72 124 8.55055040396760280e-01
73 124 8.55555590331255944e-01
74 124 8.56127647399250957e-01
75 124 8.56771211600745208e-01
76 124 8.57486282935739030e-01
77 124 8.58272861404232090e-01
78 124 8.59130947006224721e-01
79 124 8.60060539741716701e-01
80 124 8.61061639610708029e-01
81 124 8.62134246613198485e-01
82 124 8.63278360749188733e-01
83 124 8.64493982018678109e-01
84 124 8.65781110421666944e-01
85 124 8.67139745958155128e-01
86 124 8.68569888628142661e-01
87 124 8.70071538431629432e-01
88 124 8.71644695368615996e-01
89 124 8.73289359439101576e-01
90 124 8.75005530643086615e-01
91 124 8.76793208980571115e-01
92 124 8.78652394451555185e-01
93 124 8.80583087056038383e-01
94 124 8.82585286794020707e-01
95 124 8.84658993665502713e-01
96 124 8.86804207670484068e-01
97 124 8.89020928808964883e-01
98 124 8.91309157080945047e-01
99 124 8.93668892486424449e-01
100 124 8.96100135025403310e-01
101 124 8.98602884697881743e-01
102 124 9.01177141503859191e-01
103 124 9.03822905443336211e-01
104 124 9.06540176516312690e-01
105 124 9.09328954722788296e-01
106 124 9.12189240062763362e-01
107 124 9.15121032536237888e-01
108 124 9.18124332143211874e-01
109 124 9.21199138883685098e-01
110 124 9.24345452757657671e-01
111 124 9.27563273765129703e-01
112 124 9.30852601906101196e-01
113 124 9.34213437180572148e-01
114 124 9.37645779588542339e-01
115 124 9.41149629130012211e-01
116 124 9.44724985804980877e-01
117 124 9.48371849613449114e-01
118 124 9.52090220555416922e-01
119 124 9.55880098630883746e-01
120 124 9.59741483839850251e-01
121 124 9.63674376182316106e-01
122 124 9.67678775658281309e-01
123 124 9.71754682267745751e-01
124 124 9.75902096010709874e-01
125 124 9.80121016887173124e-01
126 124 9.84411444897135723e-01
127 124 9.88773380040597671e-01
128 124 9.93206822317559190e-01
129 124 9.97711771728020058e-01
130 124 1.00000000000000000e+00
1 125 1.00000000000000000e+00
2 125 9.97711771728020058e-01
3 125 9.93206822317559301e-01
4 125 9.88773380040597560e-01
5 125 9.84411444897135501e-01
6 125 9.80121016887173013e-01
7 125 9.75902096010709541e-01
8 125 9.71754682267745529e-01
9 125 9.67678775658280976e-01
10 125 9.63674376182315773e-01
11 125 9.59741483839849918e-01
12 125 9.55880098630883412e-01
13 125 9.52090220555416478e-01
14 125 9.48371849613448781e-01
15 125 9.44724985804980544e-01
16 125 9.41149629130011767e-01
17 125 9.37645779588542005e-01
18 125 9.34213437180572148e-01
19 125 9.30852601906101196e-01
20 125 9.27563273765129814e-01
21 125 9.24345452757657782e-01
22 125 9.21199138883685209e-01
23 125 9.18124332143212096e-01
24 125 9.15121032536238110e-01
25 125 9.12189240062763584e-01
26 125 9.09328954722788518e-01
27 125 9.06540176516312912e-01
28 125 9.03822905443336433e-01
29 125 9.01177141503859414e-01
30 125 8.98602884697881965e-01
31 125 8.96100135025403421e-01
32 125 8.93668892486424449e-01
33 125 8.91309157080945047e-01
34 125 8.89020928808964883e-01
35 125 8.86804207670484179e-01
36 125 8.84658993665502824e-01
37 125 8.82585286794020818e-01
38 125 8.80583087056038383e-01
39 125 8.78652394451554963e-01
40 125 8.76793208980571004e-01
41 125 8.75005530643086615e-01
42 125 8.73289359439101687e-01
43 125 8.71644695368616107e-01
44 125 8.70071538431629654e-01
45 125 8.68569888628142772e-01
46 125 8.67139745958155128e-01
47 125 8.65781110421667055e-01
48 125 8.64493982018678220e-01
49 125 8.63278360749188844e-01
50 125 8.62134246613198596e-01
51 125 8.61061639610708141e-01
52 125 8.60060539741716812e-01
53 125 8.59130947006224832e-01
54 125 8.58272861404232201e-01
55 125 8.57486282935739141e-01
56 125 8.56771211600745319e-01
57 125 8.56127647399251068e-01
58 125 8.55555590331256055e-01
59 125 8.55055040396760391e-01
60 125 8.54625997595764075e-01
61 125 8.54268461928267220e-01
62 125 8.53982433394269602e-01
63 125 8.53767911993771667e-01
64 125 8.53624897726772747e-01
65 125 8.53553390593273287e-01
66 125 8.53553390593273287e-01
67 125 8.53624897726772747e-01
68 125 8.53767911993771556e-01
69 125 8.53982433394269491e-01
70 125 8.54268461928267220e-01
71 125 8.54625997595764075e-01
72 125 8.55055040396760280e-01
73 125 8.55555590331255944e-01
74 125 8.56127647399250957e-01
75 125 8.56771211600745208e-01
76 125 8.57486282935739030e-01
77 125 8.58272861404232090e-01
78 125 8.59130947006224721e-01
79 125 8.60060539741716701e-01
80 125 8.61061639610708029e-01
81 125 8.62134246613198485e-01
82 125 8.63278360749188733e-01
83 125 8.64493982018678109e-01
84 125 8.65781110421666944e-01
85 125 8.67139745958155017e-01
86 125 8.68569888628142661e-01
87 125 8.70071538431629432e-01
88 125 8.71644695368615885e-01
89 125 8.73289359439101576e-01
90 125 8.75005530643086615e-01
91 125 8.76793208980571115e-01
92 125 8.78652394451555074e-01
93 125 8.80583087056038383e-01
94 125 8.82585286794020707e-01
95 125 8.84658993665502713e-01
96 125 8.86804207670484068e-01
97 125 8.89020928808964883e-01
98 125 8.91309157080945047e-01
99 125 8.93668892486424449e-01
100 125 8.96100135025403310e-01
101 125 8.98602884697881743e-01
102 125 9.01177141503859191e-01
103 125 9.03822905443336211e-01
104 125 9.06540176516312690e-01
105 125 9.09328954722788296e-01
106 125 9.12189240062763362e-01
107 125 9.15121032536237888e-01
108 125 9.18124332143211874e-01
109 125 9.21199138883685098e-01
110 125 9.24345452757657671e-01
111 125 9.27563273765129703e-01
112 125 9.30852601906101196e-01
113 125 9.34213437180572148e-01
114 125 9.37645779588542228e-01
115 125 9.41149629130012100e-01
116 125 9.44724985804980877e-01
117 125 9.48371849613449114e-01
118 125 9.52090220555416922e-01
119 125 9.55880098630883746e-01
120 125 9.59741483839850251e-01
121 125 9.63674376182316106e-01
122 125 9.67678775658281309e-01
123 125 9.71754682267745751e-01
124 125 9.75902096010709763e-01
125 125 9.80121016887173124e-01
126 125 9.84411444897135723e-01
127 125 9.88773380040597671e-01
128 125 9.93206822317559190e-01
129 125 9.97711771728020058e-01
130 125 1.00000000000000000e+00
1 126 1.00000000000000000e+00
2 126 9.97711771728020058e-01
3 126 9.93206822317559301e-01
4 126 9.88773380040597671e-01
5 126 9.84411444897135501e-01
6 126 9.80121016887173013e-01
7 126 9.75902096010709652e-01
8 126 9.71754682267745529e-01
9 126 9.67678775658280976e-01
10 126 9.63674376182315773e-01
11 126 9.59741483839849918e-01
12 126 9.55880098630883523e-01
13 126 9.52090220555416478e-01
14 126 9.48371849613448892e-01
15 126 9.44724985804980544e-01
16 126 9.41149629130011767e-01
17 126 9.37645779588542005e-01
18 126 9.34213437180572148e-01
19 126 9.30852601906101196e-01
20 126 9.27563273765129814e-01
21 126 9.24345452757657782e-01
22 126 9.21199138883685209e-01
23 126 9.18124332143212096e-01
24 126 9.15121032536238221e-01
25 126 9.12189240062763584e-01
26 126 9.09328954722788518e-01
27 126 9.06540176516312912e-01
28 126 9.03822905443336433e-01
29 126 9.01177141503859414e-01
30 126 8.98602884697881965e-01
31 126 8.96100135025403421e-01
32 126 8.93668892486424449e-01
33 126 8.91309157080945047e-01
34 126 8.89020928808964883e-01
35 126 8.86804207670484179e-01
36 126 8.84658993665502824e-01
37 126 8.82585286794020818e-01
38 126 8.80583087056038383e-01
39 126 8.78652394451554963e-01
40 126 8.76793208980571004e-01
41 126 8.75005530643086726e-01
42 126 8.73289359439101687e-01
43 126 8.71644695368616107e-01
44 126 8.70071538431629654e-01
45 126 8.68569888628142772e-01
46 126 8.67139745958155239e-01
47 126 8.65781110421667055e-01
48 126 8.64493982018678220e-01
49 126 8.63278360749188844e-01
50 126 8.62134246613198707e-01
51 126 8.61061639610708141e-01
52 126 8.60060539741716812e-01
53 126 8.59130947006224832e-01
54 126 8.58272861404232201e-01
55 126 8.57486282935739141e-01
56 126 8.56771211600745319e-01
57 126 8.56127647399251068e-01
58 126 8.55555590331256055e-01
59 126 8.55055040396760391e-01
60 126 8.54625997595764186e-01
61 126 8.54268461928267220e-01
62 126 8.53982433394269602e-01
63 126 8.53767911993771667e-01
64 126 8.53624897726772747e-01
65 126 8.53553390593273287e-01
66 126 8.53553390593273287e-01
67 126 8.53624897726772747e-01
68 126 8.53767911993771556e-01
69 126 8.53982433394269491e-01
70 126 8.54268461928267220e-01
71 126 8.54625997595764186e-01
72 126 8.55055040396760280e-01
73 126 8.55555590331255944e-01
74 126 8.56127647399250957e-01
75 126 8.56771211600745208e-01
76 126 8.57486282935739030e-01
77 126 8.58272861404232090e-01
78 126 8.59130947006224721e-01
79 126 8.60060539741716701e-01
80 126 8.61061639610708029e-01
81 126 8.62134246613198596e-01
82 126 8.63278360749188733e-01
83 126 8.64493982018678109e-01
84 126 8.65781110421666944e-01
85 126 8.67139745958155128e-01
86 126 8.68569888628142661e-01
87 126 8.70071538431629432e-01
88 126 8.71644695368615885e-01
89 126 8.73289359439101576e-01
90 126 8.75005530643086726e-01
91 126 8.76793208980571115e-01
92 126 8.78652394451555074e-01
93 126 8.80583087056038383e-01
94 126 8.82585286794020707e-01
95 126 8.84658993665502713e-01
96 126 8.86804207670484068e-01
97 126 8.89020928808964883e-01
98 126 8.91309157080945047e-01
99 126 8.93668892486424449e-01
100 126 8.96100135025403310e-01
101 126 8.98602884697881743e-01
102 126 9.01177141503859191e-01
103 126 9.03822905443336211e-01
104 126 9.06540176516312690e-01
105 126 9.09328954722788296e-01
106 126 9.12189240062763362e-01
107 126 9.15121032536237888e-01
108 126 9.18124332143211874e-01
109 126 9.21199138883685098e-01
110 126 9.24345452757657671e-01
111 126 9.27563273765129703e-01
112 126 9.30852601906101196e-01
113 126 9.34213437180572148e-01
114 126 9.37645779588542228e-01
115 126 9.41149629130012100e-01
116 126 9.44724985804980877e-01
117 126 9.48371849613449114e-01
118 126 9.52090220555416922e-01
119 126 9.55880098630883857e-01
120 126 9.59741483839850251e-01
121 126 9.63674376182316106e-01
122 126 9.67678775658281309e-01
123 126 9.71754682267745751e-01
124 126 9.75902096010709874e-01
125 126 9.80121016887173124e-01
126 126 9.84411444897135723e-01
127 126 9.88773380040597782e-01
128 126 9.93206822317559190e-01
129 126 9.97711771728020058e-01
130 126 1.00000000000000000e+00
1 127 1.00000000000000000e+00
2 127 9.97711771728019947e-01
3 127 9.93206822317559301e-01
4 127 9.88773380040597560e-01
5 127 9.84411444897135501e-01
6 127 9.80121016887172902e-01
7 127 9.75902096010709541e-01
8 127 9.71754682267745529e-01
9 127 9.67678775658280976e-01
10 127 9.63674376182315773e-01
11 127 9.59741483839849918e-01
12 127 9.55880098630883523e-01
13 127 9.52090220555416478e-01
14 127 9.48371849613448892e-01
15 127 9.44724985804980433e-01
16 127 9.41149629130011656e-01
17 127 9.37645779588542005e-01
18 127 9.34213437180572037e-01
19 127 9.30852601906101196e-01
20 127 9.27563273765129814e-01
21 127 9.24345452757657782e-01
22 127 9.21199138883685098e-01
23 127 9.18124332143211985e-01
24 127 9.15121032536238221e-01
25 127 9.12189240062763584e-01
26 127 9.09328954722788407e-01
27 127 9.06540176516312801e-01
28 127 9.03822905443336322e-01
29 127 9.01177141503859302e-01
30 127 8.98602884697881854e-01
31 127 8.96100135025403421e-01
32 127 8.93668892486424449e-01
33 127 8.91309157080944936e-01
34 127 8.89020928808964772e-01
35 127 8.86804207670484179e-01
36 127 8.84658993665502713e-01
37 127 8.82585286794020818e-01
38 127 8.80583087056038272e-01
39 127 8.78652394451554852e-01
40 127 8.76793208980571004e-01
41 127 8.75005530643086726e-01
42 127 8.73289359439101576e-01
43 127 8.71644695368615996e-01
44 127 8.70071538431629654e-01
45 127 8.68569888628142661e-01
46 127 8.67139745958155239e-01
47 127 8.65781110421666944e-01
48 127 8.64493982018678109e-01
49 127 8.63278360749188844e-01
50 127 8.62134246613198707e-01
51 127 8.61061639610708029e-01
52 127 8.60060539741716812e-01
53 127 8.59130947006224721e-01
54 127 8.58272861404232201e-01
55 127 8.57486282935739030e-01
56 127 8.56771211600745319e-01
57 127 8.56127647399251068e-01
58 127 8.55555590331255944e-01
59 127 8.55055040396760280e-01
60 127 8.54625997595764075e-01
61 127 8.54268461928267109e-01
62 127 8.53982433394269602e-01
63 127 8.53767911993771556e-01
64 127 8.53624897726772636e-01
65 127 8.53553390593273287e-01
66 127 8.53553390593273287e-01
67 127 8.53624897726772636e-01
68 127 8.53767911993771444e-01
69 127 8.53982433394269491e-01
70 127 8.54268461928267109e-01
71 127 8.54625997595764075e-01
72 127 8.55055040396760169e-01
73 127 8.55555590331255833e-01
74 127 8.56127647399250957e-01
75 127 8.56771211600745208e-01
76 127 8.57486282935738919e-01
77 127 8.58272861404232090e-01
78 127 8.59130947006224610e-01
79 127 8.60060539741716701e-01
80 127 8.61061639610707918e-01
81 127 8.62134246613198596e-01
82 127 8.63278360749188733e-01
83 127 8.64493982018677998e-01
84 127 8.65781110421666833e-01
85 127 8.67139745958155128e-01
86 127 8.68569888628142550e-01
87 127 8.70071538431629432e-01
88 127 8.71644695368615774e-01
89 127 8.73289359439101465e-01
90 127 8.75005530643086726e-01
91 127 8.76793208980571115e-01
92 127 8.78652394451554963e-01
93 127 8.80583087056038272e-01
94 127 8.82585286794020707e-01
95 127 8.84658993665502602e-01
96 127 8.86804207670484068e-01
97 127 8.89020928808964772e-01
98 127 8.91309157080944936e-01
99 127 8.93668892486424449e-01
100 127 8.96100135025403310e-01
101 127 8.98602884697881632e-01
102 127 9.01177141503859080e-01
103 127 9.03822905443336100e-01
104 127 9.06540176516312579e-01
105 127 9.09328954722788185e-01
106 127 9.12189240062763362e-01
107 127 9.15121032536237888e-01
108 127 9.18124332143211763e-01
109 127 9.21199138883684987e-01
110 127 9.24345452757657671e-01
111 127 9.27563273765129703e-01
112 127 9.30852601906101196e-01
113 127 9.34213437180572037e-01
114 127 9.37645779588542228e-01
115 127 9.41149629130011989e-01
116 127 9.44724985804980766e-01
117 127 9.48371849613449114e-01
118 127 9.52090220555416811e-01
119 127 9.55880098630883857e-01
120 127 9.59741483839850251e-01
121 127 9.63674376182316106e-01
122 127 9.67678775658281198e-01
123 127 9.71754682267745751e-01
124 127 9.75902096010709763e-01
125 127 9.80121016887173013e-01
126 127 9.84411444897135723e-01
127 127 9.88773380040597671e-01
128 127 9.93206822317559190e-01
129 127 9.97711771728019947e-01
130 127 1.00000000000000000e+00
1 128 1.00000000000000000e+00
2 128 9.97711771728019947e-01
3 128 9.93206822317559190e-01
4 128 9.88773380040597560e-01
5 128 9.84411444897135501e-01
6 128 9.80121016887172902e-01
7 128 9.75902096010709430e-01
8 128 9.71754682267745529e-01
9 128 9.67678775658280976e-01
10 128 9.63674376182315773e-01
11 128 9.59741483839849918e-01
12 128 9.55880098630883523e-01
13 128 9.52090220555416478e-01
14 128 9.48371849613448781e-01
15 128 9.44724985804980433e-01
16 128 9.41149629130011545e-01
17 128 9.37645779588542005e-01
18 128 9.34213437180571926e-01
19 128 9.30852601906101196e-01
20 128 9.27563273765129814e-01
21 128 9.24345452757657782e-01
22 128 9.21199138883685098e-01
23 128 9.18124332143211985e-01
24 128 9.15121032536238110e-01
25 128 9.12189240062763584e-01
26 128 9.09328954722788407e-01
27 128 9.06540176516312690e-01
28 128 9.03822905443336322e-01
29 128 9.01177141503859302e-01
30 128 8.98602884697881743e-01
31 128 8.96100135025403421e-01
32 128 8.93668892486424449e-01
33 128 8.91309157080944936e-01
34 128 8.89020928808964772e-01
35 128 8.86804207670484068e-01
36 128 8.84658993665502713e-01
37 128 8.82585286794020818e-01
38 128 8.80583087056038161e-01
39 128 8.78652394451554852e-01
40 128 8.76793208980571004e-01
41 128 8.75005530643086615e-01
42 128 8.73289359439101576e-01
43 128 8.71644695368615996e-01
44 128 8.70071538431629654e-01
45 128 8.68569888628142661e-01
46 128 8.67139745958155128e-01
47 128 8.65781110421666944e-01
48 128 8.64493982018678109e-01
49 128 8.63278360749188733e-01
50 128 8.62134246613198707e-01
51 128 8.61061639610708029e-01
52 128 8.60060539741716701e-01
53 128 8.59130947006224721e-01
54 128 8.58272861404232201e-01
55 128 8.57486282935739030e-01
56 128 8.56771211600745319e-01
57 128 8.56127647399250957e-01
58 128 8.55555590331255944e-01
59 128 8.55055040396760280e-01
60 128 8.54625997595763964e-01
61 128 8.54268461928267109e-01
62 128 8.53982433394269602e-01
63 128 8.53767911993771444e-01
64 128 8.53624897726772636e-01
65 128 8.53553390593273287e-01
66 128 8.53553390593273287e-01
67 128 8.53624897726772636e-01
68 128 8.53767911993771333e-01
69 128 8.53982433394269491e-01
70 128 8.54268461928267109e-01
71 128 8.54625997595763964e-01
72 128 8.55055040396760169e-01
73 128 8.55555590331255833e-01
74 128 8.56127647399250846e-01
75 128 8.56771211600745208e-01
76 128 8.57486282935738919e-01
77 128 8.58272861404232090e-01
78 128 8.59130947006224610e-01
79 128 8.60060539741716590e-01
80 128 8.61061639610707918e-01
81 128 8.62134246613198596e-01
82 128 8.63278360749188622e-01
83 128 8.64493982018677998e-01
84 128 8.65781110421666833e-01
85 128 8.67139745958155017e-01
86 128 8.68569888628142550e-01
87 128 8.70071538431629432e-01
88 128 8.71644695368615774e-01
89 128 8.73289359439101465e-01
90 128 8.75005530643086615e-01
91 128 8.76793208980571115e-01
92 128 8.78652394451554963e-01
93 128 8.80583087056038161e-01
94 128 8.82585286794020707e-01
95 128 8.84658993665502602e-01
96 128 8.86804207670483957e-01
97 128 8.89020928808964772e-01
98 128 8.91309157080944936e-01
99 128 8.93668892486424449e-01
100 128 8.96100135025403310e-01
101 128 8.98602884697881521e-01
102 128 9.01177141503859080e-01
103 128 9.03822905443336100e-01
104 128 9.06540176516312468e-01
105 128 9.09328954722788185e-01
106 128 9.12189240062763362e-01
107 128 9.15121032536237888e-01
108 128 9.18124332143211763e-01
109 128 9.21199138883684987e-01
110 128 9.24345452757657671e-01
111 128 9.27563273765129703e-01
112 128 9.30852601906101196e-01
113 128 9.34213437180572037e-01
114 128 9.37645779588542228e-01
115 128 9.41149629130011878e-01
116 128 9.44724985804980766e-01
117 128 9.48371849613449114e-01
118 128 9.52090220555416811e-01
119 128 9.55880098630883857e-01
120 128 9.59741483839850251e-01
121 128 9.63674376182316106e-01
122 128 9.67678775658281198e-01
123 128 9.71754682267745751e-01
124 128 9.75902096010709652e-01
125 128 9.80121016887173013e-01
126 128 9.84411444897135723e-01
127 128 9.88773380040597671e-01
128 128 9.93206822317559079e-01
129 128 9.97711771728019947e-01
130 128 1.00000000000000000e+00
1 129 1.00000000000000000e+00
2 129 9.97711771728019947e-01
3 129 9.93206822317559190e-01
4 129 9.88773380040597560e-01
5 129 9.84411444897135501e-01
6 129 9.80121016887172902e-01
7 129 9.75902096010709430e-01
8 129 9.71754682267745529e-01
9 129 9.67678775658280976e-01
10 129 9.63674376182315773e-01
11 129 9.59741483839849918e-01
12 129 9.55880098630883523e-01
13 129 9.52090220555416478e-01
14 129 9.48371849613448781e-01
15 129 9.44724985804980433e-01
16 129 9.41149629130011545e-01
17 129 9.37645779588542005e-01
18 129 9.34213437180571926e-01
19 129 9.30852601906101196e-01
20 129 9.27563273765129814e-01
21 129 9.24345452757657782e-01
22 129 9.21199138883685098e-01
23 129 9.18124332143211985e-01
24 129 9.15121032536238110e-01
25 129 9.12189240062763584e-01
26 129 9.09328954722788407e-01
27 129 9.06540176516312690e-01
28 129 9.03822905443336322e-01
29 129 9.01177141503859302e-01
30 129 8.98602884697881743e-01
31 129 8.96100135025403421e-01
32 129 8.93668892486424449e-01
33 129 8.91309157080944936e-01
34 129 8.89020928808964772e-01
35 129 8.86804207670484068e-01
36 129 8.84658993665502713e-01
37 129 8.82585286794020818e-01
38 129 8.80583087056038161e-01
39 129 8.78652394451554852e-01
40 129 8.76793208980571004e-01
41 129 8.75005530643086615e-01
42 129 8.73289359439101576e-01
43 129 8.71644695368615996e-01
44 129 8.70071538431629654e-01
45 129 8.68569888628142661e-01
46 129 8.67139745958155128e-01
47 129 8.65781110421666944e-01
48 129 8.64493982018678109e-01
49 129 8.63278360749188733e-01
50 129 8.62134246613198707e-01
51 129 8.61061639610708029e-01
52 129 8.60060539741716701e-01
53 129 8.59130947006224721e-01
54 129 8.58272861404232201e-01
55 129 8.57486282935739030e-01
56 129 8.56771211600745319e-01
57 129 8.56127647399250957e-01
58 129 8.55555590331255944e-01
59 129 8.55055040396760280e-01
60 129 8.54625997595763964e-01
61 129 8.54268461928267109e-01
62 129 8.53982433394269602e-01
63 129 8.53767911993771444e-01
64 129 8.53624897726772636e-01
65 129 8.53553390593273287e-01
66 129 8.53553390593273287e-01
67 129 8.53624897726772636e-01
68 129 8.53767911993771333e-01
69 129 8.53982433394269491e-01
70 129 8.54268461928267109e-01
71 129 8.54625997595763964e-01
72 129 8.55055040396760169e-01
73 129 8.55555590331255833e-01
74 129 8.56127647399250846e-01
75 129 8.56771211600745208e-01
76 129 8.57486282935738919e-01
77 129 8.58272861404232090e-01
78 129 8.59130947006224610e-01
79 129 8.60060539741716590e-01
80 129 8.61061639610707918e-01
81 129 8.62134246613198596e-01
82 129 8.63278360749188622e-01
83 129 8.64493982018677998e-01
84 129 8.65781110421666833e-01
85 129 8.67139745958155017e-01
86 129 8.68569888628142550e-01
87 129 8.70071538431629432e-01
88 129 8.71644695368615774e-01
89 129 8.73289359439101465e-01
90 129 8.75005530643086615e-01
91 129 8.76793208980571115e-01
92 129 8.78652394451554963e-01
93 129 8.80583087056038161e-01
94 129 8.82585286794020707e-01
95 129 8.84658993665502602e-01
96 129 8.86804207670483957e-01
97 129 8.89020928808964772e-01
98 129 8.91309157080944936e-01
99 129 8.93668892486424449e-01
100 129 8.96100135025403310e-01
101 129 8.98602884697881521e-01
102 129 9.01177141503859080e-01
103 129 9.03822905443336100e-01
104 129 9.06540176516312468e-01
105 129 9.09328954722788185e-01
106 129 9.12189240062763362e-01
107 129 9.15121032536237888e-01
108 129 9.18124332143211763e-01
109 129 9.21199138883684987e-01
110 129 9.24345452757657671e-01
111 129 9.27563273765129703e-01
112 129 9.30852601906101196e-01
113 129 9.34213437180572037e-01
114 129 9.37645779588542228e-01
115 129 9.41149629130011878e-01
116 129 9.44724985804980766e-01
117 129 9.48371849613449114e-01
118 129 9.52090220555416811e-01
119 129 9.55880098630883857e-01
120 129 9.59741483839850251e-01
121 129 9.63674376182316106e-01
122 129 9.67678775658281198e-01
123 129 9.71754682267745751e-01
124 129 9.75902096010709652e-01
125 129 9.80121016887173013e-01
126 129 9.84411444897135723e-01
127 129 9.88773380040597671e-01
128 129 9.93206822317559079e-01
129 129 9.97711771728019947e-01
130 129 1.00000000000000000e+00
1 130 1.00000000000000000e+00
2 130 9.97711771728019947e-01
3 130 9.93206822317559190e-01
4 130 9.88773380040597560e-01
5 130 9.84411444897135501e-01
6 130 9.80121016887172902e-01
7 130 9.75902096010709430e-01
8 130 9.71754682267745529e-01
9 130 9.67678775658280976e-01
10 130 9.63674376182315773e-01
11 130 9.59741483839849918e-01
12 130 9.55880098630883523e-01
13 130 9.52090220555416478e-01
14 130 9.48371849613448781e-01
15 130 9.44724985804980433e-01
16 130 9.41149629130011545e-01
17 130 9.37645779588542005e-01
18 130 9.34213437180571926e-01
19 130 9.30852601906101196e-01
20 130 9.27563273765129814e-01
21 130 9.24345452757657782e-01
22 130 9.21199138883685098e-01
23 130 9.18124332143211985e-01
24 130 9.15121032536238110e-01
25 130 9.12189240062763584e-01
26 130 9.09328954722788407e-01
27 130 9.06540176516312690e-01
28 130 9.03822905443336322e-01
29 130 9.01177141503859302e-01
30 130 8.98602884697881743e-01
31 130 8.96100135025403421e-01
32 130 8.93668892486424449e-01
33 130 8.91309157080944936e-01
34 130 8.89020928808964772e-01
35 130 8.86804207670484068e-01
36 130 8.84658993665502713e-01
37 130 8.82585286794020818e-01
38 130 8.80583087056038161e-01
39 130 8.78652394451554852e-01
40 130 8.76793208980571004e-01
41 130 8.75005530643086615e-01
42 130 8.73289359439101576e-01
43 130 8.71644695368615996e-01
44 130 8.70071538431629654e-01
45 130 8.68569888628142661e-01
46 130 8.67139745958155128e-01
47 130 8.65781110421666944e-01
48 130 8.64493982018678109e-01
49 130 8.63278360749188733e-01
50 130 8.62134246613198707e-01
51 130 8.61061639610708029e-01
52 130 8.60060539741716701e-01
53 130 8.59130947006224721e-01
54 130 8.58272861404232201e-01
55 130 8.57486282935739030e-01
56 130 8.56771211600745319e-01
57 130 8.56127647399250957e-01
58 130 8.55555590331255944e-01
59 130 8.55055040396760280e-01
60 130 8.54625997595763964e-01
61 130 8.54268461928267109e-01
62 130 8.53982433394269602e-01
63 130 8.53767911993771444e-01
64 130 8.53624897726772636e-01
65 130 8.53553390593273287e-01
66 130 8.53553390593273287e-01
67 130 8.53624897726772636e-01
68 130 8.53767911993771333e-01
69 130 8.53982433394269491e-01
70 130 8.54268461928267109e-01
71 130 8.54625997595763964e-01
72 130 8.55055040396760169e-01
73 130 8.55555590331255833e-01
74 130 8.56127647399250846e-01
75 130 8.56771211600745208e-01
76 130 8.57486282935738919e-01
77 130 8.58272861404232090e-01
78 130 8.59130947006224610e-01
79 130 8.60060539741716590e-01
80 130 8.61061639610707918e-01
81 130 8.62134246613198596e-01
82 130 8.63278360749188622e-01
83 130 8.64493982018677998e-01
84 130 8.65781110421666833e-01
85 130 8.67139745958155017e-01
86 130 8.68569888628142550e-01
87 130 8.70071538431629432e-01
88 130 8.71644695368615774e-01
89 130 8.73289359439101465e-01
90 130 8.75005530643086615e-01
91 130 8.76793208980571115e-01
92 130 8.78652394451554963e-01
93 130 8.80583087056038161e-01
94 130 8.82585286794020707e-01
95 130 8.84658993665502602e-01
96 130 8.86804207670483957e-01
97 130 8.89020928808964772e-01
98 130 8.91309157080944936e-01
99 130 8.93668892486424449e-01
100 130 8.96100135025403310e-01
101 130 8.98602884697881521e-01
102 130 9.01177141503859080e-01
103 130 9.03822905443336100e-01
104 130 9.06540176516312468e-01
105 130 9.09328954722788185e-01
106 130 9.12189240062763362e-01
107 130 9.15121032536237888e-01
108 130 9.18124332143211763e-01
109 130 9.21199138883684987e-01
110 130 9.24345452757657671e-01
111 130 9.27563273765129703e-01
112 130 9.30852601906101196e-01
113 130 9.34213437180572037e-01
114 130 9.37645779588542228e-01
115 130 9.41149629130011878e-01
116 130 9.44724985804980766e-01
117 130 9.48371849613449114e-01
118 130 9.52090220555416811e-01
119 130 9.55880098630883857e-01
120 130 9.59741483839850251e-01
121 130 9.63674376182316106e-01
122 130 9.67678775658281198e-01
123 130 9.71754682267745751e-01
124 130 9.75902096010709652e-01
125 130 9.80121016887173013e-01
126 130 9.84411444897135723e-01
127 130 9.88773380040597671e-01
128 130 9.93206822317559079e-01
129 130 9.97711771728019947e-01
130 130 1.00000000000000000e+00
