%%MatrixMarket matrix coordinate  real general
4 4 16
1 1 1.00000000000000000e+00
2 1 1.00000000000000000e+00
3 1 1.00000000000000000e+00
4 1 1.00000000000000000e+00
1 2 1.00000000000000000e+00
2 2 1.00000000000000000e+00
3 2 1.00000000000000000e+00
4 2 1.00000000000000000e+00
1 3 1.00000000000000000e+00
2 3 1.00000000000000000e+00
3 3 1.00000000000000000e+00
4 3 1.00000000000000000e+00
1 4 1.00000000000000000e+00
2 4 1.00000000000000000e+00
3 4 1.00000000000000000e+00
4 4 1.00000000000000000e+00
