%%MatrixMarket matrix coordinate  real general
34 33 1122
1 1 0.00000000000000000e+00
2 1 2.23012079300187252e-02
3 1 6.72519599884323638e-02
4 1 1.12834956513251705e-01
5 1 1.58916472321746716e-01
6 1 2.05350206136080154e-01
7 1 2.51978086495205311e-01
8 1 2.98631377267970344e-01
9 1 3.45132085261840693e-01
10 1 3.91294661790150822e-01
11 1 4.36927978439020093e-01
12 1 4.81837545213567864e-01
13 1 5.25827927404512785e-01
14 1 5.68705306634210150e-01
15 1 6.10280122365216449e-01
16 1 6.50369723385751941e-01
17 1 6.88800955010706595e-01
18 1 7.25412607362388107e-01
19 1 7.60057653303947367e-01
20 1 7.92605211317161884e-01
21 1 8.22942178512991340e-01
22 1 8.50974491469989491e-01
23 1 8.76627986955611171e-01
24 1 8.99848849919983595e-01
25 1 9.20603651537845513e-01
26 1 9.38878994624438246e-01
27 1 9.54680796685007160e-01
28 1 9.68033251559624053e-01
29 1 9.78977518680848591e-01
30 1 9.87570194172242566e-01
31 1 9.93881620389746590e-01
32 1 9.97994090236534293e-01
33 1 1.00000000000000000e+00
34 1 1.00000000000000000e+00
1 2 0.00000000000000000e+00
2 2 2.29981206778318119e-02
3 2 6.93535837380708786e-02
4 2 1.16361048904290817e-01
5 2 1.63882612081801299e-01
6 2 2.11767400077832652e-01
7 2 2.59852401698180524e-01
8 2 3.07963607807594408e-01
9 2 3.55917462926273243e-01
10 2 4.03522619971093066e-01
11 2 4.50581977765239561e-01
12 2 4.96894968501491785e-01
13 2 5.42260050135903837e-01
14 2 5.86477347466529242e-01
15 2 6.29351376189129397e-01
16 2 6.70693777241556544e-01
17 2 7.10325984854791037e-01
18 2 7.48081751342462686e-01
19 2 7.83809454969695785e-01
20 2 8.17374124170823224e-01
21 2 8.48659121591522347e-01
22 2 8.77567444328426705e-01
23 2 9.04022611547974031e-01
24 2 9.27969126479983086e-01
25 2 9.49372515648403192e-01
26 2 9.68218963206451955e-01
27 2 9.84514571581413644e-01
28 2 9.98284290670862107e-01
29 2 1.00957056613962526e+00
30 2 1.01843176274012492e+00
31 2 1.02494042102692617e+00
32 2 1.02918140555642612e+00
33 2 1.03124999999999978e+00
34 2 1.03125000000000022e+00
1 3 0.00000000000000000e+00
2 3 2.36950334256448951e-02
3 3 7.14552074877093796e-02
4 3 1.19887141295329930e-01
5 3 1.68848751841855882e-01
6 3 2.18184594019585176e-01
7 3 2.67726716901155681e-01
8 3 3.17295838347218473e-01
9 3 3.66702840590705792e-01
10 3 4.15750578152035311e-01
11 3 4.64235977091458862e-01
12 3 5.11952391789415762e-01
13 3 5.58692172867295000e-01
14 3 6.04249388298848444e-01
15 3 6.48422630013042234e-01
16 3 6.91017831097361368e-01
17 3 7.31851014698875701e-01
18 3 7.70750895322537377e-01
19 3 8.07561256635444202e-01
20 3 8.42143037024484564e-01
21 3 8.74376064670053355e-01
22 3 9.04160397186863918e-01
23 3 9.31417236140336668e-01
24 3 9.56089403039982577e-01
25 3 9.78141379758960872e-01
26 3 9.97558931788465664e-01
27 3 1.01434834647782024e+00
28 3 1.02853532978210049e+00
29 3 1.04016361359840181e+00
30 3 1.04929333130800750e+00
31 3 1.05599922166410587e+00
32 3 1.06036872087631773e+00
33 3 1.06249999999999978e+00
34 3 1.06250000000000044e+00
1 4 0.00000000000000000e+00
2 4 2.43919461734579748e-02
3 4 7.35568312373478944e-02
4 4 1.23413233686369056e-01
5 4 1.73814891601910437e-01
6 4 2.24601787961337701e-01
7 4 2.75601032104130894e-01
8 4 3.26628068886842537e-01
9 4 3.77488218255138341e-01
10 4 4.27978536332977499e-01
11 4 4.77889976417678219e-01
12 4 5.27009815077339683e-01
13 4 5.75124295598686053e-01
14 4 6.22021429131167536e-01
15 4 6.67493883836955293e-01
16 4 7.11341884953166081e-01
17 4 7.53376044542960255e-01
18 4 7.93420039302611957e-01
19 4 8.31313058301192620e-01
20 4 8.66911949878145793e-01
21 4 9.00093007748584251e-01
22 4 9.30753350045300909e-01
23 4 9.58811860732699528e-01
24 4 9.84209679599982068e-01
25 4 1.00691024386951855e+00
26 4 1.02689890037047937e+00
27 4 1.04418212137422661e+00
28 4 1.05878636889333877e+00
29 4 1.07075666105717815e+00
30 4 1.08015489987589008e+00
31 4 1.08705802230128534e+00
32 4 1.09155603619620933e+00
33 4 1.09374999999999956e+00
34 4 1.09375000000000044e+00
1 5 0.00000000000000000e+00
2 5 2.50888589212710615e-02
3 5 7.56584549869863954e-02
4 5 1.26939326077408182e-01
5 5 1.78781031361965020e-01
6 5 2.31018981903090198e-01
7 5 2.83475347307105996e-01
8 5 3.35960299426466658e-01
9 5 3.88273595919570891e-01
10 5 4.40206494513919688e-01
11 5 4.91543975743897632e-01
12 5 5.42067238365263715e-01
13 5 5.91556418330076994e-01
14 5 6.39793469963486516e-01
15 5 6.86565137660868463e-01
16 5 7.31665938808970684e-01
17 5 7.74901074387044808e-01
18 5 8.16089183282686537e-01
19 5 8.55064859966940927e-01
20 5 8.91680862731807244e-01
21 5 9.25809950827115147e-01
22 5 9.57346302903738122e-01
23 5 9.86206485325062276e-01
24 5 1.01232995615998145e+00
25 5 1.03567910798007623e+00
26 5 1.05623886895249308e+00
27 5 1.07401589627063321e+00
28 5 1.08903740800457705e+00
29 5 1.10134970851595471e+00
30 5 1.11101646844377266e+00
31 5 1.11811682293846459e+00
32 5 1.12274335151610116e+00
33 5 1.12499999999999956e+00
34 5 1.12500000000000044e+00
1 6 0.00000000000000000e+00
2 6 2.57857716690841482e-02
3 6 7.77600787366249102e-02
4 6 1.30465418468447308e-01
5 6 1.83747171122019604e-01
6 6 2.37436175844842723e-01
7 6 2.91349662510081209e-01
8 6 3.45292529966090722e-01
9 6 3.99058973584003385e-01
10 6 4.52434452694861877e-01
11 6 5.05197975070116989e-01
12 6 5.57124661653187747e-01
13 6 6.07988541061467935e-01
14 6 6.57565510795805497e-01
15 6 7.05636391484781300e-01
16 6 7.51989992664775397e-01
17 6 7.96426104231129472e-01
18 6 8.38758327262761338e-01
19 6 8.78816661632689233e-01
20 6 9.16449775585468474e-01
21 6 9.51526893905646154e-01
22 6 9.83939255762175335e-01
23 6 1.01360110991742514e+00
24 6 1.04045023271998116e+00
25 6 1.06444797209063391e+00
26 6 1.08557883753450679e+00
27 6 1.10384967116703980e+00
28 6 1.11928844711581532e+00
29 6 1.13194275597473126e+00
30 6 1.14187803701165524e+00
31 6 1.14917562357564407e+00
32 6 1.15393066683599277e+00
33 6 1.15624999999999933e+00
34 6 1.15625000000000044e+00
1 7 0.00000000000000000e+00
2 7 2.64826844168972314e-02
3 7 7.98617024862634250e-02
4 7 1.33991510859486407e-01
5 7 1.88713310882074214e-01
6 7 2.43853369786595192e-01
7 7 2.99223977713056366e-01
8 7 3.54624760505714787e-01
9 7 4.09844351248435879e-01
10 7 4.64662410875804122e-01
11 7 5.18851974396336235e-01
12 7 5.72182084941111779e-01
13 7 6.24420663792858988e-01
14 7 6.75337551628124588e-01
15 7 7.24707645308694248e-01
16 7 7.72314046520580222e-01
17 7 8.17951134075213915e-01
18 7 8.61427471242835918e-01
19 7 9.02568463298437540e-01
20 7 9.41218688439129703e-01
21 7 9.77243836984177050e-01
22 7 1.01053220862061255e+00
23 7 1.04099573450978800e+00
24 7 1.06857050927998065e+00
25 7 1.09321683620119159e+00
26 7 1.11491880611652050e+00
27 7 1.13368344606344640e+00
28 7 1.14953948622705382e+00
29 7 1.16253580343350782e+00
30 7 1.17273960557953782e+00
31 7 1.18023442421282376e+00
32 7 1.18511798215588460e+00
33 7 1.18749999999999933e+00
34 7 1.18750000000000044e+00
1 8 0.00000000000000000e+00
2 8 2.71795971647103181e-02
3 8 8.19633262359019260e-02
4 8 1.37517603250525505e-01
5 8 1.93679450642128798e-01
6 8 2.50270563728347717e-01
7 8 3.07098292916031579e-01
8 8 3.63956991045338907e-01
9 8 4.20629728912868428e-01
10 8 4.76890369056746366e-01
11 8 5.32505973722555592e-01
12 8 5.87239508229035811e-01
13 8 6.40852786524250040e-01
14 8 6.93109592460443680e-01
15 8 7.43778899132607307e-01
16 8 7.92638100376385046e-01
17 8 8.39476163919298468e-01
18 8 8.84096615222910498e-01
19 8 9.26320264964185958e-01
20 8 9.65987601292791043e-01
21 8 1.00296078006270806e+00
22 8 1.03712516147904976e+00
23 8 1.06839035910215086e+00
24 8 1.09669078583998014e+00
25 8 1.12198570031174927e+00
26 8 1.14425877469853421e+00
27 8 1.16351722095985277e+00
28 8 1.17979052533829210e+00
29 8 1.19312885089228438e+00
30 8 1.20360117414742063e+00
31 8 1.21129322485000324e+00
32 8 1.21630529747577643e+00
33 8 1.21874999999999933e+00
34 8 1.21875000000000044e+00
1 9 0.00000000000000000e+00
2 9 2.78765099125234048e-02
3 9 8.40649499855404408e-02
4 9 1.41043695641564631e-01
5 9 1.98645590402183381e-01
6 9 2.56687757670100214e-01
7 9 3.14972608119006736e-01
8 9 3.73289221584962971e-01
9 9 4.31415106577300922e-01
10 9 4.89118327237688610e-01
11 9 5.46159973048774949e-01
12 9 6.02296931516959844e-01
13 9 6.57284909255640981e-01
14 9 7.10881633292762660e-01
15 9 7.62850152956520366e-01
16 9 8.12962154232189871e-01
17 9 8.61001193763383021e-01
18 9 9.06765759202985078e-01
19 9 9.50072066629934486e-01
20 9 9.90756514146452383e-01
21 9 1.02867772314123895e+00
22 9 1.06371811433748698e+00
23 9 1.09578498369451371e+00
24 9 1.12481106239997963e+00
25 9 1.15075456442230695e+00
26 9 1.17359874328054814e+00
27 9 1.19335099585625937e+00
28 9 1.21004156444953059e+00
29 9 1.22372189835106093e+00
30 9 1.23446274271530321e+00
31 9 1.24235202548718293e+00
32 9 1.24749261279566803e+00
33 9 1.24999999999999933e+00
34 9 1.25000000000000044e+00
1 10 0.00000000000000000e+00
2 10 2.85734226603364914e-02
3 10 8.61665737351789557e-02
4 10 1.44569788032603758e-01
5 10 2.03611730162237964e-01
6 10 2.63104951611852711e-01
7 10 3.22846923321981838e-01
8 10 3.82621452124586980e-01
9 10 4.42200484241733416e-01
10 10 5.01346285418630910e-01
11 10 5.59813972374994306e-01
12 10 6.17354354804883876e-01
13 10 6.73717031987031922e-01
14 10 7.28653674125081863e-01
15 10 7.81921406780433315e-01
16 10 8.33286208087994584e-01
17 10 8.82526223607467686e-01
18 10 9.29434903183059768e-01
19 10 9.73823868295682793e-01
20 10 1.01552542700011372e+00
21 10 1.05439466621977007e+00
22 10 1.09031106719592397e+00
23 10 1.12317960828687657e+00
24 10 1.15293133895997912e+00
25 10 1.17952342853286463e+00
26 10 1.20293871186256185e+00
27 10 1.22318477075266574e+00
28 10 1.24029260356076887e+00
29 10 1.25431494580983749e+00
30 10 1.26532431128318579e+00
31 10 1.27341082612436263e+00
32 10 1.27867992811555964e+00
33 10 1.28124999999999911e+00
34 10 1.28125000000000044e+00
1 11 0.00000000000000000e+00
2 11 2.92703354081495747e-02
3 11 8.82681974848174705e-02
4 11 1.48095880423642884e-01
5 11 2.08577869922292547e-01
6 11 2.69522145553605208e-01
7 11 3.30721238524956995e-01
8 11 3.91953682664211045e-01
9 11 4.52985861906165965e-01
10 11 5.13574243599573044e-01
11 11 5.73467971701213663e-01
12 11 6.32411778092807908e-01
13 11 6.90149154718422975e-01
14 11 7.46425714957400954e-01
15 11 8.00992660604346374e-01
16 11 8.53610261943799298e-01
17 11 9.04051253451552239e-01
18 11 9.52104047163134459e-01
19 11 9.97575669961431211e-01
20 11 1.04029433985377517e+00
21 11 1.08011160929830119e+00
22 11 1.11690402005436118e+00
23 11 1.15057423287923943e+00
24 11 1.18105161551997861e+00
25 11 1.20829229264342231e+00
26 11 1.23227868044457556e+00
27 11 1.25301854564907211e+00
28 11 1.27054364267200692e+00
29 11 1.28490799326861382e+00
30 11 1.29618587985106859e+00
31 11 1.30446962676154232e+00
32 11 1.30986724343545125e+00
33 11 1.31249999999999933e+00
34 11 1.31250000000000044e+00
1 12 0.00000000000000000e+00
2 12 2.99672481559626613e-02
3 12 9.03698212344559715e-02
4 12 1.51621972814682010e-01
5 12 2.13544009682347102e-01
6 12 2.75939339495357649e-01
7 12 3.38595553727932153e-01
8 12 4.01285913203835054e-01
9 12 4.63771239570598459e-01
10 12 5.25802201780515288e-01
11 12 5.87121971027433132e-01
12 12 6.47469201380731829e-01
13 12 7.06581277449814027e-01
14 12 7.64197755789720046e-01
15 12 8.20063914428259433e-01
16 12 8.73934315799604122e-01
17 12 9.25576283295636792e-01
18 12 9.74773191143209150e-01
19 12 1.02132747162717963e+00
20 12 1.06506325270743640e+00
21 12 1.10582855237683209e+00
22 12 1.14349697291279817e+00
23 12 1.17796885747160252e+00
24 12 1.20917189207997811e+00
25 12 1.23706115675397998e+00
26 12 1.26161864902658927e+00
27 12 1.28285232054547849e+00
28 12 1.30079468178324498e+00
29 12 1.31550104072739016e+00
30 12 1.32704744841895117e+00
31 12 1.33552842739872202e+00
32 12 1.34105455875534285e+00
33 12 1.34374999999999933e+00
34 12 1.34375000000000067e+00
1 13 0.00000000000000000e+00
2 13 3.06641609037757445e-02
3 13 9.24714449840944863e-02
4 13 1.55148065205721136e-01
5 13 2.18510149442401685e-01
6 13 2.82356533437110202e-01
7 13 3.46469868930907254e-01
8 13 4.10618143743459063e-01
9 13 4.74556617235031009e-01
10 13 5.38030159961457533e-01
11 13 6.00775970353652489e-01
12 13 6.62526624668655861e-01
13 13 7.23013400181205079e-01
14 13 7.81969796622039248e-01
15 13 8.39135168252172381e-01
16 13 8.94258369655408836e-01
17 13 9.47101313139721457e-01
18 13 9.97442335123283730e-01
19 13 1.04507927329292793e+00
20 13 1.08983216556109785e+00
21 13 1.13154549545536298e+00
22 13 1.17008992577123516e+00
23 13 1.20536348206396537e+00
24 13 1.23729216863997760e+00
25 13 1.26583002086453744e+00
26 13 1.29095861760860275e+00
27 13 1.31268609544188486e+00
28 13 1.33104572089448325e+00
29 13 1.34609408818616672e+00
30 13 1.35790901698683375e+00
31 13 1.36658722803590149e+00
32 13 1.37224187407523468e+00
33 13 1.37499999999999956e+00
34 13 1.37500000000000089e+00
1 14 0.00000000000000000e+00
2 14 3.13610736515888278e-02
3 14 9.45730687337330012e-02
4 14 1.58674157596760235e-01
5 14 2.23476289202456269e-01
6 14 2.88773727378862699e-01
7 14 3.54344184133882412e-01
8 14 4.19950374283083128e-01
9 14 4.85341994899463558e-01
10 14 5.50258118142399777e-01
11 14 6.14429969679871846e-01
12 14 6.77584047956579782e-01
13 14 7.39445522912596132e-01
14 14 7.99741837454358229e-01
15 14 8.58206422076085329e-01
16 14 9.14582423511213549e-01
17 14 9.68626342983806010e-01
18 14 1.02011147910335831e+00
19 14 1.06883107495867624e+00
20 14 1.11460107841475908e+00
21 14 1.15726243853389388e+00
22 14 1.19668287862967238e+00
23 14 1.23275810665632823e+00
24 14 1.26541244519997709e+00
25 14 1.29459888497509490e+00
26 14 1.32029858619061646e+00
27 14 1.34251987033829145e+00
28 14 1.36129676000572131e+00
29 14 1.37668713564494327e+00
30 14 1.38877058555471633e+00
31 14 1.39764602867308096e+00
32 14 1.40342918939512629e+00
33 14 1.40624999999999956e+00
34 14 1.40625000000000089e+00
1 15 0.00000000000000000e+00
2 15 3.20579863994019110e-02
3 15 9.66746924833715160e-02
4 15 1.62200249987799333e-01
5 15 2.28442428962510852e-01
6 15 2.95190921320615196e-01
7 15 3.62218499336857624e-01
8 15 4.29282604822707192e-01
9 15 4.96127372563896107e-01
10 15 5.62486076323342021e-01
11 15 6.28083969006091203e-01
12 15 6.92641471244503926e-01
13 15 7.55877645643987073e-01
14 15 8.17513878286677320e-01
15 15 8.77277675899998388e-01
16 15 9.34906477367018374e-01
17 15 9.90151372827890563e-01
18 15 1.04278062308343289e+00
19 15 1.09258287662442455e+00
20 15 1.13936999126842031e+00
21 15 1.18297938161242500e+00
22 15 1.22327583148810959e+00
23 15 1.26015273124869109e+00
24 15 1.29353272175997658e+00
25 15 1.32336774908565258e+00
26 15 1.34963855477263017e+00
27 15 1.37235364523469761e+00
28 15 1.39154779911695958e+00
29 15 1.40728018310372005e+00
30 15 1.41963215412259891e+00
31 15 1.42870482931026044e+00
32 15 1.43461650471501767e+00
33 15 1.43749999999999956e+00
34 15 1.43750000000000089e+00
1 16 0.00000000000000000e+00
2 16 3.27548991472150011e-02
3 16 9.87763162330100308e-02
4 16 1.65726342378838459e-01
5 16 2.33408568722565463e-01
6 16 3.01608115262367693e-01
7 16 3.70092814539832837e-01
8 16 4.38614835362331201e-01
9 16 5.06912750228328712e-01
10 16 5.74714034504284266e-01
11 16 6.41737968332310671e-01
12 16 7.07698894532427958e-01
13 16 7.72309768375378125e-01
14 16 8.35285919118996301e-01
15 16 8.96348929723911447e-01
16 16 9.55230531222823087e-01
17 16 1.01167640267197512e+00
18 16 1.06544976706350747e+00
19 16 1.11633467829017285e+00
20 16 1.16413890412208176e+00
21 16 1.20869632469095589e+00
22 16 1.24986878434654680e+00
23 16 1.28754735584105395e+00
24 16 1.32165299831997607e+00
25 16 1.35213661319621026e+00
26 16 1.37897852335464388e+00
27 16 1.40218742013110420e+00
28 16 1.42179883822819808e+00
29 16 1.43787323056249661e+00
30 16 1.45049372269048127e+00
31 16 1.45976362994744013e+00
32 16 1.46580382003490928e+00
33 16 1.46874999999999933e+00
34 16 1.46875000000000089e+00
1 17 0.00000000000000000e+00
2 17 3.34518118950280843e-02
3 17 1.00877939982648532e-01
4 17 1.69252434769877586e-01
5 17 2.38374708482620046e-01
6 17 3.08025309204120190e-01
7 17 3.77967129742807995e-01
8 17 4.47947065901955266e-01
9 17 5.17698127892761262e-01
10 17 5.86941992685226510e-01
11 17 6.55391967658530028e-01
12 17 7.22756317820351990e-01
13 17 7.88741891106769177e-01
14 17 8.53057959951315392e-01
15 17 9.15420183547824506e-01
16 17 9.75554585078627801e-01
17 17 1.03320143251605989e+00
18 17 1.08811891104358227e+00
19 17 1.14008647995592116e+00
20 17 1.18890781697574299e+00
21 17 1.23441326776948701e+00
22 17 1.27646173720498401e+00
23 17 1.31494198043341681e+00
24 17 1.34977327487997556e+00
25 17 1.38090547730676794e+00
26 17 1.40831849193665759e+00
27 17 1.43202119502751080e+00
28 17 1.45204987733943658e+00
29 17 1.46846627802127316e+00
30 17 1.48135529125836407e+00
31 17 1.49082243058461983e+00
32 17 1.49699113535480111e+00
33 17 1.49999999999999933e+00
34 17 1.50000000000000089e+00
1 18 0.00000000000000000e+00
2 18 3.41487246428411675e-02
3 18 1.02979563732287019e-01
4 18 1.72778527160916712e-01
5 18 2.43340848242674629e-01
6 18 3.14442503145872743e-01
7 18 3.85841444945783152e-01
8 18 4.57279296441579275e-01
9 18 5.28483505557193811e-01
10 18 5.99169950866168755e-01
11 18 6.69045966984749385e-01
12 18 7.37813741108276022e-01
13 18 8.05174013838160230e-01
14 18 8.70830000783634484e-01
15 18 9.34491437371737566e-01
16 18 9.95878638934432514e-01
17 18 1.05472646236014467e+00
18 18 1.11078805502365707e+00
19 18 1.16383828162166947e+00
20 18 1.21367672982940422e+00
21 18 1.26013021084801791e+00
22 18 1.30305469006342101e+00
23 18 1.34233660502577967e+00
24 18 1.37789355143997505e+00
25 18 1.40967434141732562e+00
26 18 1.43765846051867130e+00
27 18 1.46185496992391739e+00
28 18 1.48230091645067485e+00
29 18 1.49905932548004972e+00
30 18 1.51221685982624643e+00
31 18 1.52188123122179975e+00
32 18 1.52817845067469271e+00
33 18 1.53124999999999933e+00
34 18 1.53125000000000089e+00
1 19 0.00000000000000000e+00
2 19 3.48456373906542508e-02
3 19 1.05081187481925534e-01
4 19 1.76304619551955810e-01
5 19 2.48306988002729240e-01
6 19 3.20859697087625240e-01
7 19 3.93715760148758365e-01
8 19 4.66611526981203284e-01
9 19 5.39268883221626361e-01
10 19 6.11397909047110888e-01
11 19 6.82699966310968742e-01
12 19 7.52871164396199943e-01
13 19 8.21606136569551282e-01
14 19 8.88602041615953464e-01
15 19 9.53562691195650514e-01
16 19 1.01620269279023723e+00
17 19 1.07625149220422922e+00
18 19 1.13345719900373165e+00
19 19 1.18759008328741777e+00
20 19 1.23844564268306545e+00
21 19 1.28584715392654880e+00
22 19 1.32964764292185822e+00
23 19 1.36973122961814231e+00
24 19 1.40601382799997454e+00
25 19 1.43844320552788307e+00
26 19 1.46699842910068479e+00
27 19 1.49168874482032376e+00
28 19 1.51255195556191313e+00
29 19 1.52965237293882605e+00
30 19 1.54307842839412901e+00
31 19 1.55294003185897922e+00
32 19 1.55936576599458454e+00
33 19 1.56249999999999933e+00
34 19 1.56250000000000089e+00
1 20 0.00000000000000000e+00
2 20 3.55425501384673340e-02
3 20 1.07182811231564049e-01
4 20 1.79830711942994909e-01
5 20 2.53273127762783823e-01
6 20 3.27276891029377737e-01
7 20 4.01590075351733522e-01
8 20 4.75943757520827349e-01
9 20 5.50054260886058910e-01
10 20 6.23625867228053132e-01
11 20 6.96353965637188210e-01
12 20 7.67928587684123976e-01
13 20 8.38038259300942223e-01
14 20 9.06374082448272556e-01
15 20 9.72633945019563573e-01
16 20 1.03652674664604194e+00
17 20 1.09777652204831400e+00
18 20 1.15612634298380623e+00
19 20 1.21134188495316630e+00
20 20 1.26321455553672668e+00
21 20 1.31156409700507970e+00
22 20 1.35624059578029521e+00
23 20 1.39712585421050517e+00
24 20 1.43413410455997403e+00
25 20 1.46721206963844075e+00
26 20 1.49633839768269850e+00
27 20 1.52152251971673036e+00
28 20 1.54280299467315118e+00
29 20 1.56024542039760261e+00
30 20 1.57393999696201181e+00
31 20 1.58399883249615892e+00
32 20 1.59055308131447637e+00
33 20 1.59374999999999933e+00
34 20 1.59375000000000089e+00
1 21 0.00000000000000000e+00
2 21 3.62394628862804172e-02
3 21 1.09284434981202563e-01
4 21 1.83356804334034035e-01
5 21 2.58239267522838434e-01
6 21 3.33694084971130234e-01
7 21 4.09464390554708679e-01
8 21 4.85275988060451469e-01
9 21 5.60839638550491459e-01
10 21 6.35853825408995266e-01
11 21 7.10007964963407678e-01
12 21 7.82986010972047786e-01
13 21 8.54470382032333275e-01
14 21 9.24146123280591647e-01
15 21 9.91705198843476632e-01
16 21 1.05685080050184665e+00
17 21 1.11930155189239855e+00
18 21 1.17879548696388081e+00
19 21 1.23509368661891483e+00
20 21 1.28798346839038813e+00
21 21 1.33728104008361059e+00
22 21 1.38283354863873242e+00
23 21 1.42452047880286803e+00
24 21 1.46225438111997375e+00
25 21 1.49598093374899843e+00
26 21 1.52567836626471198e+00
27 21 1.55135629461313695e+00
28 21 1.57305403378438946e+00
29 21 1.59083846785637895e+00
30 21 1.60480156552989439e+00
31 21 1.61505763313333839e+00
32 21 1.62174039663436798e+00
33 21 1.62499999999999933e+00
34 21 1.62500000000000089e+00
1 22 0.00000000000000000e+00
2 22 3.69363756340935073e-02
3 22 1.11386058730841078e-01
4 22 1.86882896725073133e-01
5 22 2.63205407282892989e-01
6 22 3.40111278912882731e-01
7 22 4.17338705757683837e-01
8 22 4.94608218600075589e-01
9 22 5.71625016214924009e-01
10 22 6.48081783589937621e-01
11 22 7.23661964289627035e-01
12 22 7.98043434259971818e-01
13 22 8.70902504763724217e-01
14 22 9.41918164112910627e-01
15 22 1.01077645266738947e+00
16 22 1.07717485435765159e+00
17 22 1.14082658173648310e+00
18 22 1.20146463094395561e+00
19 22 1.25884548828466314e+00
20 22 1.31275238124404936e+00
21 22 1.36299798316214171e+00
22 22 1.40942650149716964e+00
23 22 1.45191510339523089e+00
24 22 1.49037465767997324e+00
25 22 1.52474979785955611e+00
26 22 1.55501833484672569e+00
27 22 1.58119006950954355e+00
28 22 1.60330507289562774e+00
29 22 1.62143151531515550e+00
30 22 1.63566313409777675e+00
31 22 1.64611643377051808e+00
32 22 1.65292771195425958e+00
33 22 1.65624999999999933e+00
34 22 1.65625000000000089e+00
1 23 0.00000000000000000e+00
2 23 3.76332883819065905e-02
3 23 1.13487682480479593e-01
4 23 1.90408989116112232e-01
5 23 2.68171547042947600e-01
6 23 3.46528472854635283e-01
7 23 4.25213020960658994e-01
8 23 5.03940449139699709e-01
9 23 5.82410393879356447e-01
10 23 6.60309741770879643e-01
11 23 7.37315963615846393e-01
12 23 8.13100857547895739e-01
13 23 8.87334627495115269e-01
14 23 9.59690204945229719e-01
15 23 1.02984770649130253e+00
16 23 1.09749890821345630e+00
17 23 1.16235161158056766e+00
18 23 1.22413377492403042e+00
19 23 1.28259728995041145e+00
20 23 1.33752129409771081e+00
21 23 1.38871492624067261e+00
22 23 1.43601945435560685e+00
23 23 1.47930972798759397e+00
24 23 1.51849493423997273e+00
25 23 1.55351866197011335e+00
26 23 1.58435830342873940e+00
27 23 1.61102384440594992e+00
28 23 1.63355611200686601e+00
29 23 1.65202456277393184e+00
30 23 1.66652470266565933e+00
31 23 1.67717523440769756e+00
32 23 1.68411502727415119e+00
33 23 1.68749999999999956e+00
34 23 1.68750000000000089e+00
1 24 0.00000000000000000e+00
2 24 3.83302011297196737e-02
3 24 1.15589306230118094e-01
4 24 1.93935081507151330e-01
5 24 2.73137686803002155e-01
6 24 3.52945666796387780e-01
7 24 4.33087336163634151e-01
8 24 5.13272679679323773e-01
9 24 5.93195771543789108e-01
10 24 6.72537699951821888e-01
11 24 7.50969962942065750e-01
12 24 8.28158280835819771e-01
13 24 9.03766750226506210e-01
14 24 9.77462245777548699e-01
15 24 1.04891896031521559e+00
16 24 1.11782296206926102e+00
17 24 1.18387664142465221e+00
18 24 1.24680291890410500e+00
19 24 1.30634909161615975e+00
20 24 1.36229020695137204e+00
21 24 1.41443186931920373e+00
22 24 1.46261240721404406e+00
23 24 1.50670435257995683e+00
24 24 1.54661521079997200e+00
25 24 1.58228752608067125e+00
26 24 1.61369827201075311e+00
27 24 1.64085761930235607e+00
28 24 1.66380715111810407e+00
29 24 1.68261761023270839e+00
30 24 1.69738627123354191e+00
31 24 1.70823403504487703e+00
32 24 1.71530234259404302e+00
33 24 1.71874999999999933e+00
34 24 1.71875000000000089e+00
1 25 0.00000000000000000e+00
2 25 3.90271138775327570e-02
3 25 1.17690929979756623e-01
4 25 1.97461173898190484e-01
5 25 2.78103826563056711e-01
6 25 3.59362860738140277e-01
7 25 4.40961651366609364e-01
8 25 5.22604910218947838e-01
9 25 6.03981149208221546e-01
10 25 6.84765658132764021e-01
11 25 7.64623962268285218e-01
12 25 8.43215704123743803e-01
13 25 9.20198872957897263e-01
14 25 9.95234286609867680e-01
15 25 1.06799021413912865e+00
16 25 1.13814701592506573e+00
17 25 1.20540167126873676e+00
18 25 1.26947206288417980e+00
19 25 1.33010089328190806e+00
20 25 1.38705911980503349e+00
21 25 1.44014881239773462e+00
22 25 1.48920536007248105e+00
23 25 1.53409897717231969e+00
24 25 1.57473548735997149e+00
25 25 1.61105639019122915e+00
26 25 1.64303824059276682e+00
27 25 1.67069139419876267e+00
28 25 1.69405819022934234e+00
29 25 1.71321065769148495e+00
30 25 1.72824783980142449e+00
31 25 1.73929283568205650e+00
32 25 1.74648965791393462e+00
33 25 1.74999999999999933e+00
34 25 1.75000000000000067e+00
1 26 0.00000000000000000e+00
2 26 3.97240266253458402e-02
3 26 1.19792553729395138e-01
4 26 2.00987266289229610e-01
5 26 2.83069966323111266e-01
6 26 3.65780054679892774e-01
7 26 4.48835966569584577e-01
8 26 5.31937140758571902e-01
9 26 6.14766526872654095e-01
10 26 6.96993616313706266e-01
11 26 7.78277961594504575e-01
12 26 8.58273127411667835e-01
13 26 9.36630995689288426e-01
14 26 1.01300632744218677e+00
15 26 1.08706146796304171e+00
16 26 1.15847106978087044e+00
17 26 1.22692670111282132e+00
18 26 1.29214120686425438e+00
19 26 1.35385269494765637e+00
20 26 1.41182803265869494e+00
21 26 1.46586575547626574e+00
22 26 1.51579831293091849e+00
23 26 1.56149360176468255e+00
24 26 1.60285576391997098e+00
25 26 1.63982525430178683e+00
26 26 1.67237820917478053e+00
27 26 1.70052516909516926e+00
28 26 1.72430922934058040e+00
29 26 1.74380370515026129e+00
30 26 1.75910940836930685e+00
31 26 1.77035163631923598e+00
32 26 1.77767697323382645e+00
33 26 1.78124999999999956e+00
34 26 1.78125000000000067e+00
1 27 0.00000000000000000e+00
2 27 4.04209393731589303e-02
3 27 1.21894177479033652e-01
4 27 2.04513358680268709e-01
5 27 2.88036106083165877e-01
6 27 3.72197248621645271e-01
7 27 4.56710281772559679e-01
8 27 5.41269371298195967e-01
9 27 6.25551904537086534e-01
10 27 7.09221574494648399e-01
11 27 7.91931960920723932e-01
12 27 8.73330550699591646e-01
13 27 9.53063118420679256e-01
14 27 1.03077836827450575e+00
15 27 1.10613272178695476e+00
16 27 1.17879512363667538e+00
17 27 1.24845173095690587e+00
18 27 1.31481035084432896e+00
19 27 1.37760449661340489e+00
20 27 1.43659694551235595e+00
21 27 1.49158269855479664e+00
22 27 1.54239126578935570e+00
23 27 1.58888822635704519e+00
24 27 1.63097604047997069e+00
25 27 1.66859411841234473e+00
26 27 1.70171817775679446e+00
27 27 1.73035894399157564e+00
28 27 1.75456026845181867e+00
29 27 1.77439675260903784e+00
30 27 1.78997097693718943e+00
31 27 1.80141043695641545e+00
32 27 1.80886428855371806e+00
33 27 1.81249999999999956e+00
34 27 1.81250000000000044e+00
1 28 0.00000000000000000e+00
2 28 4.11178521209720205e-02
3 28 1.23995801228672153e-01
4 28 2.08039451071307835e-01
5 28 2.93002245843220432e-01
6 28 3.78614442563397768e-01
7 28 4.64584596975534836e-01
8 28 5.50601601837820032e-01
9 28 6.36337282201518972e-01
10 28 7.21449532675590532e-01
11 28 8.05585960246943289e-01
12 28 8.88387973987515678e-01
13 28 9.69495241152070197e-01
14 28 1.04855040910682495e+00
15 28 1.12520397561086782e+00
16 28 1.19911917749248009e+00
17 28 1.26997676080099020e+00
18 28 1.33747949482440331e+00
19 28 1.40135629827915320e+00
20 28 1.46136585836601718e+00
21 28 1.51729964163332776e+00
22 28 1.56898421864779292e+00
23 28 1.61628285094940805e+00
24 28 1.65909631703997018e+00
25 28 1.69736298252290241e+00
26 28 1.73105814633880817e+00
27 28 1.76019271888798223e+00
28 28 1.78481130756305695e+00
29 28 1.80498980006781418e+00
30 28 1.82083254550507201e+00
31 28 1.83246923759359515e+00
32 28 1.84005160387360966e+00
33 28 1.84374999999999978e+00
34 28 1.84375000000000044e+00
1 29 0.00000000000000000e+00
2 29 4.18147648687851106e-02
3 29 1.26097424978310668e-01
4 29 2.11565543462346961e-01
5 29 2.97968385603275043e-01
6 29 3.85031636505150265e-01
7 29 4.72458912178509993e-01
8 29 5.59933832377444096e-01
9 29 6.47122659865951411e-01
10 29 7.33677490856532666e-01
11 29 8.19239959573162646e-01
12 29 9.03445397275439710e-01
13 29 9.85927363883461361e-01
14 29 1.06632244993914393e+00
15 29 1.14427522943478088e+00
16 29 1.21944323134828481e+00
17 29 1.29150179064507498e+00
18 29 1.36014863880447812e+00
19 29 1.42510809994490151e+00
20 29 1.48613477121967885e+00
21 29 1.54301658471185887e+00
22 29 1.59557717150623013e+00
23 29 1.64367747554177090e+00
24 29 1.68721659359996967e+00
25 29 1.72613184663346031e+00
26 29 1.76039811492082166e+00
27 29 1.79002649378438883e+00
28 29 1.81506234667429500e+00
29 29 1.83558284752659073e+00
30 29 1.85169411407295459e+00
31 29 1.86352803823077484e+00
32 29 1.87123891919350149e+00
33 29 1.87499999999999978e+00
34 29 1.87500000000000044e+00
1 30 0.00000000000000000e+00
2 30 4.25116776165981938e-02
3 30 1.28199048727949183e-01
4 30 2.15091635853386115e-01
5 30 3.02934525363329654e-01
6 30 3.91448830446902762e-01
7 30 4.80333227381485151e-01
8 30 5.69266062917068161e-01
9 30 6.57908037530383849e-01
10 30 7.45905449037474910e-01
11 30 8.32893958899382114e-01
12 30 9.18502820563363631e-01
13 30 1.00235948661485241e+00
14 30 1.08409449077146292e+00
15 30 1.16334648325869372e+00
16 30 1.23976728520408974e+00
17 30 1.31302682048915953e+00
18 30 1.38281778278455270e+00
19 30 1.44885990161064981e+00
20 30 1.51090368407334008e+00
21 30 1.56873352779038977e+00
22 30 1.62217012436466712e+00
23 30 1.67107210013413376e+00
24 30 1.71533687015996894e+00
25 30 1.75490071074401821e+00
26 30 1.78973808350283536e+00
27 30 1.81986026868079520e+00
28 30 1.84531338578553328e+00
29 30 1.86617589498536729e+00
30 30 1.88255568264083739e+00
31 30 1.89458683886795454e+00
32 30 1.90242623451339332e+00
33 30 1.90625000000000000e+00
34 30 1.90625000000000022e+00
1 31 0.00000000000000000e+00
2 31 4.32085903644112770e-02
3 31 1.30300672477587698e-01
4 31 2.18617728244425213e-01
5 31 3.07900665123384321e-01
6 31 3.97866024388655315e-01
7 31 4.88207542584460308e-01
8 31 5.78598293456692336e-01
9 31 6.68693415194816398e-01
10 31 7.58133407218417044e-01
11 31 8.46547958225601471e-01
12 31 9.33560243851287774e-01
13 31 1.01879160934624347e+00
14 31 1.10186653160378190e+00
15 31 1.18241773708260678e+00
16 31 1.26009133905989446e+00
17 31 1.33455185033324430e+00
18 31 1.40548692676462728e+00
19 31 1.47261170327639812e+00
20 31 1.53567259692700131e+00
21 31 1.59445047086892067e+00
22 31 1.64876307722310433e+00
23 31 1.69846672472649662e+00
24 31 1.74345714671996821e+00
25 31 1.78366957485457567e+00
26 31 1.81907805208484907e+00
27 31 1.84969404357720180e+00
28 31 1.87556442489677155e+00
29 31 1.89676894244414407e+00
30 31 1.91341725120871997e+00
31 31 1.92564563950513423e+00
32 31 1.93361354983328493e+00
33 31 1.93750000000000000e+00
34 31 1.93750000000000000e+00
1 32 0.00000000000000000e+00
2 32 4.39055031122243603e-02
3 32 1.32402296227226213e-01
4 32 2.22143820635464312e-01
5 32 3.12866804883438876e-01
6 32 4.04283218330407812e-01
7 32 4.96081857787435465e-01
8 32 5.87930523996316512e-01
9 32 6.79478792859248837e-01
10 32 7.70361365399359399e-01
11 32 8.60201957551820828e-01
12 32 9.48617667139211695e-01
13 32 1.03522373207763452e+00
14 32 1.11963857243610110e+00
15 32 1.20148899090651984e+00
16 32 1.28041539291569917e+00
17 32 1.35607688017732886e+00
18 32 1.42815607074470186e+00
19 32 1.49636350494214643e+00
20 32 1.56044150978066254e+00
21 32 1.62016741394745178e+00
22 32 1.67535603008154177e+00
23 32 1.72586134931885971e+00
24 32 1.77157742327996770e+00
25 32 1.81243843896513335e+00
26 32 1.84841802066686278e+00
27 32 1.87952781847360817e+00
28 32 1.90581546400800983e+00
29 32 1.92736198990292062e+00
30 32 1.94427881977660277e+00
31 32 1.95670444014231371e+00
32 32 1.96480086515317676e+00
33 32 1.96874999999999978e+00
34 32 1.96875000000000000e+00
1 33 0.00000000000000000e+00
2 33 4.46024158600374504e-02
3 33 1.34503919976864728e-01
4 33 2.25669913026503410e-01
5 33 3.17832944643493431e-01
6 33 4.10700412272160309e-01
7 33 5.03956172990410622e-01
8 33 5.97262754535940688e-01
9 33 6.90264170523681386e-01
10 33 7.82589323580301643e-01
11 33 8.73855956878040185e-01
12 33 9.63675090427135728e-01
13 33 1.05165585480902557e+00
14 33 1.13741061326842030e+00
15 33 1.22056024473043290e+00
16 33 1.30073944677150388e+00
17 33 1.37760191002141319e+00
18 33 1.45082521472477621e+00
19 33 1.52011530660789473e+00
20 33 1.58521042263432377e+00
21 33 1.64588435702598268e+00
22 33 1.70194898293997898e+00
23 33 1.75325597391122234e+00
24 33 1.79969769983996719e+00
25 33 1.84120730307569103e+00
26 33 1.87775798924887649e+00
27 33 1.90936159337001432e+00
28 33 1.93606650311924811e+00
29 33 1.95795503736169718e+00
30 33 1.97514038834448513e+00
31 33 1.98776324077949318e+00
32 33 1.99598818047306859e+00
33 33 2.00000000000000000e+00
34 33 2.00000000000000000e+00
