%%MatrixMarket matrix coordinate  real general
34 33 1122
1 1 1.00000000000000000e+00
2 1 1.00000000000000000e+00
3 1 9.97994090236534293e-01
4 1 9.93881620389746590e-01
5 1 9.87570194172242566e-01
6 1 9.78977518680848702e-01
7 1 9.68033251559624164e-01
8 1 9.54680796685007271e-01
9 1 9.38878994624438246e-01
10 1 9.20603651537845513e-01
11 1 8.99848849919983595e-01
12 1 8.76627986955611171e-01
13 1 8.50974491469989602e-01
14 1 8.22942178512991451e-01
15 1 7.92605211317161995e-01
16 1 7.60057653303947478e-01
17 1 7.25412607362388218e-01
18 1 6.88800955010706706e-01
19 1 6.50369723385751941e-01
20 1 6.10280122365216449e-01
21 1 5.68705306634210039e-01
22 1 5.25827927404512674e-01
23 1 4.81837545213567753e-01
24 1 4.36927978439020037e-01
25 1 3.91294661790150822e-01
26 1 3.45132085261840638e-01
27 1 2.98631377267970344e-01
28 1 2.51978086495205256e-01
29 1 2.05350206136080127e-01
30 1 1.58916472321746716e-01
31 1 1.12834956513251719e-01
32 1 6.72519599884324193e-02
33 1 2.23012079300187738e-02
34 1 6.12323399573676604e-17
1 2 1.03125000000000022e+00
2 2 1.03124999999999978e+00
3 2 1.02918140555642590e+00
4 2 1.02494042102692595e+00
5 2 1.01843176274012492e+00
6 2 1.00957056613962526e+00
7 2 9.98284290670862440e-01
8 2 9.84514571581413866e-01
9 2 9.68218963206451733e-01
10 2 9.49372515648403192e-01
11 2 9.27969126479983197e-01
12 2 9.04022611547974031e-01
13 2 8.77567444328426927e-01
14 2 8.48659121591522458e-01
15 2 8.17374124170823224e-01
16 2 7.83809454969695785e-01
17 2 7.48081751342462908e-01
18 2 7.10325984854791370e-01
19 2 6.70693777241556766e-01
20 2 6.29351376189129397e-01
21 2 5.86477347466529242e-01
22 2 5.42260050135903615e-01
23 2 4.96894968501491785e-01
24 2 4.50581977765239450e-01
25 2 4.03522619971093066e-01
26 2 3.55917462926273243e-01
27 2 3.07963607807594408e-01
28 2 2.59852401698180413e-01
29 2 2.11767400077832652e-01
30 2 1.63882612081801299e-01
31 2 1.16361048904290845e-01
32 2 6.93535837380709203e-02
33 2 2.29981206778318639e-02
34 2 6.31458505810354094e-17
1 3 1.06250000000000044e+00
2 3 1.06249999999999956e+00
3 3 1.06036872087631773e+00
4 3 1.05599922166410543e+00
5 3 1.04929333130800750e+00
6 3 1.04016361359840181e+00
7 3 1.02853532978210072e+00
8 3 1.01434834647782046e+00
9 3 9.97558931788465331e-01
10 3 9.78141379758960872e-01
11 3 9.56089403039982688e-01
12 3 9.31417236140336668e-01
13 3 9.04160397186864029e-01
14 3 8.74376064670053466e-01
15 3 8.42143037024484564e-01
16 3 8.07561256635444202e-01
17 3 7.70750895322537488e-01
18 3 7.31851014698875812e-01
19 3 6.91017831097361590e-01
20 3 6.48422630013042234e-01
21 3 6.04249388298848444e-01
22 3 5.58692172867294556e-01
23 3 5.11952391789415762e-01
24 3 4.64235977091458807e-01
25 3 4.15750578152035311e-01
26 3 3.66702840590705736e-01
27 3 3.17295838347218528e-01
28 3 2.67726716901155626e-01
29 3 2.18184594019585176e-01
30 3 1.68848751841855882e-01
31 3 1.19887141295329971e-01
32 3 7.14552074877094351e-02
33 3 2.36950334256449471e-02
34 3 6.50593612047031584e-17
1 4 1.09375000000000044e+00
2 4 1.09374999999999956e+00
3 4 1.09155603619620933e+00
4 4 1.08705802230128512e+00
5 4 1.08015489987589008e+00
6 4 1.07075666105717815e+00
7 4 1.05878636889333899e+00
8 4 1.04418212137422706e+00
9 4 1.02689890037047893e+00
10 4 1.00691024386951855e+00
11 4 9.84209679599982290e-01
12 4 9.58811860732699528e-01
13 4 9.30753350045301242e-01
14 4 9.00093007748584362e-01
15 4 8.66911949878145793e-01
16 4 8.31313058301192620e-01
17 4 7.93420039302612179e-01
18 4 7.53376044542960366e-01
19 4 7.11341884953166304e-01
20 4 6.67493883836955293e-01
21 4 6.22021429131167536e-01
22 4 5.75124295598685498e-01
23 4 5.27009815077339683e-01
24 4 4.77889976417678275e-01
25 4 4.27978536332977499e-01
26 4 3.77488218255138230e-01
27 4 3.26628068886842593e-01
28 4 2.75601032104130783e-01
29 4 2.24601787961337673e-01
30 4 1.73814891601910437e-01
31 4 1.23413233686369098e-01
32 4 7.35568312373479499e-02
33 4 2.43919461734580338e-02
34 4 6.69728718283708951e-17
1 5 1.12500000000000044e+00
2 5 1.12499999999999956e+00
3 5 1.12274335151610094e+00
4 5 1.11811682293846482e+00
5 5 1.11101646844377266e+00
6 5 1.10134970851595471e+00
7 5 1.08903740800457705e+00
8 5 1.07401589627063365e+00
9 5 1.05623886895249264e+00
10 5 1.03567910798007623e+00
11 5 1.01232995615998189e+00
12 5 9.86206485325062276e-01
13 5 9.57346302903738344e-01
14 5 9.25809950827115369e-01
15 5 8.91680862731807244e-01
16 5 8.55064859966940927e-01
17 5 8.16089183282686870e-01
18 5 7.74901074387044919e-01
19 5 7.31665938808971017e-01
20 5 6.86565137660868463e-01
21 5 6.39793469963486516e-01
22 5 5.91556418330076550e-01
23 5 5.42067238365263715e-01
24 5 4.91543975743897577e-01
25 5 4.40206494513919688e-01
26 5 3.88273595919570724e-01
27 5 3.35960299426466602e-01
28 5 2.83475347307105996e-01
29 5 2.31018981903090198e-01
30 5 1.78781031361965020e-01
31 5 1.26939326077408210e-01
32 5 7.56584549869864648e-02
33 5 2.50888589212711240e-02
34 5 6.88863824520386318e-17
1 6 1.15625000000000044e+00
2 6 1.15624999999999956e+00
3 6 1.15393066683599277e+00
4 6 1.14917562357564429e+00
5 6 1.14187803701165524e+00
6 6 1.13194275597473126e+00
7 6 1.11928844711581532e+00
8 6 1.10384967116704025e+00
9 6 1.08557883753450635e+00
10 6 1.06444797209063391e+00
11 6 1.04045023271998138e+00
12 6 1.01360110991742514e+00
13 6 9.83939255762175446e-01
14 6 9.51526893905646487e-01
15 6 9.16449775585468474e-01
16 6 8.78816661632689233e-01
17 6 8.38758327262761449e-01
18 6 7.96426104231129472e-01
19 6 7.51989992664775730e-01
20 6 7.05636391484781300e-01
21 6 6.57565510795805497e-01
22 6 6.07988541061467602e-01
23 6 5.57124661653187747e-01
24 6 5.05197975070116989e-01
25 6 4.52434452694861877e-01
26 6 3.99058973584003274e-01
27 6 3.45292529966090667e-01
28 6 2.91349662510081153e-01
29 6 2.37436175844842723e-01
30 6 1.83747171122019604e-01
31 6 1.30465418468447336e-01
32 6 7.77600787366249796e-02
33 6 2.57857716690842106e-02
34 6 7.07998930757063808e-17
1 7 1.18750000000000044e+00
2 7 1.18749999999999956e+00
3 7 1.18511798215588460e+00
4 7 1.18023442421282376e+00
5 7 1.17273960557953782e+00
6 7 1.16253580343350782e+00
7 7 1.14953948622705382e+00
8 7 1.13368344606344662e+00
9 7 1.11491880611651983e+00
10 7 1.09321683620119159e+00
11 7 1.06857050927998087e+00
12 7 1.04099573450978800e+00
13 7 1.01053220862061255e+00
14 7 9.77243836984177494e-01
15 7 9.41218688439129703e-01
16 7 9.02568463298437762e-01
17 7 8.61427471242836029e-01
18 7 8.17951134075213915e-01
19 7 7.72314046520580444e-01
20 7 7.24707645308694248e-01
21 7 6.75337551628124588e-01
22 7 6.24420663792858655e-01
23 7 5.72182084941111779e-01
24 7 5.18851974396336346e-01
25 7 4.64662410875804122e-01
26 7 4.09844351248435712e-01
27 7 3.54624760505714731e-01
28 7 2.99223977713056366e-01
29 7 2.43853369786595192e-01
30 7 1.88713310882074214e-01
31 7 1.33991510859486462e-01
32 7 7.98617024862634944e-02
33 7 2.64826844168972939e-02
34 7 7.27134036993741175e-17
1 8 1.21875000000000044e+00
2 8 1.21874999999999956e+00
3 8 1.21630529747577643e+00
4 8 1.21129322485000346e+00
5 8 1.20360117414742063e+00
6 8 1.19312885089228438e+00
7 8 1.17979052533829210e+00
8 8 1.16351722095985322e+00
9 8 1.14425877469853354e+00
10 8 1.12198570031174927e+00
11 8 1.09669078583998036e+00
12 8 1.06839035910215086e+00
13 8 1.03712516147904976e+00
14 8 1.00296078006270850e+00
15 8 9.65987601292791043e-01
16 8 9.26320264964186402e-01
17 8 8.84096615222910720e-01
18 8 8.39476163919298468e-01
19 8 7.92638100376385157e-01
20 8 7.43778899132607307e-01
21 8 6.93109592460443680e-01
22 8 6.40852786524249707e-01
23 8 5.87239508229035700e-01
24 8 5.32505973722555814e-01
25 8 4.76890369056746366e-01
26 8 4.20629728912868261e-01
27 8 3.63956991045338851e-01
28 8 3.07098292916031523e-01
29 8 2.50270563728347717e-01
30 8 1.93679450642128798e-01
31 8 1.37517603250525589e-01
32 8 8.19633262359020093e-02
33 8 2.71795971647103840e-02
34 8 7.46269143230418542e-17
1 9 1.25000000000000044e+00
2 9 1.24999999999999933e+00
3 9 1.24749261279566803e+00
4 9 1.24235202548718315e+00
5 9 1.23446274271530321e+00
6 9 1.22372189835106093e+00
7 9 1.21004156444953059e+00
8 9 1.19335099585625959e+00
9 9 1.17359874328054725e+00
10 9 1.15075456442230695e+00
11 9 1.12481106239997986e+00
12 9 1.09578498369451371e+00
13 9 1.06371811433748698e+00
14 9 1.02867772314123940e+00
15 9 9.90756514146452383e-01
16 9 9.50072066629934708e-01
17 9 9.06765759202985300e-01
18 9 8.61001193763383021e-01
19 9 8.12962154232189982e-01
20 9 7.62850152956520366e-01
21 9 7.10881633292762660e-01
22 9 6.57284909255640648e-01
23 9 6.02296931516959733e-01
24 9 5.46159973048775171e-01
25 9 4.89118327237688610e-01
26 9 4.31415106577300755e-01
27 9 3.73289221584962971e-01
28 9 3.14972608119006681e-01
29 9 2.56687757670100214e-01
30 9 1.98645590402183381e-01
31 9 1.41043695641564715e-01
32 9 8.40649499855405241e-02
33 9 2.78765099125234707e-02
34 9 7.65404249467095909e-17
1 10 1.28125000000000044e+00
2 10 1.28124999999999933e+00
3 10 1.27867992811555964e+00
4 10 1.27341082612436285e+00
5 10 1.26532431128318579e+00
6 10 1.25431494580983749e+00
7 10 1.24029260356076909e+00
8 10 1.22318477075266618e+00
9 10 1.20293871186256074e+00
10 10 1.17952342853286463e+00
11 10 1.15293133895997935e+00
12 10 1.12317960828687657e+00
13 10 1.09031106719592397e+00
14 10 1.05439466621977029e+00
15 10 1.01552542700011372e+00
16 10 9.73823868295683015e-01
17 10 9.29434903183059991e-01
18 10 8.82526223607467686e-01
19 10 8.33286208087994695e-01
20 10 7.81921406780433315e-01
21 10 7.28653674125081863e-01
22 10 6.73717031987031700e-01
23 10 6.17354354804883654e-01
24 10 5.59813972374994528e-01
25 10 5.01346285418630910e-01
26 10 4.42200484241733249e-01
27 10 3.82621452124587036e-01
28 10 3.22846923321981838e-01
29 10 2.63104951611852711e-01
30 10 2.03611730162237964e-01
31 10 1.44569788032603841e-01
32 10 8.61665737351790528e-02
33 10 2.85734226603365574e-02
34 10 7.84539355703773399e-17
1 11 1.31250000000000044e+00
2 11 1.31249999999999956e+00
3 11 1.30986724343545147e+00
4 11 1.30446962676154254e+00
5 11 1.29618587985106859e+00
6 11 1.28490799326861382e+00
7 11 1.27054364267200737e+00
8 11 1.25301854564907256e+00
9 11 1.23227868044457423e+00
10 11 1.20829229264342231e+00
11 11 1.18105161551997906e+00
12 11 1.15057423287923943e+00
13 11 1.11690402005436118e+00
14 11 1.08011160929830119e+00
15 11 1.04029433985377517e+00
16 11 9.97575669961431433e-01
17 11 9.52104047163134570e-01
18 11 9.04051253451552239e-01
19 11 8.53610261943799520e-01
20 11 8.00992660604346374e-01
21 11 7.46425714957400954e-01
22 11 6.90149154718422864e-01
23 11 6.32411778092807686e-01
24 11 5.73467971701213886e-01
25 11 5.13574243599573044e-01
26 11 4.52985861906165743e-01
27 11 3.91953682664211100e-01
28 11 3.30721238524956940e-01
29 11 2.69522145553605208e-01
30 11 2.08577869922292547e-01
31 11 1.48095880423642939e-01
32 11 8.82681974848175677e-02
33 11 2.92703354081496440e-02
34 11 8.03674461940450766e-17
1 12 1.34375000000000067e+00
2 12 1.34374999999999933e+00
3 12 1.34105455875534330e+00
4 12 1.33552842739872224e+00
5 12 1.32704744841895117e+00
6 12 1.31550104072739016e+00
7 12 1.30079468178324587e+00
8 12 1.28285232054547915e+00
9 12 1.26161864902658793e+00
10 12 1.23706115675397998e+00
11 12 1.20917189207997855e+00
12 12 1.17796885747160252e+00
13 12 1.14349697291279839e+00
14 12 1.10582855237683209e+00
15 12 1.06506325270743640e+00
16 12 1.02132747162717985e+00
17 12 9.74773191143209261e-01
18 12 9.25576283295636792e-01
19 12 8.73934315799604233e-01
20 12 8.20063914428259433e-01
21 12 7.64197755789719935e-01
22 12 7.06581277449813916e-01
23 12 6.47469201380731607e-01
24 12 5.87121971027433243e-01
25 12 5.25802201780515288e-01
26 12 4.63771239570598293e-01
27 12 4.01285913203835110e-01
28 12 3.38595553727932097e-01
29 12 2.75939339495357649e-01
30 12 2.13544009682347102e-01
31 12 1.51621972814682038e-01
32 12 9.03698212344560825e-02
33 12 2.99672481559627307e-02
34 12 8.22809568177128133e-17
1 13 1.37500000000000089e+00
2 13 1.37499999999999956e+00
3 13 1.37224187407523512e+00
4 13 1.36658722803590171e+00
5 13 1.35790901698683375e+00
6 13 1.34609408818616672e+00
7 13 1.33104572089448414e+00
8 13 1.31268609544188553e+00
9 13 1.29095861760860142e+00
10 13 1.26583002086453744e+00
11 13 1.23729216863997804e+00
12 13 1.20536348206396537e+00
13 13 1.17008992577123561e+00
14 13 1.13154549545536298e+00
15 13 1.08983216556109785e+00
16 13 1.04507927329292816e+00
17 13 9.97442335123283841e-01
18 13 9.47101313139721457e-01
19 13 8.94258369655408836e-01
20 13 8.39135168252172381e-01
21 13 7.81969796622039026e-01
22 13 7.23013400181204857e-01
23 13 6.62526624668655528e-01
24 13 6.00775970353652600e-01
25 13 5.38030159961457533e-01
26 13 4.74556617235030842e-01
27 13 4.10618143743459174e-01
28 13 3.46469868930907254e-01
29 13 2.82356533437110202e-01
30 13 2.18510149442401685e-01
31 13 1.55148065205721164e-01
32 13 9.24714449840945835e-02
33 13 3.06641609037758174e-02
34 13 8.41944674413805499e-17
1 14 1.40625000000000089e+00
2 14 1.40624999999999933e+00
3 14 1.40342918939512695e+00
4 14 1.39764602867308119e+00
5 14 1.38877058555471633e+00
6 14 1.37668713564494327e+00
7 14 1.36129676000572242e+00
8 14 1.34251987033829212e+00
9 14 1.32029858619061513e+00
10 14 1.29459888497509490e+00
11 14 1.26541244519997753e+00
12 14 1.23275810665632823e+00
13 14 1.19668287862967282e+00
14 14 1.15726243853389410e+00
15 14 1.11460107841475908e+00
16 14 1.06883107495867646e+00
17 14 1.02011147910335853e+00
18 14 9.68626342983806010e-01
19 14 9.14582423511213660e-01
20 14 8.58206422076085329e-01
21 14 7.99741837454358007e-01
22 14 7.39445522912595909e-01
23 14 6.77584047956579560e-01
24 14 6.14429969679872068e-01
25 14 5.50258118142399777e-01
26 14 4.85341994899463391e-01
27 14 4.19950374283083294e-01
28 14 3.54344184133882412e-01
29 14 2.88773727378862699e-01
30 14 2.23476289202456269e-01
31 14 1.58674157596760262e-01
32 14 9.45730687337330983e-02
33 14 3.13610736515889041e-02
34 14 8.61079780650482866e-17
1 15 1.43750000000000089e+00
2 15 1.43749999999999933e+00
3 15 1.43461650471501856e+00
4 15 1.42870482931026066e+00
5 15 1.41963215412259891e+00
6 15 1.40728018310372005e+00
7 15 1.39154779911696047e+00
8 15 1.37235364523469827e+00
9 15 1.34963855477262906e+00
10 15 1.32336774908565258e+00
11 15 1.29353272175997680e+00
12 15 1.26015273124869109e+00
13 15 1.22327583148811003e+00
14 15 1.18297938161242522e+00
15 15 1.13936999126842031e+00
16 15 1.09258287662442477e+00
17 15 1.04278062308343311e+00
18 15 9.90151372827890675e-01
19 15 9.34906477367018263e-01
20 15 8.77277675899998388e-01
21 15 8.17513878286677209e-01
22 15 7.55877645643986851e-01
23 15 6.92641471244503593e-01
24 15 6.28083969006091314e-01
25 15 5.62486076323342021e-01
26 15 4.96127372563895941e-01
27 15 4.29282604822707359e-01
28 15 3.62218499336857624e-01
29 15 2.95190921320615196e-01
30 15 2.28442428962510852e-01
31 15 1.62200249987799389e-01
32 15 9.66746924833715993e-02
33 15 3.20579863994019873e-02
34 15 8.80214886887160233e-17
1 16 1.46875000000000089e+00
2 16 1.46874999999999933e+00
3 16 1.46580382003491017e+00
4 16 1.45976362994744036e+00
5 16 1.45049372269048127e+00
6 16 1.43787323056249661e+00
7 16 1.42179883822819875e+00
8 16 1.40218742013110464e+00
9 16 1.37897852335464299e+00
10 16 1.35213661319621026e+00
11 16 1.32165299831997629e+00
12 16 1.28754735584105395e+00
13 16 1.24986878434654725e+00
14 16 1.20869632469095611e+00
15 16 1.16413890412208176e+00
16 16 1.11633467829017308e+00
17 16 1.06544976706350769e+00
18 16 1.01167640267197534e+00
19 16 9.55230531222822976e-01
20 16 8.96348929723911447e-01
21 16 8.35285919118996301e-01
22 16 7.72309768375377792e-01
23 16 7.07698894532427514e-01
24 16 6.41737968332310671e-01
25 16 5.74714034504284266e-01
26 16 5.06912750228328490e-01
27 16 4.38614835362331368e-01
28 16 3.70092814539832837e-01
29 16 3.01608115262367693e-01
30 16 2.33408568722565463e-01
31 16 1.65726342378838515e-01
32 16 9.87763162330101141e-02
33 16 3.27548991472150705e-02
34 16 8.99349993123837600e-17
1 17 1.50000000000000089e+00
2 17 1.49999999999999933e+00
3 17 1.49699113535480177e+00
4 17 1.49082243058462005e+00
5 17 1.48135529125836407e+00
6 17 1.46846627802127316e+00
7 17 1.45204987733943702e+00
8 17 1.43202119502751124e+00
9 17 1.40831849193665670e+00
10 17 1.38090547730676794e+00
11 17 1.34977327487997578e+00
12 17 1.31494198043341681e+00
13 17 1.27646173720498446e+00
14 17 1.23441326776948701e+00
15 17 1.18890781697574299e+00
16 17 1.14008647995592138e+00
17 17 1.08811891104358249e+00
18 17 1.03320143251605989e+00
19 17 9.75554585078627690e-01
20 17 9.15420183547824506e-01
21 17 8.53057959951315392e-01
22 17 7.88741891106768733e-01
23 17 7.22756317820351546e-01
24 17 6.55391967658530028e-01
25 17 5.86941992685226510e-01
26 17 5.17698127892761040e-01
27 17 4.47947065901955432e-01
28 17 3.77967129742807939e-01
29 17 3.08025309204120190e-01
30 17 2.38374708482620046e-01
31 17 1.69252434769877641e-01
32 17 1.00877939982648615e-01
33 17 3.34518118950281607e-02
34 17 9.18485099360515090e-17
1 18 1.53125000000000089e+00
2 18 1.53124999999999956e+00
3 18 1.52817845067469338e+00
4 18 1.52188123122179975e+00
5 18 1.51221685982624643e+00
6 18 1.49905932548004972e+00
7 18 1.48230091645067530e+00
8 18 1.46185496992391784e+00
9 18 1.43765846051867041e+00
10 18 1.40967434141732562e+00
11 18 1.37789355143997527e+00
12 18 1.34233660502577967e+00
13 18 1.30305469006342145e+00
14 18 1.26013021084801791e+00
15 18 1.21367672982940422e+00
16 18 1.16383828162166969e+00
17 18 1.11078805502365707e+00
18 18 1.05472646236014467e+00
19 18 9.95878638934432514e-01
20 18 9.34491437371737566e-01
21 18 8.70830000783634484e-01
22 18 8.05174013838159675e-01
23 18 7.37813741108275578e-01
24 18 6.69045966984749385e-01
25 18 5.99169950866168755e-01
26 18 5.28483505557193589e-01
27 18 4.57279296441579497e-01
28 18 3.85841444945783041e-01
29 18 3.14442503145872743e-01
30 18 2.43340848242674629e-01
31 18 1.72778527160916767e-01
32 18 1.02979563732287130e-01
33 18 3.41487246428412508e-02
34 18 9.37620205597192457e-17
1 19 1.56250000000000089e+00
2 19 1.56249999999999956e+00
3 19 1.55936576599458521e+00
4 19 1.55294003185897922e+00
5 19 1.54307842839412901e+00
6 19 1.52965237293882605e+00
7 19 1.51255195556191357e+00
8 19 1.49168874482032421e+00
9 19 1.46699842910068412e+00
10 19 1.43844320552788307e+00
11 19 1.40601382799997476e+00
12 19 1.36973122961814231e+00
13 19 1.32964764292185866e+00
14 19 1.28584715392654880e+00
15 19 1.23844564268306545e+00
16 19 1.18759008328741800e+00
17 19 1.13345719900373165e+00
18 19 1.07625149220422922e+00
19 19 1.01620269279023723e+00
20 19 9.53562691195650514e-01
21 19 8.88602041615953464e-01
22 19 8.21606136569550727e-01
23 19 7.52871164396199499e-01
24 19 6.82699966310968742e-01
25 19 6.11397909047110888e-01
26 19 5.39268883221626139e-01
27 19 4.66611526981203562e-01
28 19 3.93715760148758198e-01
29 19 3.20859697087625240e-01
30 19 2.48306988002729240e-01
31 19 1.76304619551955866e-01
32 19 1.05081187481925659e-01
33 19 3.48456373906543410e-02
34 19 9.56755311833869947e-17
1 20 1.59375000000000089e+00
2 20 1.59374999999999956e+00
3 20 1.59055308131447704e+00
4 20 1.58399883249615892e+00
5 20 1.57393999696201181e+00
6 20 1.56024542039760261e+00
7 20 1.54280299467315163e+00
8 20 1.52152251971673058e+00
9 20 1.49633839768269761e+00
10 20 1.46721206963844075e+00
11 20 1.43413410455997425e+00
12 20 1.39712585421050517e+00
13 20 1.35624059578029588e+00
14 20 1.31156409700507970e+00
15 20 1.26321455553672668e+00
16 20 1.21134188495316630e+00
17 20 1.15612634298380623e+00
18 20 1.09777652204831400e+00
19 20 1.03652674664604194e+00
20 20 9.72633945019563573e-01
21 20 9.06374082448272556e-01
22 20 8.38038259300941668e-01
23 20 7.67928587684123531e-01
24 20 6.96353965637188210e-01
25 20 6.23625867228053132e-01
26 20 5.50054260886058688e-01
27 20 4.75943757520827626e-01
28 20 4.01590075351733355e-01
29 20 3.27276891029377737e-01
30 20 2.53273127762783823e-01
31 20 1.79830711942994992e-01
32 20 1.07182811231564173e-01
33 20 3.55425501384674311e-02
34 20 9.75890418070547191e-17
1 21 1.62500000000000089e+00
2 21 1.62499999999999933e+00
3 21 1.62174039663436864e+00
4 21 1.61505763313333839e+00
5 21 1.60480156552989439e+00
6 21 1.59083846785637895e+00
7 21 1.57305403378439013e+00
8 21 1.55135629461313718e+00
9 21 1.52567836626471132e+00
10 21 1.49598093374899843e+00
11 21 1.46225438111997397e+00
12 21 1.42452047880286803e+00
13 21 1.38283354863873309e+00
14 21 1.33728104008361082e+00
15 21 1.28798346839038813e+00
16 21 1.23509368661891483e+00
17 21 1.17879548696388081e+00
18 21 1.11930155189239855e+00
19 21 1.05685080050184688e+00
20 21 9.91705198843476632e-01
21 21 9.24146123280591647e-01
22 21 8.54470382032332609e-01
23 21 7.82986010972047453e-01
24 21 7.10007964963407567e-01
25 21 6.35853825408995266e-01
26 21 5.60839638550491237e-01
27 21 4.85275988060451691e-01
28 21 4.09464390554708513e-01
29 21 3.33694084971130234e-01
30 21 2.58239267522838434e-01
31 21 1.83356804334034090e-01
32 21 1.09284434981202674e-01
33 21 3.62394628862805143e-02
34 21 9.95025524307224558e-17
1 22 1.65625000000000089e+00
2 22 1.65624999999999956e+00
3 22 1.65292771195426025e+00
4 22 1.64611643377051808e+00
5 22 1.63566313409777675e+00
6 22 1.62143151531515550e+00
7 22 1.60330507289562818e+00
8 22 1.58119006950954377e+00
9 22 1.55501833484672525e+00
10 22 1.52474979785955611e+00
11 22 1.49037465767997346e+00
12 22 1.45191510339523089e+00
13 22 1.40942650149717030e+00
14 22 1.36299798316214194e+00
15 22 1.31275238124404936e+00
16 22 1.25884548828466314e+00
17 22 1.20146463094395561e+00
18 22 1.14082658173648310e+00
19 22 1.07717485435765181e+00
20 22 1.01077645266738947e+00
21 22 9.41918164112910627e-01
22 22 8.70902504763723662e-01
23 22 7.98043434259971374e-01
24 22 7.23661964289626924e-01
25 22 6.48081783589937621e-01
26 22 5.71625016214923787e-01
27 22 4.94608218600075755e-01
28 22 4.17338705757683670e-01
29 22 3.40111278912882731e-01
30 22 2.63205407282892989e-01
31 22 1.86882896725073189e-01
32 22 1.11386058730841203e-01
33 22 3.69363756340936045e-02
34 22 1.01416063054390205e-16
1 23 1.68750000000000089e+00
2 23 1.68749999999999956e+00
3 23 1.68411502727415185e+00
4 23 1.67717523440769756e+00
5 23 1.66652470266565933e+00
6 23 1.65202456277393184e+00
7 23 1.63355611200686623e+00
8 23 1.61102384440595015e+00
9 23 1.58435830342873918e+00
10 23 1.55351866197011335e+00
11 23 1.51849493423997295e+00
12 23 1.47930972798759397e+00
13 23 1.43601945435560729e+00
14 23 1.38871492624067305e+00
15 23 1.33752129409771081e+00
16 23 1.28259728995041167e+00
17 23 1.22413377492403042e+00
18 23 1.16235161158056766e+00
19 23 1.09749890821345653e+00
20 23 1.02984770649130253e+00
21 23 9.59690204945229719e-01
22 23 8.87334627495114714e-01
23 23 8.13100857547895406e-01
24 23 7.37315963615846282e-01
25 23 6.60309741770879643e-01
26 23 5.82410393879356336e-01
27 23 5.03940449139699820e-01
28 23 4.25213020960658883e-01
29 23 3.46528472854635283e-01
30 23 2.68171547042947600e-01
31 23 1.90408989116112287e-01
32 23 1.13487682480479704e-01
33 23 3.76332883819066877e-02
34 23 1.03329573678057941e-16
1 24 1.71875000000000089e+00
2 24 1.71874999999999956e+00
3 24 1.71530234259404346e+00
4 24 1.70823403504487703e+00
5 24 1.69738627123354191e+00
6 24 1.68261761023270839e+00
7 24 1.66380715111810451e+00
8 24 1.64085761930235652e+00
9 24 1.61369827201075311e+00
10 24 1.58228752608067125e+00
11 24 1.54661521079997222e+00
12 24 1.50670435257995683e+00
13 24 1.46261240721404451e+00
14 24 1.41443186931920395e+00
15 24 1.36229020695137204e+00
16 24 1.30634909161616020e+00
17 24 1.24680291890410500e+00
18 24 1.18387664142465221e+00
19 24 1.11782296206926124e+00
20 24 1.04891896031521559e+00
21 24 9.77462245777548699e-01
22 24 9.03766750226505655e-01
23 24 8.28158280835819438e-01
24 24 7.50969962942065639e-01
25 24 6.72537699951821888e-01
26 24 5.93195771543788997e-01
27 24 5.13272679679323884e-01
28 24 4.33087336163634040e-01
29 24 3.52945666796387780e-01
30 24 2.73137686803002155e-01
31 24 1.93935081507151413e-01
32 24 1.15589306230118205e-01
33 24 3.83302011297197709e-02
34 24 1.05243084301725678e-16
1 25 1.75000000000000067e+00
2 25 1.74999999999999933e+00
3 25 1.74648965791393529e+00
4 25 1.73929283568205673e+00
5 25 1.72824783980142449e+00
6 25 1.71321065769148495e+00
7 25 1.69405819022934256e+00
8 25 1.67069139419876311e+00
9 25 1.64303824059276704e+00
10 25 1.61105639019122915e+00
11 25 1.57473548735997171e+00
12 25 1.53409897717231969e+00
13 25 1.48920536007248150e+00
14 25 1.44014881239773485e+00
15 25 1.38705911980503349e+00
16 25 1.33010089328190850e+00
17 25 1.26947206288417980e+00
18 25 1.20540167126873676e+00
19 25 1.13814701592506595e+00
20 25 1.06799021413912865e+00
21 25 9.95234286609867680e-01
22 25 9.20198872957896596e-01
23 25 8.43215704123743359e-01
24 25 7.64623962268285107e-01
25 25 6.84765658132764021e-01
26 25 6.03981149208221435e-01
27 25 5.22604910218947949e-01
28 25 4.40961651366609197e-01
29 25 3.59362860738140277e-01
30 25 2.78103826563056711e-01
31 25 1.97461173898190540e-01
32 25 1.17690929979756734e-01
33 25 3.90271138775328541e-02
34 25 1.07156594925393415e-16
1 26 1.78125000000000067e+00
2 26 1.78124999999999956e+00
3 26 1.77767697323382690e+00
4 26 1.77035163631923620e+00
5 26 1.75910940836930685e+00
6 26 1.74380370515026129e+00
7 26 1.72430922934058062e+00
8 26 1.70052516909516971e+00
9 26 1.67237820917478075e+00
10 26 1.63982525430178683e+00
11 26 1.60285576391997120e+00
12 26 1.56149360176468255e+00
13 26 1.51579831293091893e+00
14 26 1.46586575547626596e+00
15 26 1.41182803265869494e+00
16 26 1.35385269494765681e+00
17 26 1.29214120686425438e+00
18 26 1.22692670111282132e+00
19 26 1.15847106978087067e+00
20 26 1.08706146796304171e+00
21 26 1.01300632744218677e+00
22 26 9.36630995689287649e-01
23 26 8.58273127411667391e-01
24 26 7.78277961594504464e-01
25 26 6.96993616313706266e-01
26 26 6.14766526872653984e-01
27 26 5.31937140758572014e-01
28 26 4.48835966569584410e-01
29 26 3.65780054679892774e-01
30 26 2.83069966323111266e-01
31 26 2.00987266289229666e-01
32 26 1.19792553729395262e-01
33 26 3.97240266253459373e-02
34 26 1.09070105549061164e-16
1 27 1.81250000000000044e+00
2 27 1.81249999999999956e+00
3 27 1.80886428855371850e+00
4 27 1.80141043695641567e+00
5 27 1.78997097693718943e+00
6 27 1.77439675260903784e+00
7 27 1.75456026845181889e+00
8 27 1.73035894399157608e+00
9 27 1.70171817775679446e+00
10 27 1.66859411841234473e+00
11 27 1.63097604047997069e+00
12 27 1.58888822635704519e+00
13 27 1.54239126578935615e+00
14 27 1.49158269855479686e+00
15 27 1.43659694551235595e+00
16 27 1.37760449661340534e+00
17 27 1.31481035084432896e+00
18 27 1.24845173095690587e+00
19 27 1.17879512363667560e+00
20 27 1.10613272178695476e+00
21 27 1.03077836827450575e+00
22 27 9.53063118420678701e-01
23 27 8.73330550699591313e-01
24 27 7.91931960920723821e-01
25 27 7.09221574494648399e-01
26 27 6.25551904537086423e-01
27 27 5.41269371298196078e-01
28 27 4.56710281772559568e-01
29 27 3.72197248621645271e-01
30 27 2.88036106083165877e-01
31 27 2.04513358680268764e-01
32 27 1.21894177479033763e-01
33 27 4.04209393731590205e-02
34 27 1.10983616172728901e-16
1 28 1.84375000000000044e+00
2 28 1.84374999999999978e+00
3 28 1.84005160387360989e+00
4 28 1.83246923759359515e+00
5 28 1.82083254550507201e+00
6 28 1.80498980006781418e+00
7 28 1.78481130756305717e+00
8 28 1.76019271888798245e+00
9 28 1.73105814633880817e+00
10 28 1.69736298252290241e+00
11 28 1.65909631703997018e+00
12 28 1.61628285094940805e+00
13 28 1.56898421864779314e+00
14 28 1.51729964163332798e+00
15 28 1.46136585836601718e+00
16 28 1.40135629827915342e+00
17 28 1.33747949482440331e+00
18 28 1.26997676080099042e+00
19 28 1.19911917749248031e+00
20 28 1.12520397561086782e+00
21 28 1.04855040910682495e+00
22 28 9.69495241152069864e-01
23 28 8.88387973987515456e-01
24 28 8.05585960246943178e-01
25 28 7.21449532675590532e-01
26 28 6.36337282201518861e-01
27 28 5.50601601837820254e-01
28 28 4.64584596975534725e-01
29 28 3.78614442563397768e-01
30 28 2.93002245843220432e-01
31 28 2.08039451071307890e-01
32 28 1.23995801228672264e-01
33 28 4.11178521209721037e-02
34 28 1.12897126796396637e-16
1 29 1.87500000000000044e+00
2 29 1.87499999999999956e+00
3 29 1.87123891919350172e+00
4 29 1.86352803823077484e+00
5 29 1.85169411407295459e+00
6 29 1.83558284752659095e+00
7 29 1.81506234667429522e+00
8 29 1.79002649378438905e+00
9 29 1.76039811492082166e+00
10 29 1.72613184663346031e+00
11 29 1.68721659359996967e+00
12 29 1.64367747554177090e+00
13 29 1.59557717150623035e+00
14 29 1.54301658471185910e+00
15 29 1.48613477121967885e+00
16 29 1.42510809994490173e+00
17 29 1.36014863880447812e+00
18 29 1.29150179064507520e+00
19 29 1.21944323134828503e+00
20 29 1.14427522943478088e+00
21 29 1.06632244993914393e+00
22 29 9.85927363883461028e-01
23 29 9.03445397275439488e-01
24 29 8.19239959573162535e-01
25 29 7.33677490856532666e-01
26 29 6.47122659865951300e-01
27 29 5.59933832377444318e-01
28 29 4.72458912178509882e-01
29 29 3.85031636505150265e-01
30 29 2.97968385603275043e-01
31 29 2.11565543462347017e-01
32 29 1.26097424978310779e-01
33 29 4.18147648687851939e-02
34 29 1.14810637420064374e-16
1 30 1.90625000000000022e+00
2 30 1.90624999999999978e+00
3 30 1.90242623451339354e+00
4 30 1.89458683886795454e+00
5 30 1.88255568264083739e+00
6 30 1.86617589498536751e+00
7 30 1.84531338578553350e+00
8 30 1.81986026868079542e+00
9 30 1.78973808350283536e+00
10 30 1.75490071074401821e+00
11 30 1.71533687015996894e+00
12 30 1.67107210013413376e+00
13 30 1.62217012436466734e+00
14 30 1.56873352779038999e+00
15 30 1.51090368407334008e+00
16 30 1.44885990161065004e+00
17 30 1.38281778278455270e+00
18 30 1.31302682048915975e+00
19 30 1.23976728520408996e+00
20 30 1.16334648325869372e+00
21 30 1.08409449077146292e+00
22 30 1.00235948661485197e+00
23 30 9.18502820563363520e-01
24 30 8.32893958899382003e-01
25 30 7.45905449037474910e-01
26 30 6.57908037530383738e-01
27 30 5.69266062917068383e-01
28 30 4.80333227381485039e-01
29 30 3.91448830446902762e-01
30 30 3.02934525363329654e-01
31 30 2.15091635853386143e-01
32 30 1.28199048727949294e-01
33 30 4.25116776165982840e-02
34 30 1.16724148043732111e-16
1 31 1.93750000000000000e+00
2 31 1.93749999999999978e+00
3 31 1.93361354983328515e+00
4 31 1.92564563950513423e+00
5 31 1.91341725120871997e+00
6 31 1.89676894244414429e+00
7 31 1.87556442489677178e+00
8 31 1.84969404357720202e+00
9 31 1.81907805208484907e+00
10 31 1.78366957485457567e+00
11 31 1.74345714671996821e+00
12 31 1.69846672472649662e+00
13 31 1.64876307722310456e+00
14 31 1.59445047086892089e+00
15 31 1.53567259692700131e+00
16 31 1.47261170327639834e+00
17 31 1.40548692676462728e+00
18 31 1.33455185033324453e+00
19 31 1.26009133905989468e+00
20 31 1.18241773708260678e+00
21 31 1.10186653160378190e+00
22 31 1.01879160934624324e+00
23 31 9.33560243851287552e-01
24 31 8.46547958225601360e-01
25 31 7.58133407218417044e-01
26 31 6.68693415194816287e-01
27 31 5.78598293456692558e-01
28 31 4.88207542584460252e-01
29 31 3.97866024388655259e-01
30 31 3.07900665123384321e-01
31 31 2.18617728244425241e-01
32 31 1.30300672477587809e-01
33 31 4.32085903644113742e-02
34 31 1.18637658667399847e-16
1 32 1.96875000000000000e+00
2 32 1.96874999999999978e+00
3 32 1.96480086515317698e+00
4 32 1.95670444014231371e+00
5 32 1.94427881977660277e+00
6 32 1.92736198990292085e+00
7 32 1.90581546400801005e+00
8 32 1.87952781847360839e+00
9 32 1.84841802066686278e+00
10 32 1.81243843896513335e+00
11 32 1.77157742327996770e+00
12 32 1.72586134931885971e+00
13 32 1.67535603008154199e+00
14 32 1.62016741394745201e+00
15 32 1.56044150978066254e+00
16 32 1.49636350494214665e+00
17 32 1.42815607074470208e+00
18 32 1.35607688017732908e+00
19 32 1.28041539291569939e+00
20 32 1.20148899090651984e+00
21 32 1.11963857243610110e+00
22 32 1.03522373207763430e+00
23 32 9.48617667139211584e-01
24 32 8.60201957551820717e-01
25 32 7.70361365399359399e-01
26 32 6.79478792859248726e-01
27 32 5.87930523996316623e-01
28 32 4.96081857787435410e-01
29 32 4.04283218330407756e-01
30 32 3.12866804883438876e-01
31 32 2.22143820635464340e-01
32 32 1.32402296227226324e-01
33 32 4.39055031122244574e-02
34 32 1.20551169291067584e-16
1 33 2.00000000000000000e+00
2 33 2.00000000000000000e+00
3 33 1.99598818047306859e+00
4 33 1.98776324077949318e+00
5 33 1.97514038834448513e+00
6 33 1.95795503736169740e+00
7 33 1.93606650311924833e+00
8 33 1.90936159337001454e+00
9 33 1.87775798924887649e+00
10 33 1.84120730307569103e+00
11 33 1.79969769983996719e+00
12 33 1.75325597391122234e+00
13 33 1.70194898293997920e+00
14 33 1.64588435702598290e+00
15 33 1.58521042263432399e+00
16 33 1.52011530660789496e+00
17 33 1.45082521472477644e+00
18 33 1.37760191002141341e+00
19 33 1.30073944677150388e+00
20 33 1.22056024473043290e+00
21 33 1.13741061326842008e+00
22 33 1.05165585480902535e+00
23 33 9.63675090427135506e-01
24 33 8.73855956878040074e-01
25 33 7.82589323580301643e-01
26 33 6.90264170523681275e-01
27 33 5.97262754535940688e-01
28 33 5.03956172990410511e-01
29 33 4.10700412272160253e-01
30 33 3.17832944643493431e-01
31 33 2.25669913026503438e-01
32 33 1.34503919976864839e-01
33 33 4.46024158600375475e-02
34 33 1.22464679914735321e-16
